TITLE = " STAPpp FEM " 
VARIABLES = "X_POST", "Y_POST", "Z_POST", "STRESS_I", "STRESS_II", "STRESS_III", "STRESS_VONMISES", "STRESS_XX", "STRESS_YY", "STRESS_ZZ", "STRESS_XY", "STRESS_YZ", "STRESS_ZX"
ZONE T= "Bridge", N = 14080 ,E = 1760 ,F = FEPOINT , ET = BRICK, C = RED
  -9.83295e+47   -2.1537e+60   3.26653e+60   2.50585e+68  1.32378e+136  1.76005e+203    2.2261e+68   4.59374e+67   2.11847e+67   1.83463e+68  -1.36425e+66   6.83626e+66   1.11474e+66
   8.00314e+47  -1.20099e+60    7.5735e+59  -3.86737e+67 -1.21692e+135  2.06604e+202   5.20824e+67  -1.33104e+67  -4.55674e+67   2.02041e+67   -9.8123e+65   2.51576e+67  -2.62261e+64
   1.50455e+59  -1.13366e+60   7.59149e+59  -3.51611e+67 -1.28647e+135   1.9931e+202   5.02272e+67  -1.24998e+67  -4.37461e+67   2.10848e+67   3.96952e+66   2.49632e+67   2.90369e+66
   4.07894e+59   -2.0601e+60   3.19005e+60   2.44189e+68   1.2443e+136  1.59091e+203   2.17222e+68   4.44614e+67   2.07193e+67   1.79008e+68    3.5865e+66   7.15361e+66   9.05794e+66
             0           -10           -50   4.08397e+68  4.86203e+136  1.79184e+204   3.43756e+68   9.42704e+67   9.42455e+67   2.19881e+68   2.84814e+63  -4.14173e+67  -2.32724e+63
             0           -15           -50   9.46985e+67   2.1731e+135  1.26961e+202   8.24299e+67   2.18626e+67   2.18535e+67   5.09823e+67   2.04851e+63  -2.30959e+67   5.47523e+61
      -6.66667           -15           -50   9.49234e+67  2.23573e+135  1.39325e+202   8.23087e+67   2.19146e+67   2.19054e+67   5.11034e+67   2.04851e+63  -2.18013e+67   2.89334e+66
      -6.66667           -10           -50   3.98837e+68  4.63757e+136  1.66939e+204   3.35701e+68   9.20642e+67   9.20393e+67   2.14734e+68   2.84814e+63  -3.96173e+67   7.84158e+66
   8.00314e+47  -1.20099e+60    7.5735e+59   1.12088e+68   3.3922e+135  3.10279e+202   9.57676e+67   2.14807e+67   3.56118e+67   5.49952e+67   -9.8123e+65   2.26187e+67  -2.62261e+64
   2.13231e+48  -1.45437e+60  -1.61981e+60  -1.61342e+68  6.77757e+135 -8.28371e+202   1.38758e+68  -3.43216e+67  -2.74874e+67  -9.95332e+67  -1.29766e+66    1.7746e+67  -1.13367e+66
  -9.98728e+58  -1.36533e+60  -1.54203e+60   -1.5421e+68  6.15522e+135 -7.10414e+202   1.32762e+68  -3.26758e+67  -2.66767e+67   -9.4858e+67   3.51633e+66   1.80186e+67  -3.07857e+66
   1.50455e+59  -1.13366e+60   7.59149e+59   1.09602e+68  3.19015e+135  2.78226e+202   9.39273e+67   2.09069e+67    3.4203e+67   5.44916e+67   3.83277e+66   2.24685e+67   2.90369e+66
             0           -15           -50   9.46985e+67   2.1731e+135  1.26961e+202   8.24299e+67   2.18626e+67   2.18535e+67   5.09823e+67   2.04851e+63  -2.30959e+67   5.47523e+61
             0           -20           -50  -2.02496e+68  1.15923e+136 -2.01559e+203     1.715e+68  -4.67359e+67  -4.67299e+67   -1.0903e+68   2.70913e+63  -2.79686e+67   2.36677e+63
      -6.66667           -20           -50  -1.92773e+68  1.05217e+136 -1.74604e+203   1.63217e+68  -4.44923e+67  -4.44862e+67  -1.03795e+68   2.70913e+63  -2.62564e+67  -1.91821e+66
      -6.66667           -15           -50   9.49234e+67  2.23573e+135  1.39325e+202   8.23087e+67   2.19146e+67   2.19054e+67   5.11034e+67   2.04851e+63  -2.18013e+67   2.89334e+66
   4.07894e+59   -2.0601e+60   3.19005e+60   2.29893e+68  9.96902e+135  1.07973e+203    2.0708e+68   3.68755e+67   1.74204e+67   1.75598e+68   -6.8288e+65   7.22476e+66   1.24467e+67
   1.50455e+59  -1.13366e+60   7.59149e+59  -3.82078e+67  -1.2009e+135   2.2164e+202   5.15823e+67  -1.41386e+67  -4.44492e+67     2.038e+67   9.22598e+65    2.5014e+67   2.96299e+66
   3.33011e+59  -8.57287e+59   7.57415e+59  -2.46581e+67 -1.42877e+135  1.88298e+202   4.51308e+67  -1.10118e+67  -3.70856e+67   2.34393e+67   8.08418e+66   2.45344e+67   6.51803e+66
   9.62852e+59  -1.67356e+60   2.88351e+60   2.04861e+68  7.24924e+135  6.29778e+202    1.8633e+68   3.10987e+67   1.58803e+67   1.57882e+68    6.4787e+66   8.89024e+66   2.32538e+67
      -6.66667           -10           -50   3.98867e+68  4.63841e+136  1.66988e+204   3.35724e+68     9.208e+67   9.20462e+67   2.14741e+68    1.1761e+64  -3.96174e+67    7.8345e+66
      -6.66667           -15           -50   9.49297e+67  2.23615e+135  1.39362e+202   8.23135e+67    2.1918e+67   2.19069e+67   5.11049e+67   8.40936e+63  -2.18014e+67   2.89322e+66
      -13.3333           -15           -50    9.4713e+67   2.3946e+135  1.75286e+202   8.10922e+67   2.18679e+67   2.18568e+67   5.09882e+67   8.40936e+63  -1.64866e+67   6.40383e+66
      -13.3333           -10           -50    3.6055e+68  3.78551e+136  1.22961e+204   3.03548e+68   8.32376e+67   8.32039e+67   1.94109e+68    1.1761e+64  -3.21843e+67   1.85065e+67
   1.50455e+59  -1.13366e+60   7.59149e+59   1.06555e+68  2.96718e+135  2.47246e+202   9.15791e+67   1.92681e+67   3.34999e+67   5.37868e+67   7.85847e+65   2.25193e+67   2.96299e+66
  -9.98728e+58  -1.36533e+60  -1.54203e+60  -1.45412e+68  5.20994e+135  -5.3861e+202   1.26233e+68   -2.8045e+67  -2.46463e+67  -9.27207e+67  -3.03496e+65   1.80823e+67  -6.30676e+66
  -2.88952e+59  -1.01421e+60  -1.24424e+60  -1.17061e+68  3.10561e+135 -2.27822e+202   1.02945e+68  -2.15025e+67  -2.09784e+67  -7.45801e+67   6.84334e+66   1.91598e+67  -9.98883e+66
   3.33011e+59  -8.57287e+59   7.57415e+59   9.69926e+67    2.232e+135   1.4453e+202   8.47087e+67   1.70614e+67   2.84186e+67   5.15126e+67   7.93268e+66   2.21414e+67   6.51803e+66
      -6.66667           -15           -50   9.49297e+67  2.23615e+135  1.39362e+202   8.23135e+67    2.1918e+67   2.19069e+67   5.11049e+67   8.40936e+63  -2.18014e+67   2.89322e+66
      -6.66667           -20           -50  -1.92792e+68  1.05242e+136  -1.7467e+203   1.63231e+68  -4.45019e+67  -4.44904e+67  -1.03799e+68   1.06835e+64  -2.62566e+67  -1.91147e+66
      -13.3333           -20           -50  -1.55569e+68  6.89286e+135 -9.32157e+202   1.31564e+68  -3.59121e+67  -3.59006e+67  -8.37566e+67   1.06835e+64  -1.95045e+67  -5.54751e+66
      -13.3333           -15           -50    9.4713e+67   2.3946e+135  1.75286e+202   8.10922e+67   2.18679e+67   2.18568e+67   5.09882e+67   8.40936e+63  -1.64866e+67   6.40383e+66
   9.62852e+59  -1.67356e+60   2.88351e+60   1.62241e+68   1.6572e+135  1.66921e+201   1.57051e+68   7.84204e+66   6.04504e+66   1.48354e+68  -3.13539e+66   9.21071e+66   1.88612e+67
   3.33011e+59  -8.57287e+59   7.57415e+59   -3.7579e+67 -1.11532e+135  2.63778e+202   5.02743e+67  -1.81173e+67  -4.00674e+67   2.06057e+67  -2.12208e+66   2.48746e+67   4.36531e+66
   6.57037e+59   1.19356e+59   9.08097e+59  -9.81518e+66 -2.97662e+135  4.10535e+202   5.54343e+67  -1.17103e+67  -3.09863e+67   3.28814e+67   1.11734e+67   4.11916e+67   1.06753e+67
   1.97824e+60  -6.27397e+59    2.8937e+60   1.72222e+68  9.90798e+134 -1.38107e+201   1.69321e+68   1.01453e+67   1.10223e+67   1.51054e+68   1.01601e+67   2.68817e+67   3.86345e+67
      -13.3333           -10           -50   3.60639e+68  3.78772e+136  1.23075e+204   3.03617e+68   8.32862e+67   8.32244e+67   1.94128e+68   3.18327e+64   -3.2185e+67   1.85157e+67
      -13.3333           -15           -50   9.47399e+67  2.39631e+135  1.75443e+202   8.11132e+67   2.18828e+67   2.18631e+67   5.09941e+67   2.97171e+64  -1.64873e+67   6.40832e+66
           -20           -15           -50   1.13575e+68  3.72834e+135  3.77049e+202   9.57648e+67   2.62293e+67   2.62096e+67   6.11359e+67   2.97171e+64   2.29381e+66   1.26394e+67
           -20           -10           -50   3.61913e+68  3.79409e+136  1.22683e+204   3.05025e+68   8.35802e+67   8.35184e+67   1.94814e+68   3.18327e+64  -1.20669e+67   3.80419e+67
   3.33011e+59  -8.57287e+59   7.57415e+59   8.40716e+67  1.44648e+135  6.11323e+201    7.4977e+67    9.9559e+66   2.54368e+67   4.86789e+67  -2.27357e+66   2.24816e+67   4.36531e+66
  -2.88952e+59  -1.01421e+60  -1.24424e+60  -9.99597e+67  1.79261e+135 -6.48243e+201   9.05502e+67   -1.2278e+67  -1.70319e+67  -7.06498e+67  -3.23244e+66   1.94957e+67  -9.83465e+66
  -6.59099e+59   2.82171e+58  -9.63066e+59  -7.25927e+67  -6.7863e+134  5.26675e+200   7.71254e+67  -5.96249e+66  -1.32468e+67  -5.33834e+67    1.0117e+67   3.72862e+67  -1.70428e+67
   6.57037e+59   1.19356e+59   9.08097e+59   9.49212e+67  7.20197e+134 -1.55388e+201   9.10485e+67   1.24596e+67   2.54102e+67   5.70513e+67   1.10759e+67   3.89909e+67   1.06753e+67
      -13.3333           -15           -50   9.47399e+67  2.39631e+135  1.75443e+202   8.11132e+67   2.18828e+67   2.18631e+67   5.09941e+67   2.97171e+64  -1.64873e+67   6.40832e+66
      -13.3333           -20           -50  -1.55605e+68  6.89671e+135 -9.32957e+202   1.31591e+68  -3.59314e+67  -3.59089e+67  -8.37648e+67    3.1719e+64  -1.95052e+67  -5.54783e+66
           -20           -20           -50  -1.20459e+68  4.21901e+135 -4.56783e+202   1.01447e+68  -2.78208e+67  -2.77983e+67  -6.48402e+67    3.1719e+64   5.41051e+65  -1.26659e+67
           -20           -15           -50   1.13575e+68  3.72834e+135  3.77049e+202   9.57648e+67   2.62293e+67   2.62096e+67   6.11359e+67   2.97171e+64   2.29381e+66   1.26394e+67
   1.21311e+47  -5.95303e+60   6.68343e+60   2.62436e+68  1.42383e+136  2.12411e+203    2.3374e+68   3.96502e+67   3.08045e+67   1.91981e+68  -3.31033e+66   2.22561e+67   1.66978e+66
    3.3995e+48  -5.17933e+60   1.72677e+60  -1.46798e+66  -1.5319e+135  1.18635e+202    3.9167e+67  -8.31842e+66  -3.00964e+67   3.69468e+67  -2.99992e+66   1.88136e+67  -1.66924e+64
   2.69972e+59  -4.97625e+60    1.7279e+60   1.07137e+66 -1.55124e+135  1.07484e+202   3.94003e+67  -7.73241e+66  -2.87037e+67   3.75075e+67   5.41357e+66   1.92805e+67    2.3482e+66
   7.07473e+59  -5.72897e+60   6.57047e+60   2.60317e+68  1.39792e+136   2.0657e+203   2.31918e+68   3.91613e+67   3.11222e+67   1.90034e+68   5.10316e+66   2.26262e+67   7.60519e+66
  -9.83295e+47   -2.1537e+60   3.26653e+60   2.69361e+68  1.53337e+136   2.1703e+203    2.3921e+68   5.02641e+67   2.55174e+67   1.93579e+68  -1.36302e+66  -2.48106e+67   1.11593e+66
   8.00314e+47  -1.20099e+60    7.5735e+59  -1.21698e+67 -2.12357e+135   1.5497e+202   4.76621e+67  -7.19582e+66  -3.94511e+67   3.44772e+67  -9.79041e+65  -2.82531e+67  -2.63018e+64
   1.50455e+59  -1.13366e+60   7.59149e+59  -8.96606e+66 -2.06777e+135  1.24672e+202   4.63483e+67   -6.4565e+66  -3.77011e+67   3.51915e+67   3.97171e+66  -2.71314e+67   2.30866e+66
   4.07894e+59   -2.0601e+60   3.19005e+60   2.67965e+68  1.52881e+136  2.17861e+203   2.37734e+68   4.99421e+67   2.62062e+67   1.91817e+68   3.58772e+66  -2.37845e+67    6.9762e+66
    3.3995e+48  -5.17933e+60   1.72677e+60   1.09401e+68   3.0774e+135  2.52624e+202   9.42925e+67   1.72666e+67   2.96021e+67   6.25319e+67  -2.99992e+66    1.8855e+67  -1.66924e+64
   6.22407e+48  -5.29258e+60  -3.23203e+60  -1.71869e+68  7.89184e+135 -1.07701e+203    1.4713e+68  -3.48923e+67  -3.53064e+67  -1.01671e+68  -3.15694e+66   2.15498e+67  -1.69681e+66
  -1.61356e+59  -5.07891e+60  -3.11725e+60  -1.68384e+68  7.53668e+135 -9.97827e+202    1.4428e+68   -3.4088e+67  -3.49095e+67  -9.93867e+67   5.13782e+66   2.18137e+67  -2.91892e+66
   2.69972e+59  -4.97625e+60    1.7279e+60   1.07994e+68  2.93063e+135  2.26624e+202   9.34461e+67   1.69421e+67   2.88702e+67   6.21821e+67   5.29484e+66   1.93301e+67    2.3482e+66
   8.00314e+47  -1.20099e+60    7.5735e+59   1.38592e+68  5.00429e+135  5.35297e+202   1.19178e+68   2.75953e+67   4.17281e+67   6.92683e+67  -9.79041e+65   -3.0792e+67  -2.63018e+64
   2.13231e+48  -1.45437e+60  -1.61981e+60  -1.60386e+68  6.21382e+135  -6.5028e+202   1.39678e+68  -3.40988e+67  -2.72669e+67  -9.90208e+67  -1.29648e+66  -2.80972e+67  -1.13489e+66
  -9.98728e+58  -1.36533e+60  -1.54203e+60  -1.58352e+68  6.12276e+135 -6.36519e+202   1.37669e+68  -3.36293e+67  -2.76324e+67  -9.70904e+67   3.51752e+66  -2.71398e+67  -2.34153e+66
   1.50455e+59  -1.13366e+60   7.59149e+59   1.35797e+68  4.79664e+135  4.90057e+202   1.16808e+68   2.69503e+67    4.0248e+67   6.85983e+67   3.83496e+66  -2.96261e+67   2.30866e+66
   7.07473e+59  -5.72897e+60   6.57047e+60     2.401e+68  1.02682e+136  1.17765e+203   2.17669e+68   2.83715e+67   2.64568e+67   1.85272e+68  -3.33307e+66   2.27668e+67   1.05415e+67
   2.69972e+59  -4.97625e+60    1.7279e+60  -2.61939e+66  -1.5414e+135  1.38478e+202   3.93479e+67  -9.73166e+66  -2.95555e+67   3.66677e+67  -2.73118e+66   1.94162e+67   2.00027e+66
   5.78745e+59  -4.22184e+60   1.75325e+60   5.87478e+66 -1.74017e+135   1.1093e+202   4.21269e+67  -7.77147e+66   -2.6036e+67   3.96822e+67   8.91954e+66   2.23855e+67   4.50358e+66
   1.62208e+60  -4.93402e+60   6.26253e+60     2.445e+68  1.07462e+136  1.26477e+203   2.21437e+68   2.93869e+67   2.90315e+67   1.86082e+68   8.31765e+66   2.44074e+67   1.76832e+67
   4.07894e+59   -2.0601e+60   3.19005e+60   2.53652e+68  1.25927e+136  1.56697e+203   2.27479e+68   4.23469e+67   2.29031e+67   1.88402e+68  -6.81891e+65  -2.37133e+67   1.03731e+67
   1.50455e+59  -1.13366e+60   7.59149e+59  -1.20179e+67 -2.03252e+135  1.67306e+202   4.66578e+67  -8.09805e+66  -3.84053e+67   3.44855e+67    9.2911e+65  -2.70807e+67   2.36894e+66
   3.33011e+59  -8.57287e+59   7.57415e+59   5.13443e+66 -1.88099e+135  3.52828e+201   4.36733e+67  -4.13982e+66  -3.02104e+67   3.94847e+67   8.09069e+66  -2.36825e+67   4.84057e+66
   9.62852e+59  -1.67356e+60   2.88351e+60   2.66762e+68      1.5e+136   2.1843e+203   2.36985e+68   4.53723e+67   3.01652e+67   1.91225e+68   6.47969e+66   -2.1627e+67   1.74244e+67
   2.69972e+59  -4.97625e+60    1.7279e+60   1.04304e+68  2.66298e+135  1.91882e+202   9.06436e+67   1.49429e+67   2.80185e+67   6.13423e+67  -2.84992e+66   1.94659e+67   2.00027e+66
  -1.61356e+59  -5.07891e+60  -3.11725e+60  -1.55853e+68  6.07715e+135 -6.83226e+202   1.34956e+68  -2.74605e+67  -3.20177e+67  -9.63749e+67  -3.08808e+66   2.19508e+67  -6.55043e+66
  -4.49061e+59  -4.30852e+60  -2.75902e+60  -1.49721e+68  5.39815e+135 -5.50567e+202   1.30454e+68  -2.60455e+67  -3.12172e+67  -9.24588e+67   8.38265e+66    2.3802e+67  -8.51796e+66
   5.78745e+59  -4.22184e+60   1.75325e+60   1.05733e+68  2.52293e+135  1.53948e+202   9.30406e+67   1.52727e+67   2.77339e+67   6.27264e+67   8.62082e+66   2.24431e+67   4.50358e+66
   1.50455e+59  -1.13366e+60   7.59149e+59   1.32745e+68  4.52283e+135  4.54334e+202   1.14448e+68   2.53087e+67   3.95437e+67   6.78922e+67   7.92359e+65  -2.95754e+67   2.36894e+66
  -9.98728e+58  -1.36533e+60  -1.54203e+60  -1.49543e+68  5.16149e+135 -4.85039e+202   1.31155e+68   -2.8993e+67  -2.55996e+67  -9.49504e+67  -3.01091e+65  -2.70762e+67  -5.57572e+66
  -2.88952e+59  -1.01421e+60  -1.24424e+60   -1.5086e+68  5.51868e+135 -5.18546e+202   1.31301e+68  -2.92968e+67  -2.87781e+67  -9.27848e+67   6.84574e+66  -2.46882e+67  -7.51834e+66
   3.33011e+59  -8.57287e+59   7.57415e+59   1.26785e+68  4.07957e+135  3.37038e+202   1.09521e+68   2.39334e+67   3.52938e+67   6.75579e+67   7.93919e+66  -2.60755e+67   4.84057e+66
   1.62208e+60  -4.93402e+60   6.26253e+60   2.22362e+68  6.98914e+135  4.71434e+202   2.06048e+68   1.73018e+67   2.39227e+67   1.81138e+68  -6.13194e+66    2.4889e+67   1.53307e+67
   5.78745e+59  -4.22184e+60   1.75325e+60    3.2801e+66 -1.71988e+135  1.29019e+202    4.1601e+67  -9.23915e+66  -2.66347e+67    3.9154e+67  -5.19547e+66    2.2856e+67   3.45979e+66
   9.16652e+59  -2.51269e+60   1.84998e+60   4.60207e+66 -2.21334e+135  1.64795e+202   4.72707e+67  -8.93408e+66  -2.38953e+67   3.74314e+67   1.04206e+67   3.27851e+67   3.81003e+66
   2.77203e+60  -3.16158e+60   6.12118e+60   2.11105e+68  5.36337e+135  3.11785e+202   1.97994e+68   1.47039e+67   2.37592e+67   1.72642e+68    9.4841e+66   3.47139e+67   1.82017e+67
   9.62852e+59  -1.67356e+60   2.88351e+60   2.24009e+68  7.50627e+135  6.77883e+202   2.06576e+68   2.20428e+67   2.02991e+67   1.81667e+68  -3.14455e+66  -2.13061e+67   1.30182e+67
   3.33011e+59  -8.57287e+59   7.57415e+59  -7.83576e+66 -1.81188e+135  2.01944e+202   4.32814e+67  -1.12723e+67  -3.32035e+67   3.66401e+67  -2.12892e+66  -2.33418e+67   2.68094e+66
   6.57037e+59   1.19356e+59   9.08097e+59  -5.65148e+66 -1.38146e+135  7.94219e+201   3.75952e+67  -1.07683e+67  -3.00254e+67   3.51422e+67   1.11665e+67  -1.17196e+67   3.02675e+66
   1.97824e+60  -6.27397e+59    2.8937e+60   2.13773e+68  6.94533e+135  4.22798e+202   1.96859e+68   1.96805e+67    2.0611e+67   1.73481e+68   1.01509e+67  -9.78684e+66   1.58528e+67
   5.78745e+59  -4.22184e+60   1.75325e+60   1.03138e+68  2.35381e+135  1.29779e+202   9.10149e+67   1.38051e+67   2.71351e+67   6.21982e+67  -5.49419e+66   2.29136e+67   3.45979e+66
  -4.49061e+59  -4.30852e+60  -2.75902e+60  -1.30931e+68  3.51269e+135 -2.16895e+202   1.16749e+68  -1.58992e+67  -2.68809e+67  -8.81509e+67  -5.47781e+66    2.4264e+67  -8.18883e+66
  -9.33183e+59  -2.60062e+60  -2.42962e+60  -1.24218e+68  2.40878e+135 -1.04014e+202   1.14111e+68  -1.43501e+67  -2.52838e+67  -8.45844e+67   1.03304e+67   3.30075e+67     -1.05e+67
   9.16652e+59  -2.51269e+60   1.84998e+60   9.67047e+67  1.34141e+135  1.18063e+201   8.95008e+67   1.23204e+67   2.56984e+67   5.86859e+67   1.03141e+67   3.29466e+67   3.81003e+66
   3.33011e+59  -8.57287e+59   7.57415e+59   1.13815e+68  3.04554e+135  2.37377e+202   9.95404e+67   1.68009e+67   3.23007e+67   6.47133e+67  -2.28042e+66  -2.57348e+67   2.68094e+66
  -2.88952e+59  -1.01421e+60  -1.24424e+60  -1.33726e+68  3.82742e+135 -3.12213e+202   1.18554e+68  -2.00547e+67  -2.48241e+67  -8.88469e+67  -3.24338e+66  -2.43518e+67  -7.36421e+66
  -6.59099e+59   2.82171e+58  -9.63066e+59  -1.35476e+68  4.38934e+135 -3.14644e+202   1.18171e+68  -2.04586e+67  -2.77583e+67  -8.72589e+67   1.01061e+67  -1.38105e+67  -9.64609e+66
   6.57037e+59   1.19356e+59   9.08097e+59   9.90849e+67  2.38696e+135  9.92344e+201   8.62024e+67   1.34017e+67   2.63711e+67   5.93122e+67   1.10691e+67  -1.39203e+67   3.02675e+66
    2.4458e+48  -1.22334e+61   1.01229e+61   2.43725e+68   1.0664e+136  1.24829e+203   2.20767e+68   2.78518e+67   2.73435e+67    1.8853e+68   -5.2287e+66   2.17741e+67   1.45793e+66
   7.65335e+48   -1.1482e+61   2.71025e+60  -4.57972e+66 -1.66039e+135  1.68072e+202   4.10045e+67  -1.13912e+67  -2.99577e+67   3.67692e+67  -5.06299e+66   2.13458e+67  -5.37437e+64
   3.44994e+59  -1.11438e+61   2.71385e+60  -2.88611e+66 -1.70774e+135  1.62104e+202   4.14255e+67  -1.10004e+67  -2.91424e+67   3.72567e+67   6.53141e+66   2.20884e+67   1.47511e+66
   9.47903e+59  -1.18842e+61   1.00256e+61   2.46909e+68  1.10725e+136  1.33378e+203   2.23364e+68   2.85865e+67   2.85027e+67    1.8982e+68   6.36571e+66   2.23285e+67   6.31818e+66
   1.21311e+47  -5.95303e+60   6.68343e+60   2.65242e+68  1.44883e+136  2.17189e+203   2.36358e+68   4.02946e+67   3.14521e+67   1.93496e+68  -3.31039e+66  -2.54557e+67   1.67142e+66
    3.3995e+48  -5.17933e+60   1.72677e+60   2.80058e+65 -1.86898e+135  1.38693e+202   4.32326e+67  -7.91767e+66   -2.9693e+67   3.78907e+67  -2.99983e+66  -2.58841e+67  -1.65925e+64
   2.69972e+59  -4.97625e+60    1.7279e+60   3.21156e+66 -1.84459e+135  1.10993e+202   4.30686e+67  -7.24117e+66  -2.82099e+67   3.86626e+67   5.41366e+66  -2.54303e+67   1.49266e+66
   7.07473e+59  -5.72897e+60   6.57047e+60   2.69645e+68  1.52208e+136  2.33784e+203   2.39765e+68   4.13105e+67   3.32747e+67   1.95059e+68    5.1031e+66  -2.51878e+67   6.46936e+66
   7.65335e+48   -1.1482e+61   2.71025e+60   1.04813e+68  2.56649e+135   1.6875e+202   9.17569e+67   1.38533e+67   2.89462e+67   6.20138e+67  -5.06299e+66   2.15181e+67  -5.37437e+64
   1.24272e+49  -1.16057e+61  -4.71132e+60  -1.44897e+68  5.18802e+135 -5.25029e+202   1.25726e+68  -2.58843e+67  -2.86792e+67  -9.03331e+67  -5.12792e+66   2.13168e+67  -1.58228e+66
  -2.52233e+59  -1.12632e+61  -4.60574e+60  -1.46417e+68  5.27706e+135 -5.40202e+202   1.27125e+68  -2.62351e+67  -2.91961e+67  -9.09854e+67    6.3572e+66   2.19182e+67  -3.39285e+66
   3.44994e+59  -1.11438e+61   2.71385e+60   1.04587e+68  2.49775e+135  1.55782e+202   9.18734e+67   1.38011e+67   2.87278e+67   6.20582e+67   6.42213e+66   2.22391e+67   1.47511e+66
    3.3995e+48  -5.17933e+60   1.72677e+60   1.11149e+68  2.87935e+135  2.12768e+202   9.73379e+67   1.76674e+67   3.00055e+67   6.34758e+67  -2.99983e+66  -2.58426e+67  -1.65925e+64
   6.22407e+48  -5.29258e+60  -3.23203e+60  -1.55258e+68  6.08487e+135 -6.88419e+202    1.3424e+68  -3.10609e+67  -3.14731e+67  -9.27243e+67  -3.15671e+66   -2.6044e+67  -1.69826e+66
  -1.61356e+59  -5.07891e+60  -3.11725e+60   -1.5755e+68  6.31191e+135 -7.11283e+202   1.36051e+68  -3.15897e+67  -3.24092e+67  -9.35507e+67   5.13806e+66     -2.57e+67  -3.48561e+66
   2.69972e+59  -4.97625e+60    1.7279e+60   1.10135e+68  2.80149e+135  1.89507e+202   9.65823e+67   1.74334e+67   2.93641e+67   6.33371e+67   5.29493e+66  -2.53807e+67   1.49266e+66
   9.47903e+59  -1.18842e+61   1.00256e+61   2.32981e+68  8.58277e+135  7.88599e+202    2.1377e+68   2.11706e+67   2.52886e+67   1.86522e+68  -5.67296e+66   2.25291e+67   8.86193e+66
   3.44994e+59  -1.11438e+61   2.71385e+60  -3.95554e+66 -1.70191e+135  1.70826e+202   4.14434e+67  -1.15822e+67  -2.93892e+67   3.70158e+67   -5.2368e+66   2.22845e+67    1.3005e+66
   7.01105e+59  -1.00198e+61   2.72925e+60  -1.53874e+66 -1.80874e+135  1.60969e+202   4.25571e+67  -1.10244e+67  -2.77129e+67   3.71986e+67   8.83729e+66   2.42878e+67   2.29976e+66
   2.03587e+60  -1.07311e+61   9.76097e+60   2.41601e+68  9.63819e+135  9.85536e+202   2.20755e+68   2.31598e+67   2.83963e+67   1.90045e+68   8.40114e+66   2.43193e+67   1.24673e+67
   7.07473e+59  -5.72897e+60   6.57047e+60   2.49402e+68  1.13938e+136  1.43833e+203   2.25405e+68   3.05066e+67   2.86032e+67   1.90292e+68  -3.33434e+66  -2.50472e+67   9.40557e+66
   2.69972e+59  -4.97625e+60    1.7279e+60  -4.86187e+65 -1.82876e+135  1.59893e+202   4.27668e+67  -9.24422e+66  -2.90632e+67   3.78212e+67  -2.73426e+66  -2.52945e+67   1.14348e+66
   5.78745e+59  -4.22184e+60   1.75325e+60   3.37863e+66 -1.79826e+135  9.64454e+201   4.25403e+67  -8.35234e+66   -2.6612e+67    3.8343e+67   8.91646e+66  -2.44101e+67   2.12993e+66
   1.62208e+60  -4.93402e+60   6.26253e+60    2.5939e+68  1.29054e+136  1.63158e+203    2.3319e+68   3.28115e+67   3.24675e+67   1.94111e+68   8.31638e+66  -2.43732e+67   1.29647e+67
   3.44994e+59  -1.11438e+61   2.71385e+60   1.03518e+68   2.4207e+135  1.44936e+202   9.10781e+67   1.32194e+67   2.84811e+67   6.18173e+67  -5.34608e+66   2.24352e+67    1.3005e+66
  -2.52233e+59  -1.12632e+61  -4.60574e+60   -1.3483e+68  4.08698e+135 -3.20261e+202   1.18711e+68  -2.00917e+67  -2.65223e+67  -8.82163e+67  -5.42927e+66   2.21146e+67  -6.28375e+66
  -6.20215e+59  -1.01336e+61  -4.30928e+60  -1.42761e+68  4.57881e+135  -4.0026e+202   1.25706e+68  -2.19219e+67  -2.85652e+67  -9.22741e+67   8.49562e+66   2.38987e+67  -7.91941e+66
   7.01105e+59  -1.00198e+61   2.72925e+60   1.01608e+68   2.1575e+135  1.03995e+202   9.03698e+67   1.27787e+67   2.78277e+67   6.10017e+67    8.5788e+66   2.44188e+67   2.29976e+66
   2.69972e+59  -4.97625e+60    1.7279e+60   1.06437e+68  2.53931e+135  1.72788e+202   9.37523e+67   1.54303e+67   2.85108e+67   6.24958e+67  -2.85299e+66  -2.52449e+67   1.14348e+66
  -1.61356e+59  -5.07891e+60  -3.11725e+60  -1.45009e+68  4.95462e+135 -4.91457e+202   1.26779e+68  -2.49569e+67  -2.95151e+67  -9.05366e+67  -3.08966e+66  -2.55629e+67  -7.11956e+66
  -4.49061e+59  -4.30852e+60  -2.75902e+60  -1.54153e+68  5.73271e+135 -5.32653e+202   1.34277e+68  -2.70671e+67  -3.22397e+67  -9.48458e+67   8.38108e+66  -2.48675e+67  -8.73424e+66
   5.78745e+59  -4.22184e+60   1.75325e+60   1.03237e+68  2.29619e+135  1.02044e+202   9.14421e+67   1.46919e+67   2.71578e+67   6.13872e+67   8.61775e+66  -2.43525e+67   2.12993e+66
   2.03587e+60  -1.07311e+61   9.76097e+60   2.25635e+68  6.85285e+135  3.87807e+202     2.099e+68   1.45185e+67   2.47118e+67   1.86404e+68  -7.70887e+66   2.48563e+67   1.18894e+67
   7.01105e+59  -1.00198e+61   2.72925e+60  -1.38578e+66 -1.80697e+135  1.54695e+202   4.25311e+67  -1.09423e+67  -2.76776e+67   3.72341e+67  -7.11155e+66   2.48195e+67   2.29575e+66
   1.05559e+60  -7.83116e+60   2.74472e+60  -6.54078e+66 -1.98124e+135  2.03145e+202   4.49892e+67  -1.21319e+67  -2.73359e+67   3.29271e+67   1.01717e+67   3.00425e+67   2.70304e+66
   3.28908e+60  -8.50265e+60   9.54017e+60   2.20322e+68  6.13396e+135  3.51812e+202   2.05932e+68   1.32924e+67    2.5017e+67   1.82013e+68   9.57435e+66   2.96377e+67   1.41882e+67
   1.62208e+60  -4.93402e+60   6.26253e+60   2.37283e+68   8.9475e+135  8.84451e+202   2.17613e+68   2.07432e+67   2.73659e+67   1.89174e+68  -6.13999e+66  -2.38913e+67   1.06128e+67
   5.78745e+59  -4.22184e+60   1.75325e+60   8.00291e+65 -1.73439e+135  1.49968e+202   4.16537e+67  -9.81122e+66   -2.7207e+67   3.78185e+67  -5.20296e+66  -2.39395e+67   1.08631e+66
   9.16652e+59  -2.51269e+60   1.84998e+60  -1.28961e+66 -1.42485e+135  8.32981e+201   3.77692e+67  -1.02935e+67  -2.52549e+67   3.42588e+67   1.04131e+67  -1.88764e+67   1.48838e+66
   2.77203e+60  -3.16158e+60   6.12118e+60   2.35037e+68  9.15041e+135  7.61482e+202   2.14691e+68    2.0225e+67    2.9282e+67    1.8553e+68   9.47605e+66  -1.92642e+67   1.28822e+67
   7.01105e+59  -1.00198e+61   2.72925e+60   1.01761e+68   2.1619e+135  9.55941e+201   9.05175e+67   1.28608e+67    2.7863e+67   6.10372e+67  -7.37004e+66   2.49505e+67   2.29575e+66
  -6.20215e+59  -1.01336e+61  -4.30928e+60  -1.26661e+68   2.9976e+135 -1.26562e+202   1.14217e+68  -1.32129e+67  -2.48498e+67  -8.85986e+67  -7.19609e+66   2.44218e+67  -7.40545e+66
  -1.15476e+60  -7.95666e+60   -4.0527e+60  -1.33894e+68  3.16243e+135 -1.71886e+202   1.21512e+68   -1.4882e+67  -2.60715e+67  -9.29403e+67   9.90057e+66   2.93492e+67  -8.50855e+66
   1.05559e+60  -7.83116e+60   2.74472e+60   9.30834e+67  1.35714e+135  2.24765e+201   8.54832e+67   1.08583e+67   2.63078e+67   5.59173e+67   9.72661e+66   3.00804e+67   2.70304e+66
   5.78745e+59  -4.22184e+60   1.75325e+60   1.00659e+68   2.1718e+135  1.22581e+202   8.92208e+67    1.3233e+67   2.65628e+67   6.08627e+67  -5.50168e+66  -2.38819e+67   1.08631e+66
  -4.49061e+59  -4.30852e+60  -2.75902e+60  -1.35353e+68  3.83318e+135 -3.02112e+202   1.20363e+68  -1.69157e+67  -2.79013e+67  -9.05358e+67  -5.48354e+66  -2.44053e+67  -8.40513e+66
  -9.33183e+59  -2.60062e+60  -2.42962e+60  -1.43772e+68  4.61521e+135 -2.96856e+202   1.26709e+68  -1.88586e+67  -2.97961e+67   -9.5117e+67   1.03247e+67  -1.94384e+67  -9.49409e+66
   9.16652e+59  -2.51269e+60   1.84998e+60    9.0813e+67  1.76769e+135  4.44552e+201   8.04942e+67   1.09609e+67   2.43388e+67   5.55132e+67   1.03066e+67   -1.8715e+67   1.48838e+66
   5.89628e+48  -2.09411e+61   1.36381e+61   2.38602e+68  9.18529e+135  8.90565e+202   2.18508e+68   2.13486e+67   2.69902e+67   1.90263e+68  -6.72354e+66   2.32668e+67   1.20334e+66
   1.34193e+49  -2.02112e+61   3.72051e+60  -2.38475e+66 -1.77935e+135  1.78495e+202   4.22497e+67  -1.20682e+67  -2.86222e+67   3.83057e+67  -6.62309e+66   2.28523e+67   1.35761e+64
   3.79408e+59  -1.97748e+61   3.71961e+60  -2.12229e+66 -1.80087e+135  1.76979e+202   4.24897e+67  -1.20077e+67  -2.83075e+67   3.81929e+67   7.43982e+66   2.33469e+67   7.71378e+65
   1.11068e+60   -2.0498e+61   1.35589e+61   2.41552e+68  9.55056e+135  9.62041e+202     2.209e+68   2.20294e+67   2.79251e+67   1.91598e+68   7.33936e+66   2.36778e+67   4.61461e+66
    2.4458e+48  -1.22334e+61   1.01229e+61   2.53186e+68  1.17688e+136  1.48083e+203   2.28767e+68   3.00303e+67   2.95266e+67   1.93629e+68  -5.22962e+66  -2.49059e+67   1.45802e+66
   7.65335e+48   -1.1482e+61   2.71025e+60  -1.24077e+66 -1.89218e+135  1.77669e+202   4.35169e+67  -1.06232e+67  -2.91872e+67   3.85697e+67  -5.06408e+66  -2.53204e+67  -5.39703e+64
   3.44994e+59  -1.11438e+61   2.71385e+60  -4.17231e+65 -1.88954e+135  1.63127e+202   4.34709e+67  -1.04332e+67  -2.85726e+67   3.85886e+67   6.53032e+66  -2.52851e+67    6.9399e+65
   9.47903e+59  -1.18842e+61   1.00256e+61   2.56662e+68  1.22757e+136  1.55623e+203   2.31516e+68   3.08326e+67   3.07534e+67   1.95076e+68   6.36479e+66  -2.49531e+67   4.82498e+66
   1.34193e+49  -2.02112e+61   3.72051e+60   1.02862e+68  2.29451e+135  1.22895e+202   9.10277e+67   1.22194e+67    2.8049e+67   6.25933e+67  -6.62309e+66   2.29109e+67   1.35761e+64
   2.05155e+49  -2.03233e+61  -6.20012e+60   -1.3782e+68  4.34619e+135 -3.63537e+202    1.2103e+68   -2.1261e+67   -2.7493e+67  -8.90665e+67  -6.63963e+66   2.31343e+67  -1.18583e+66
  -3.47457e+59  -1.98858e+61  -6.12207e+60  -1.41268e+68  4.58576e+135 -4.04571e+202   1.23979e+68  -2.20565e+67  -2.83303e+67  -9.08812e+67   7.33855e+66   2.35547e+67  -3.10493e+66
   3.79408e+59  -1.97748e+61   3.71961e+60   1.02163e+68  2.21823e+135  1.11869e+202    9.0659e+67   1.20582e+67   2.78461e+67   6.22587e+67   7.35509e+66   2.33933e+67   7.71378e+65
   7.65335e+48   -1.1482e+61   2.71025e+60   1.08152e+68  2.60582e+135  1.68298e+202   9.53471e+67   1.46213e+67   2.97167e+67   6.38142e+67  -5.06408e+66   -2.5148e+67  -5.39703e+64
   1.24272e+49  -1.16057e+61  -4.71132e+60  -1.46088e+68  5.12136e+135  -5.0595e+202    1.2736e+68  -2.61598e+67  -2.89542e+67  -9.09745e+67  -5.12892e+66  -2.49246e+67  -1.58289e+66
  -2.52233e+59  -1.12632e+61  -4.60574e+60  -1.49898e+68  5.43158e+135 -5.32429e+202   1.30529e+68  -2.70388e+67  -2.99994e+67  -9.28594e+67    6.3562e+66  -2.49722e+67  -3.47707e+66
   3.44994e+59  -1.11438e+61   2.71385e+60   1.07056e+68  2.51549e+135  1.47558e+202   9.45807e+67   1.43683e+67   2.92976e+67   6.33901e+67   6.42104e+66  -2.51344e+67    6.9399e+65
   1.11068e+60   -2.0498e+61   1.35589e+61   2.32584e+68  7.94846e+135  6.15815e+202   2.14819e+68   1.72716e+67   2.58556e+67   1.89457e+68  -7.13566e+66   2.39191e+67   6.76957e+66
   3.79408e+59  -1.97748e+61   3.71961e+60  -1.90574e+66 -1.80372e+135  1.73786e+202   4.25129e+67  -1.18874e+67  -2.82575e+67   3.82392e+67  -6.88887e+66   2.35857e+67   8.80891e+65
   7.56472e+59  -1.83941e+61   3.71141e+60  -2.84086e+66 -1.84229e+135  1.76655e+202   4.30158e+67  -1.21032e+67  -2.78492e+67   3.71115e+67   8.91961e+66   2.48033e+67   1.37921e+66
   2.30978e+60  -1.91012e+61   1.33392e+61   2.39875e+68  8.83615e+135  7.82361e+202    2.2069e+68   1.89541e+67   2.81622e+67   1.92759e+68   8.67282e+66   2.48936e+67   9.21023e+66
   9.47903e+59  -1.18842e+61   1.00256e+61   2.42737e+68  9.71846e+135  1.03733e+203   2.21817e+68   2.34182e+67     2.754e+67   1.91779e+68   -5.6764e+66  -2.47524e+67   7.36872e+66
   3.44994e+59  -1.11438e+61   2.71385e+60  -1.48375e+66 -1.86729e+135  1.81952e+202   4.32376e+67  -1.10134e+67  -2.88187e+67   3.83484e+67  -5.24019e+66   -2.5089e+67   5.19139e+65
   7.01105e+59  -1.00198e+61   2.72925e+60   -7.7356e+65  -1.8621e+135  1.48008e+202    4.3159e+67  -1.08495e+67  -2.75363e+67   3.76122e+67    8.8339e+66   -2.5259e+67   1.01099e+66
   2.03587e+60  -1.07311e+61   9.76097e+60   2.51567e+68   1.0955e+136  1.15731e+203   2.28759e+68   2.54557e+67   3.06961e+67   1.95415e+68   8.39769e+66  -2.51624e+67   9.77768e+66
   3.79408e+59  -1.97748e+61   3.71961e+60    1.0238e+68  2.22869e+135  1.10236e+202   9.08454e+67   1.21784e+67   2.78961e+67    6.2305e+67  -6.97359e+66   2.36321e+67   8.80891e+65
  -3.47457e+59  -1.98858e+61  -6.12207e+60  -1.31991e+68  3.64915e+135 -2.34215e+202   1.17356e+68  -1.71263e+67  -2.61894e+67  -8.86751e+67  -6.95993e+66    2.3793e+67  -5.08431e+66
  -7.86727e+59  -1.85061e+61  -5.91531e+60  -1.42748e+68  4.38539e+135 -3.53843e+202   1.26458e+68  -1.96088e+67  -2.86367e+67  -9.45026e+67    8.7388e+66   2.48188e+67  -6.56633e+66
   7.56472e+59  -1.83941e+61   3.71141e+60   9.95302e+67  1.97825e+135  7.92956e+201   8.90393e+67   1.15209e+67   2.72737e+67   6.07356e+67   8.72513e+66    2.4782e+67   1.37921e+66
   3.44994e+59  -1.11438e+61   2.71385e+60    1.0599e+68  2.45508e+135  1.50441e+202   9.36947e+67   1.37881e+67   2.90515e+67   6.31499e+67  -5.34948e+66  -2.49383e+67   5.19139e+65
  -2.52233e+59  -1.12632e+61  -4.60574e+60  -1.38308e+68  4.23103e+135 -3.65563e+202   1.22058e+68  -2.08939e+67   -2.7325e+67  -9.00895e+67  -5.43253e+66  -2.47757e+67  -6.36834e+66
  -6.20215e+59  -1.01336e+61  -4.30928e+60   -1.4973e+68  5.10404e+135 -4.12533e+202   1.31586e+68  -2.35296e+67  -3.01733e+67  -9.60269e+67   8.49235e+66   -2.5088e+67  -7.83111e+66
   7.01105e+59  -1.00198e+61   2.72925e+60   1.02373e+68  2.17222e+135  9.11902e+201   9.11486e+67   1.29536e+67   2.80043e+67   6.14154e+67   8.57541e+66   -2.5128e+67   1.01099e+66
   2.30978e+60  -1.91012e+61   1.33392e+61   2.29911e+68  7.05488e+135  3.78762e+202   2.14019e+68   1.36315e+67   2.58627e+67   1.90417e+68  -8.45546e+66   2.54646e+67   9.90381e+66
   7.56472e+59  -1.83941e+61   3.71141e+60  -1.73565e+66 -1.85434e+135  1.60789e+202    4.3097e+67  -1.14715e+67  -2.75941e+67     3.733e+67  -8.07723e+66   2.53699e+67    1.9217e+66
   1.12111e+60  -1.58938e+61   3.66699e+60  -6.18452e+66 -1.89471e+135  1.94437e+202   4.39654e+67  -1.24982e+67  -2.76638e+67   3.39774e+67   9.88221e+66   2.78085e+67   2.20921e+66
   3.60831e+60   -1.6576e+61    1.3077e+61   2.27417e+68  6.75908e+135  4.00983e+202   2.12037e+68    1.3056e+67   2.62443e+67   1.88117e+68   9.50397e+66   2.76224e+67   1.11038e+67
   2.03587e+60  -1.07311e+61   9.76097e+60   2.35601e+68  8.10838e+135  6.67036e+202   2.17714e+68   1.68147e+67   2.70116e+67   1.91774e+68   -7.7137e+66  -2.46253e+67   9.20087e+66
   7.01105e+59  -1.00198e+61   2.72925e+60  -6.16738e+65 -1.80769e+135  1.62039e+202   4.25215e+67  -1.07652e+67  -2.75001e+67   3.76486e+67  -7.11663e+66  -2.47273e+67   1.00805e+66
   1.05559e+60  -7.83116e+60   2.74472e+60  -3.10105e+66 -1.63824e+135  1.21777e+202   4.05938e+67  -1.13385e+67  -2.65422e+67   3.47796e+67   1.01666e+67  -2.27306e+67   1.29183e+66
   3.28908e+60  -8.50265e+60   9.54017e+60   2.35046e+68  8.31685e+135  5.62955e+202   2.16633e+68   1.66867e+67   2.84149e+67   1.89945e+68   9.56952e+66  -2.29058e+67   1.03853e+67
   7.56472e+59  -1.83941e+61   3.71141e+60   1.00635e+68  2.03862e+135  7.50522e+201   8.99381e+67   1.21526e+67   2.75287e+67    6.0954e+67  -8.27171e+66   2.53485e+67    1.9217e+66
  -7.86727e+59  -1.85061e+61  -5.91531e+60  -1.30385e+68  3.13282e+135 -1.25914e+202    1.1776e+68  -1.29223e+67  -2.57836e+67  -9.16789e+67  -8.14522e+66   2.53816e+67  -6.18997e+66
  -1.35216e+60  -1.60141e+61  -5.73752e+60  -1.38901e+68  3.57994e+135 -2.12081e+202   1.25353e+68  -1.48876e+67  -2.74286e+67  -9.65846e+67   9.74071e+66   2.77963e+67  -6.92704e+66
   1.12111e+60  -1.58938e+61   3.66699e+60   9.41169e+67  1.52901e+135  3.62145e+201   8.56095e+67   1.06483e+67   2.63447e+67   5.71239e+67   9.61421e+66   2.77017e+67   2.20921e+66
   7.01105e+59  -1.00198e+61   2.72925e+60    1.0253e+68  2.22954e+135  1.15731e+202   9.10103e+67   1.30379e+67   2.80405e+67   6.14517e+67  -7.37513e+66  -2.45964e+67   1.00805e+66
  -6.20215e+59  -1.01336e+61  -4.30928e+60  -1.33628e+68  3.49522e+135 -2.36503e+202   1.19838e+68  -1.48194e+67  -2.64575e+67  -9.23509e+67  -7.20073e+66  -2.45649e+67  -7.31645e+66
  -1.15476e+60  -7.95666e+60   -4.0527e+60  -1.41606e+68  4.11245e+135 -2.16349e+202   1.26253e+68  -1.66606e+67  -2.78513e+67  -9.70943e+67   9.89592e+66  -2.26006e+67  -8.04395e+66
   1.05559e+60  -7.83116e+60   2.74472e+60   9.65231e+67  1.94342e+135  6.16747e+201   8.58679e+67   1.16517e+67   2.71016e+67   5.77698e+67   9.72152e+66  -2.26927e+67   1.29183e+66
   1.04947e+49  -3.21545e+61   1.72256e+61   2.36474e+68  8.26355e+135  6.63332e+202   2.18303e+68   1.71929e+67   2.67279e+67   1.92553e+68   -7.7519e+66   2.43304e+67   9.95741e+65
   2.06255e+49  -3.14306e+61   4.74704e+60  -1.27814e+66 -1.88446e+135  1.84579e+202   4.34292e+67  -1.23272e+67   -2.8138e+67    3.9187e+67  -7.69299e+66    2.4216e+67    1.1994e+65
   3.91086e+59  -3.09304e+61   4.73923e+60  -1.67669e+66 -1.88948e+135  1.85837e+202   4.35004e+67  -1.24192e+67  -2.80829e+67   3.88254e+67   8.15242e+66    2.4476e+67   4.44775e+65
   1.21505e+60  -3.16505e+61   1.71609e+61    2.3866e+68  8.53208e+135  7.14792e+202    2.2006e+68   1.76974e+67   2.73794e+67   1.93583e+68   8.09352e+66   2.45379e+67    3.3143e+66
   5.89628e+48  -2.09411e+61   1.36381e+61   2.47628e+68  1.02578e+136  1.09894e+203   2.25968e+68   2.34278e+67    2.9073e+67   1.95127e+68  -6.72457e+66  -2.49196e+67   1.20324e+66
   1.34193e+49  -2.02112e+61   3.72051e+60  -3.55034e+65 -1.91032e+135  1.84151e+202   4.37086e+67  -1.16013e+67  -2.81538e+67   3.94001e+67  -6.62416e+66   -2.5034e+67   1.34908e+64
   3.79408e+59  -1.97748e+61   3.71961e+60  -3.94018e+65 -1.91284e+135  1.77659e+202   4.37379e+67  -1.16103e+67  -2.79087e+67   3.91249e+67   7.43874e+66  -2.52041e+67   3.34052e+65
   1.11068e+60   -2.0498e+61   1.35589e+61    2.5014e+68  1.05992e+136  1.13492e+203   2.27971e+68   2.40075e+67   2.99068e+67   1.96225e+68   7.33834e+66  -2.51416e+67   3.49129e+66
   2.06255e+49  -3.14306e+61   4.74704e+60   1.02758e+68  2.18042e+135   9.9488e+201   9.15353e+67    1.1681e+67   2.78813e+67   6.31953e+67  -7.69299e+66    2.4212e+67    1.1994e+65
   3.03384e+49  -3.15389e+61  -7.73134e+60  -1.34899e+68  3.87334e+135 -2.72854e+202   1.19684e+68   -1.7913e+67  -2.69625e+67  -9.00234e+67  -7.69313e+66   2.42838e+67  -7.67413e+65
  -4.29763e+59  -3.10387e+61  -7.68151e+60  -1.38345e+68  4.11635e+135 -3.12664e+202   1.22568e+68  -1.87082e+67   -2.7758e+67  -9.18787e+67   8.09242e+66   2.45087e+67  -2.46035e+66
   3.91086e+59  -3.09304e+61   4.73923e+60    1.0188e+68  2.10992e+135  9.12461e+201   9.09379e+67   1.14786e+67   2.76786e+67   6.27232e+67   8.09255e+66   2.44575e+67   4.44775e+65
   1.34193e+49  -2.02112e+61   3.72051e+60   1.04891e+68   2.3183e+135  1.23376e+202   9.31876e+67   1.26864e+67   2.85174e+67   6.36877e+67  -6.62416e+66  -2.49754e+67   1.34908e+64
   2.05155e+49  -2.03233e+61  -6.20012e+60  -1.43119e+68  4.68615e+135 -4.17003e+202   1.25686e+68  -2.24831e+67  -2.87159e+67  -9.19204e+67  -6.64063e+66  -2.49036e+67  -1.18587e+66
  -3.47457e+59  -1.98858e+61  -6.12207e+60  -1.46655e+68  4.95519e+135 -4.35897e+202   1.28656e+68  -2.32989e+67  -2.95733e+67  -9.37824e+67   7.33755e+66  -2.51063e+67  -2.85654e+66
   3.79408e+59  -1.97748e+61   3.71961e+60   1.03891e+68   2.2366e+135  1.08034e+202    9.2503e+67   1.24555e+67    2.8245e+67   6.31908e+67   7.35402e+66  -2.51577e+67   3.34052e+65
   1.21505e+60  -3.16505e+61   1.71609e+61   2.33174e+68  7.54633e+135  4.99705e+202   2.16388e+68   1.48058e+67   2.61135e+67   1.92255e+68  -8.05339e+66    2.4807e+67   5.19559e+66
   3.91086e+59  -3.09304e+61   4.73923e+60  -1.01326e+66 -1.89667e+135  1.77615e+202   4.35626e+67  -1.20499e+67  -2.79298e+67   3.89665e+67  -7.90343e+66   2.47436e+67   8.03562e+65
   7.75136e+59  -2.93863e+61   4.70794e+60  -2.73466e+66 -1.89789e+135  1.84698e+202   4.36505e+67  -1.24472e+67  -2.79527e+67   3.76652e+67   9.09187e+66   2.53065e+67   1.03639e+66
   2.48285e+60  -3.00967e+61   1.69749e+61   2.38278e+68  8.17335e+135  6.21072e+202   2.20461e+68   1.59835e+67   2.76656e+67   1.94629e+68    8.9419e+66   2.52475e+67   6.84179e+66
   1.11068e+60   -2.0498e+61   1.35589e+61   2.41175e+68  8.97243e+135  8.33079e+202   2.21795e+68   1.92514e+67    2.7838e+67   1.94086e+68  -7.13836e+66  -2.49003e+67     5.646e+66
   3.79408e+59  -1.97748e+61   3.71961e+60  -1.75629e+65 -1.89219e+135  1.79958e+202   4.34997e+67   -1.1489e+67  -2.78583e+67   3.91717e+67  -6.89177e+66  -2.49653e+67   4.43641e+65
   7.56472e+59  -1.83941e+61   3.71141e+60  -1.04659e+66  -1.9013e+135  1.65152e+202   4.36164e+67    -1.169e+67  -2.74351e+67   3.80785e+67   8.91671e+66  -2.55387e+67   6.73402e+65
   2.30978e+60  -1.91012e+61   1.33392e+61   2.47039e+68  9.74476e+135  8.77096e+202   2.26459e+68   2.06046e+67   2.98154e+67   1.96619e+68   8.67012e+66  -2.55945e+67   7.27054e+66
   3.91086e+59  -3.09304e+61   4.73923e+60   1.02544e+68  2.14878e+135  9.16538e+201   9.14683e+67   1.18478e+67   2.78317e+67   6.28643e+67   -7.9633e+66   2.47251e+67   8.03562e+65
  -4.29763e+59  -3.10387e+61  -7.68151e+60  -1.31528e+68  3.42903e+135 -1.88995e+202   1.17773e+68  -1.50768e+67  -2.61848e+67  -9.02662e+67  -7.94091e+66   2.47759e+67  -3.65716e+66
  -9.26366e+59  -2.94961e+61  -7.55513e+60  -1.41182e+68  4.10881e+135 -2.96361e+202   1.25791e+68  -1.73046e+67  -2.83566e+67  -9.55205e+67   8.99474e+66   2.52722e+67  -4.88703e+66
   7.75136e+59  -2.93863e+61   4.70794e+60   9.97878e+67  1.94605e+135  7.10212e+201   8.95073e+67   1.12118e+67   2.72517e+67   6.13242e+67   8.97235e+66   2.52322e+67   1.03639e+66
   3.79408e+59  -1.97748e+61   3.71961e+60    1.0411e+68   2.2707e+135  1.17653e+202   9.25642e+67   1.25768e+67   2.82954e+67   6.32375e+67  -6.97649e+66  -2.49189e+67   4.43641e+65
  -3.47457e+59  -1.98858e+61  -6.12207e+60  -1.37377e+68  4.00789e+135 -3.13788e+202    1.2192e+68  -1.83685e+67  -2.74324e+67  -9.15762e+67  -6.96263e+66   -2.4868e+67  -4.83563e+66
  -7.86727e+59  -1.85061e+61  -5.91531e+60  -1.46969e+68  4.70278e+135 -3.44097e+202   1.29989e+68  -2.05821e+67  -2.96108e+67  -9.67765e+67   8.73609e+66  -2.55198e+67  -6.04931e+66
   7.56472e+59  -1.83941e+61   3.71141e+60   1.01324e+68  2.04535e+135  7.58457e+201   9.06713e+67   1.19341e+67   2.76878e+67   6.17026e+67   8.72223e+66    -2.556e+67   6.73402e+65
   2.48285e+60  -3.00967e+61   1.69749e+61   2.32052e+68  7.04011e+135  3.50774e+202   2.16352e+68   1.27316e+67   2.62289e+67   1.93091e+68  -8.87714e+66   2.58414e+67   8.37783e+66
   7.75136e+59  -2.93863e+61   4.70794e+60  -1.53528e+66 -1.91748e+135  1.66395e+202   4.38159e+67  -1.17486e+67  -2.76759e+67   3.78892e+67  -8.65172e+66   2.58979e+67   1.82055e+66
   1.14548e+60  -2.66888e+61    4.6252e+60  -4.63502e+66 -1.89167e+135  1.89051e+202   4.37396e+67   -1.2464e+67  -2.78285e+67   3.56574e+67   9.74008e+66   2.65109e+67   2.02518e+66
   3.80957e+60  -2.73845e+61   1.66908e+61   2.30674e+68  6.92072e+135  3.94611e+202    2.1515e+68   1.24135e+67   2.64735e+67   1.91787e+68   9.51465e+66    2.6261e+67   9.26003e+66
   2.30978e+60  -1.91012e+61   1.33392e+61   2.37079e+68  7.97486e+135  5.98657e+202   2.19617e+68   1.52848e+67   2.75171e+67   1.94278e+68  -8.45888e+66  -2.50235e+67   7.96507e+66
   7.56472e+59  -1.83941e+61   3.71141e+60   6.04956e+64 -1.85423e+135  1.64354e+202   4.30608e+67  -1.10573e+67  -2.71796e+67   3.82974e+67  -8.08079e+66  -2.49721e+67   1.21655e+66
   1.12111e+60  -1.58938e+61   3.66699e+60  -1.69307e+66  -1.7925e+135  1.39291e+202   4.23718e+67  -1.14619e+67  -2.66273e+67   3.63962e+67   9.87865e+66  -2.47346e+67   1.41849e+66
   3.60831e+60   -1.6576e+61    1.3077e+61   2.37025e+68  8.09578e+135  5.06276e+202   2.19283e+68   1.52721e+67   2.84614e+67   1.93291e+68   9.50056e+66  -2.49768e+67   8.83566e+66
   7.75136e+59  -2.93863e+61   4.70794e+60   1.00987e+68  2.00816e+135  6.58641e+201      9.05e+67   1.19104e+67   2.75285e+67   6.15482e+67  -8.77123e+66   2.58237e+67   1.82055e+66
  -9.26366e+59  -2.94961e+61  -7.55513e+60  -1.32419e+68  3.20177e+135 -1.26615e+202   1.19721e+68  -1.25816e+67  -2.63345e+67   -9.3503e+67  -8.70836e+66   2.58623e+67  -4.86226e+66
  -1.51066e+60  -2.68027e+61  -7.43322e+60  -1.38691e+68  3.60573e+135  -2.0675e+202   1.25018e+68  -1.40291e+67  -2.76251e+67  -9.70372e+67   9.65006e+66   2.64916e+67  -5.37489e+66
   1.14548e+60  -2.66888e+61    4.6252e+60   9.65683e+67  1.71516e+135  5.05365e+201   8.72369e+67   1.08907e+67   2.66656e+67    5.9012e+67   9.58719e+66   2.63724e+67   2.02518e+66
   7.56472e+59  -1.83941e+61   3.71141e+60   1.02432e+68  2.16497e+135  1.01156e+202   9.12538e+67   1.25668e+67   2.79432e+67   6.19215e+67  -8.27527e+66  -2.49934e+67   1.21655e+66
  -7.86727e+59  -1.85061e+61  -5.91531e+60  -1.34607e+68  3.46993e+135 -2.14864e+202   1.21033e+68  -1.38958e+67  -2.67579e+67  -9.39529e+67  -8.14874e+66  -2.49569e+67  -5.67249e+66
  -1.35216e+60  -1.60141e+61  -5.73752e+60  -1.40259e+68  3.85634e+135 -1.84835e+202   1.25762e+68  -1.52002e+67   -2.7742e+67  -9.73165e+67   9.73718e+66  -2.47253e+67  -6.17837e+66
   1.12111e+60  -1.58938e+61   3.66699e+60   9.86084e+67  1.93454e+135  5.60739e+201   8.82557e+67   1.16846e+67   2.73812e+67   5.95427e+67   9.61065e+66  -2.48414e+67   1.41849e+66
   1.63363e+49  -4.59423e+61   2.08827e+61   2.36941e+68  7.81521e+135  5.37397e+202   2.19831e+68   1.47715e+67   2.68347e+67   1.95335e+68   -8.4366e+66   2.52269e+67   8.57992e+65
   2.92612e+49  -4.52184e+61   5.78305e+60  -7.22457e+65 -1.96311e+135  1.87675e+202   4.43129e+67  -1.23918e+67  -2.80106e+67   3.96799e+67  -8.40083e+66   2.52274e+67   2.18945e+65
    3.9203e+59  -4.46795e+61     5.769e+60  -1.24034e+66 -1.96005e+135  1.90109e+202   4.42899e+67  -1.25113e+67   -2.8042e+67    3.9313e+67   8.67305e+66   2.53237e+67   3.38975e+65
   1.27987e+60  -4.54012e+61   2.08277e+61   2.38345e+68   7.9902e+135    5.724e+202   2.20948e+68   1.50956e+67   2.72469e+67   1.96003e+68   8.63728e+66   2.52944e+67   2.43717e+66
   1.04947e+49  -3.21545e+61   1.72256e+61   2.45155e+68  9.30876e+135  8.51044e+202   2.25372e+68   1.91939e+67   2.87313e+67    1.9723e+68  -7.75267e+66  -2.51777e+67   9.95585e+65
   2.06255e+49  -3.14306e+61   4.74704e+60    -9.528e+64 -1.94699e+135  1.87086e+202   4.41248e+67   -1.2055e+67   -2.7865e+67   3.98247e+67   -7.6938e+66  -2.51772e+67   1.19956e+65
   3.91086e+59  -3.09304e+61   4.73923e+60  -4.10958e+65 -1.95167e+135  1.84172e+202   4.41796e+67  -1.21278e+67  -2.77908e+67   3.95077e+67   8.15162e+66  -2.53991e+67   2.38386e+65
   1.21505e+60  -3.16505e+61   1.71609e+61   2.46736e+68  9.51294e+135  8.63592e+202    2.2664e+68   1.95587e+67   2.92432e+67   1.97934e+68   8.09275e+66   -2.5428e+67    2.5537e+66
   2.92612e+49  -4.52184e+61   5.78305e+60   1.02992e+68   2.1214e+135  8.53418e+201   9.21193e+67   1.15424e+67   2.78357e+67   6.36141e+67  -8.40083e+66   2.51846e+67   2.18945e+65
   4.17673e+49  -4.53242e+61  -9.31434e+60  -1.34615e+68  3.63855e+135 -2.22438e+202   1.20344e+68  -1.56684e+67  -2.69968e+67    -9.195e+67  -8.39912e+66   2.52344e+67  -4.28959e+65
  -4.93877e+59  -4.47854e+61  -9.28688e+60   -1.3735e+68  3.83506e+135 -2.53421e+202   1.22597e+68  -1.62995e+67  -2.76237e+67  -9.34268e+67   8.63755e+66   2.53176e+67  -1.79024e+66
    3.9203e+59  -4.46795e+61     5.769e+60   1.02202e+68   2.0662e+135  8.03014e+201   9.15366e+67   1.13599e+67   2.76574e+67   6.31842e+67   8.63585e+66   2.52699e+67   3.38975e+65
   2.06255e+49  -3.14306e+61   4.74704e+60    1.0394e+68  2.20341e+135  1.01701e+202   9.27373e+67   1.19533e+67   2.81543e+67   6.38329e+67   -7.6938e+66  -2.51812e+67   1.19956e+65
   3.03384e+49  -3.15389e+61  -7.73134e+60   -1.4137e+68  4.33623e+135  -3.4123e+202   1.25097e+68  -1.94051e+67  -2.84558e+67  -9.35087e+67   -7.6939e+66  -2.51314e+67  -7.67235e+65
  -4.29763e+59  -3.10387e+61  -7.68151e+60  -1.44082e+68  4.53321e+135 -3.52171e+202   1.27383e+68  -2.00311e+67   -2.9082e+67  -9.49691e+67   8.09165e+66  -2.53699e+67  -2.11036e+66
   3.91086e+59  -3.09304e+61   4.73923e+60   1.03146e+68   2.1374e+135  9.01875e+201   9.22048e+67     1.177e+67   2.79707e+67   6.34054e+67   8.09175e+66  -2.54176e+67   2.38386e+65
   1.27987e+60  -4.54012e+61   2.08277e+61   2.34993e+68  7.37909e+135  4.34061e+202   2.18729e+68   1.33467e+67   2.64733e+67   1.95173e+68  -8.63256e+66   2.55822e+67   4.12946e+66
    3.9203e+59  -4.46795e+61     5.769e+60  -5.68416e+65  -1.9701e+135  1.80591e+202   4.43894e+67  -1.21313e+67   -2.7887e+67   3.94499e+67  -8.54428e+66   2.56106e+67   8.81163e+65
   7.76848e+59  -4.30363e+61   5.72002e+60   -2.1556e+66 -1.95528e+135   1.8941e+202    4.4271e+67  -1.24976e+67  -2.80358e+67   3.83778e+67   9.26883e+66   2.57521e+67   9.95925e+65
   2.59097e+60  -4.37523e+61   2.06647e+61   2.38308e+68  7.79525e+135  5.20871e+202   2.21349e+68   1.41116e+67   2.74557e+67    1.9674e+68   9.18055e+66   2.56466e+67   5.30272e+66
   1.21505e+60  -3.16505e+61   1.71609e+61   2.41254e+68  8.52667e+135  6.96276e+202   2.22883e+68   1.66687e+67    2.7978e+67   1.96607e+68  -8.05537e+66  -2.51589e+67   4.43481e+66
   3.91086e+59  -3.09304e+61   4.73923e+60   2.53436e+65 -1.93147e+135    1.808e+202   4.39493e+67   -1.1758e+67  -2.76375e+67    3.9649e+67  -7.90549e+66  -2.51315e+67   5.97319e+65
   7.75136e+59  -2.93863e+61   4.70794e+60  -7.93056e+65 -1.94823e+135  1.72488e+202   4.41459e+67  -1.19995e+67  -2.75046e+67   3.87111e+67   9.08981e+66  -2.58049e+67   7.10551e+65
   2.48285e+60  -3.00967e+61   1.69749e+61   2.45044e+68  9.00359e+135  7.05352e+202   2.25927e+68   1.75433e+67    2.9227e+67   1.98273e+68   8.93992e+66  -2.59083e+67   5.59243e+66
    3.9203e+59  -4.46795e+61     5.769e+60   1.02873e+68  2.10344e+135  7.93616e+201   9.20842e+67   1.17399e+67   2.78125e+67   6.33211e+67  -8.58148e+66   2.55569e+67   8.81163e+65
  -4.93877e+59  -4.47854e+61  -9.28688e+60  -1.32617e+68  3.35114e+135 -1.67099e+202   1.19316e+68  -1.37719e+67  -2.65316e+67  -9.23141e+67  -8.56659e+66   2.56043e+67  -2.42093e+66
  -1.03374e+60  -4.31431e+61  -9.21982e+60    -1.398e+68  3.86999e+135 -2.47034e+202   1.25196e+68  -1.54294e+67  -2.81525e+67  -9.62184e+67   9.21576e+66   2.57163e+67  -3.39314e+66
   7.76848e+59  -4.30363e+61   5.72002e+60   1.00699e+68  1.95995e+135  6.87503e+201   9.04451e+67   1.12381e+67   2.73474e+67   6.21135e+67   9.20087e+66   2.56595e+67   9.95925e+65
   3.91086e+59  -3.09304e+61   4.73923e+60   1.03811e+68  2.20373e+135  1.02148e+202   9.25899e+67   1.21397e+67    2.8124e+67   6.35467e+67  -7.96536e+66    -2.515e+67   5.97319e+65
  -4.29763e+59  -3.10387e+61  -7.68151e+60  -1.37266e+68  3.84619e+135 -2.69115e+202   1.22457e+68  -1.64001e+67   -2.7509e+67  -9.33568e+67  -7.94293e+66  -2.51027e+67  -3.30668e+66
  -9.26366e+59  -2.94961e+61  -7.55513e+60  -1.44289e+68  4.33535e+135  -2.8536e+202   1.28389e+68  -1.80207e+67  -2.90736e+67  -9.71943e+67   8.99272e+66  -2.58226e+67  -4.26593e+66
   7.75136e+59  -2.93863e+61   4.70794e+60   1.01729e+68   2.0271e+135  6.97209e+201   9.12237e+67   1.16595e+67   2.76998e+67   6.23701e+67   8.97029e+66  -2.58792e+67   7.10551e+65
   2.59097e+60  -4.37523e+61   2.06647e+61   2.34434e+68  7.07442e+135   3.3491e+202   2.18826e+68   1.21628e+67   2.65618e+67    1.9571e+68  -9.14481e+66   2.62575e+67   7.37179e+66
   7.76848e+59  -4.30363e+61   5.72002e+60  -1.19418e+66 -1.97951e+135  1.71486e+202   4.45077e+67  -1.19222e+67   -2.7814e+67   3.85419e+67  -9.01285e+66   2.63615e+67   1.85618e+66
   1.15033e+60  -4.02205e+61   5.61549e+60  -3.03777e+66 -1.91266e+135  1.86284e+202   4.38394e+67  -1.23476e+67  -2.79144e+67   3.72243e+67   9.66773e+66   2.57118e+67   2.01374e+66
   3.93585e+60   -4.0928e+61     2.037e+61    2.3367e+68   7.0592e+135  3.90897e+202   2.18043e+68   1.19865e+67   2.67105e+67   1.94973e+68   9.53577e+66   2.54911e+67   8.07056e+66
   2.48285e+60  -3.00967e+61   1.69749e+61   2.38821e+68  7.90623e+135   5.5269e+202   2.21651e+68   1.42931e+67    2.7791e+67   1.96737e+68  -8.87953e+66  -2.53144e+67   7.12916e+66
   7.75136e+59  -2.93863e+61   4.70794e+60   4.07063e+65 -1.90527e+135  1.69611e+202   4.36513e+67  -1.13006e+67  -2.72276e+67   3.89353e+67  -8.65424e+66  -2.52135e+67   1.49508e+66
   1.14548e+60  -2.66888e+61    4.6252e+60  -6.25216e+65 -1.92305e+135   1.5259e+202   4.38571e+67  -1.15388e+67  -2.69031e+67   3.78167e+67   9.73756e+66  -2.61188e+67   1.65054e+66
   3.80957e+60  -2.73845e+61   1.66908e+61   2.38854e+68  7.93041e+135  4.62523e+202   2.21632e+68   1.43007e+67   2.83613e+67   1.96192e+68   9.51226e+66  -2.63348e+67    7.8186e+66
   7.76848e+59  -4.30363e+61   5.72002e+60    1.0166e+68  2.00239e+135  6.01515e+201   9.12821e+67   1.18135e+67   2.75692e+67   6.22776e+67  -9.08082e+66   2.62689e+67   1.85618e+66
  -1.03374e+60  -4.31431e+61  -9.21982e+60  -1.33902e+68  3.24453e+135 -1.27326e+202   1.21182e+68  -1.22745e+67  -2.67912e+67  -9.48359e+67  -9.06115e+66   2.63255e+67  -3.74294e+66
  -1.63106e+60  -4.03286e+61  -9.13219e+60   -1.3788e+68  3.55932e+135 -1.93153e+202   1.24305e+68  -1.31927e+67  -2.76611e+67  -9.70265e+67   9.60811e+66     2.569e+67  -4.14849e+66
   1.15033e+60  -4.02205e+61   5.61549e+60   9.89174e+67  1.87002e+135  6.30646e+201   8.89642e+67   1.11805e+67   2.69845e+67   6.07524e+67   9.58844e+66   2.55794e+67   2.01374e+66
   7.75136e+59  -2.93863e+61   4.70794e+60   1.02929e+68  2.15182e+135  9.52157e+201   9.18839e+67   1.23585e+67   2.79767e+67   6.25943e+67  -8.77375e+66  -2.52877e+67   1.49508e+66
  -9.26366e+59  -2.94961e+61  -7.55513e+60  -1.35528e+68  3.46965e+135 -1.99289e+202   1.22058e+68  -1.32986e+67  -2.70518e+67  -9.51772e+67  -8.71093e+66  -2.52325e+67  -4.24111e+66
  -1.51066e+60  -2.68027e+61  -7.43322e+60  -1.39098e+68  3.66247e+135 -1.64252e+202   1.25243e+68  -1.41226e+67   -2.7719e+67  -9.72567e+67    9.6475e+66  -2.61488e+67  -4.64126e+66
   1.14548e+60  -2.66888e+61    4.6252e+60   1.00578e+68  1.95254e+135   5.2706e+201   9.03516e+67   1.18158e+67   2.75909e+67   6.11713e+67   9.58467e+66  -2.62573e+67   1.65054e+66
   2.33742e+49  -6.23699e+61   2.46038e+61   2.38507e+68  7.60205e+135  4.63209e+202   2.21999e+68   1.33111e+67   2.70342e+67   1.98162e+68  -8.88905e+66   2.59442e+67   7.70109e+65
   3.92975e+49  -6.16417e+61   6.82721e+60  -4.75459e+65 -2.03017e+135  1.90973e+202   4.50599e+67  -1.24101e+67  -2.81156e+67   4.00502e+67  -8.86726e+66   2.60252e+67   2.94044e+65
   3.89106e+59  -6.10806e+61    6.8086e+60  -9.05004e+65 -2.02393e+135   1.9394e+202   4.49972e+67  -1.25092e+67  -2.81618e+67    3.9766e+67   9.03758e+66    2.6021e+67   3.40319e+65
   1.32016e+60  -6.18074e+61   2.45551e+61   2.39383e+68  7.71447e+135  4.87942e+202   2.22687e+68   1.35132e+67   2.72892e+67    1.9858e+68   9.01579e+66   2.59228e+67   1.89259e+66
   1.63363e+49  -4.59423e+61   2.08827e+61   2.44949e+68  8.79685e+135  7.04624e+202   2.26281e+68    1.6618e+67   2.86828e+67   1.99648e+68  -8.43713e+66  -2.55367e+67    8.5788e+65
   2.92612e+49  -4.52184e+61   5.78305e+60   2.94779e+65 -1.98737e+135  1.87175e+202   4.45809e+67  -1.21573e+67  -2.77759e+67   4.02279e+67  -8.40137e+66  -2.54557e+67   2.18999e+65
    3.9203e+59  -4.46795e+61     5.769e+60  -1.23017e+64 -1.99357e+135   1.8508e+202   4.46494e+67  -1.22281e+67  -2.77586e+67   3.99745e+67   8.67251e+66  -2.56763e+67   2.64649e+65
   1.27987e+60  -4.54012e+61   2.08277e+61    2.4593e+68  8.91802e+135  7.06285e+202   2.27076e+68   1.68443e+67   2.89972e+67   2.00088e+68   8.63675e+66  -2.57743e+67   1.96519e+66
   3.92975e+49  -6.16417e+61   6.82721e+60   1.03572e+68  2.10231e+135  7.74949e+201   9.28701e+67   1.16009e+67     2.791e+67   6.40612e+67  -8.86726e+66    2.5959e+67   2.94044e+65
   5.47707e+49  -6.17459e+61   -1.0946e+61  -1.35373e+68  3.52047e+135  -1.9177e+202   1.21677e+68  -1.41468e+67  -2.72312e+67  -9.39949e+67  -8.86705e+66   2.59887e+67   -1.8802e+65
  -5.40835e+59  -6.11849e+61  -1.09341e+61  -1.37301e+68  3.66291e+135 -2.13396e+202   1.23242e+68  -1.45917e+67  -2.76756e+67  -9.50336e+67   9.01643e+66   2.59791e+67  -1.23349e+66
   3.89106e+59  -6.10806e+61    6.8086e+60   1.02972e+68  2.06437e+135  7.54723e+201   9.24061e+67   1.14625e+67    2.7772e+67   6.37376e+67   9.01621e+66   2.59475e+67   3.40319e+65
   2.92612e+49  -4.52184e+61   5.78305e+60   1.04009e+68  2.16646e+135   9.1175e+201   9.30134e+67   1.17769e+67   2.80704e+67   6.41621e+67  -8.40137e+66  -2.54985e+67   2.18999e+65
   4.17673e+49  -4.53242e+61  -9.31434e+60  -1.40689e+68  4.09484e+135 -2.85453e+202   1.25294e+68   -1.7069e+67  -2.83985e+67  -9.52218e+67  -8.39966e+66  -2.54687e+67  -4.28739e+65
  -4.93877e+59  -4.47854e+61  -9.28688e+60  -1.42579e+68  4.22705e+135 -2.91225e+202   1.26893e+68  -1.75052e+67  -2.88304e+67  -9.62437e+67   8.63702e+66  -2.56985e+67  -1.46009e+66
    3.9203e+59  -4.46795e+61     5.769e+60    1.0343e+68   2.1159e+135   8.1815e+201   9.26379e+67   1.16431e+67   2.79408e+67   6.38457e+67    8.6353e+66  -2.57301e+67   2.64649e+65
   1.32016e+60  -6.18074e+61   2.45551e+61   2.37302e+68  7.32696e+135  3.94898e+202   2.21326e+68   1.24446e+67    2.6809e+67   1.98048e+68  -9.00891e+66   2.62232e+67   3.45588e+66
   3.89106e+59  -6.10806e+61    6.8086e+60   -3.8515e+65 -2.03619e+135  1.84603e+202   4.51258e+67  -1.22072e+67  -2.80418e+67   3.98638e+67  -8.95704e+66    2.6321e+67   1.00202e+66
   7.72456e+59   -5.9381e+61   6.74801e+60  -1.53127e+66 -2.01439e+135  1.93951e+202   4.49081e+67  -1.24716e+67  -2.81803e+67   3.91207e+67    9.4159e+66   2.61859e+67   1.07477e+66
    2.6589e+60  -6.01045e+61   2.44078e+61   2.39422e+68  7.60379e+135  4.59816e+202   2.22978e+68   1.29339e+67   2.74243e+67   1.99064e+68   9.36403e+66   2.60434e+67   4.34012e+66
   1.27987e+60  -4.54012e+61   2.08277e+61   2.42579e+68   8.3206e+135  6.14732e+202   2.24776e+68   1.50964e+67   2.82241e+67   1.99259e+68  -8.63391e+66  -2.54865e+67   3.65735e+66
    3.9203e+59  -4.46795e+61     5.769e+60   6.59985e+65 -1.97371e+135  1.81946e+202   4.44314e+67   -1.1848e+67  -2.76035e+67   4.01115e+67  -8.54568e+66  -2.53894e+67   8.06981e+65
   7.76848e+59  -4.30363e+61   5.72002e+60  -1.68038e+65 -1.99711e+135  1.74882e+202   4.46894e+67  -1.20391e+67  -2.75772e+67   3.94482e+67   9.26742e+66  -2.60705e+67   8.78751e+65
   2.59097e+60  -4.37523e+61   2.06647e+61   2.44974e+68  8.60527e+135  6.04898e+202   2.26731e+68    1.5649e+67    2.8994e+67   2.00331e+68    9.1792e+66  -2.62118e+67   4.52964e+66
   3.89106e+59  -6.10806e+61    6.8086e+60   1.03492e+68  2.08908e+135  7.19558e+201    9.2852e+67   1.17645e+67    2.7892e+67   6.38355e+67  -8.97842e+66   2.62474e+67   1.00202e+66
  -5.40835e+59  -6.11849e+61  -1.09341e+61  -1.34141e+68  3.33144e+135 -1.55126e+202   1.21088e+68  -1.28983e+67  -2.69463e+67  -9.42962e+67  -8.97336e+66    2.6279e+67    -1.487e+66
  -1.11214e+60  -5.94855e+61  -1.09068e+61   -1.3902e+68  3.69695e+135 -2.09889e+202   1.25018e+68  -1.40242e+67    -2.806e+67  -9.69355e+67   9.38531e+66   2.61324e+67  -2.24202e+66
   7.72456e+59   -5.9381e+61   6.74801e+60   1.01976e+68  2.00008e+135  6.99844e+201   9.16462e+67   1.14147e+67   2.75544e+67    6.3007e+67   9.38025e+66   2.60887e+67   1.07477e+66
    3.9203e+59  -4.46795e+61     5.769e+60   1.04102e+68  2.18307e+135  9.45114e+201   9.30276e+67   1.20232e+67    2.8096e+67   6.39827e+67  -8.58289e+66  -2.54431e+67   8.06981e+65
  -4.93877e+59  -4.47854e+61  -9.28688e+60  -1.37848e+68  3.75563e+135 -2.36576e+202   1.23476e+68  -1.49781e+67  -2.77386e+67  -9.51312e+67  -8.56799e+66  -2.54118e+67  -2.09035e+66
  -1.03374e+60  -4.31431e+61  -9.21982e+60  -1.42581e+68  4.07155e+135 -2.43599e+202   1.27506e+68  -1.60704e+67  -2.87941e+67  -9.77164e+67   9.21436e+66  -2.61198e+67  -2.83517e+66
   7.76848e+59  -4.30363e+61   5.72002e+60   1.02686e+68  2.05125e+135   6.7515e+201   9.21589e+67   1.16966e+67    2.7806e+67   6.31838e+67   9.19946e+66  -2.61631e+67   8.78751e+65
    2.6589e+60  -6.01045e+61   2.44078e+61      2.37e+68  7.14007e+135  3.25991e+202   2.21425e+68   1.17893e+67   2.68654e+67   1.98345e+68  -9.32838e+66   2.66665e+67   6.74574e+66
   7.72456e+59   -5.9381e+61   6.74801e+60  -8.65403e+65 -2.04202e+135  1.77003e+202    4.5197e+67  -1.20551e+67  -2.80266e+67   3.92163e+67  -9.25118e+66   2.68082e+67   1.94027e+66
    1.1475e+60  -5.65003e+61   6.63238e+60  -1.84026e+66 -1.94554e+135  1.86767e+202   4.41467e+67  -1.22801e+67  -2.80641e+67   3.85039e+67   9.63713e+66   2.52905e+67   2.06898e+66
   4.01613e+60  -5.72189e+61   2.41089e+61   2.36563e+68  7.18854e+135  3.89782e+202   2.20847e+68   1.16886e+67   2.69521e+67   1.97923e+68   9.55993e+66   2.50814e+67   7.34091e+66
   2.59097e+60  -4.37523e+61   2.06647e+61   2.41103e+68  7.93356e+135  5.29475e+202   2.24047e+68   1.37013e+67   2.81007e+67   1.99301e+68  -9.14647e+66  -2.56009e+67   6.59915e+66
   7.76848e+59  -4.30363e+61   5.72002e+60   7.93514e+65 -1.95667e+135  1.75155e+202   4.42414e+67  -1.14636e+67  -2.73553e+67   3.96123e+67   -9.0146e+66  -2.54611e+67   1.73916e+66
   1.15033e+60  -4.02205e+61   5.61549e+60   2.86736e+65 -2.02989e+135  1.62637e+202   4.50552e+67  -1.15805e+67  -2.71472e+67   3.90145e+67   9.66598e+66  -2.71369e+67   1.86613e+66
   3.93585e+60   -4.0928e+61     2.037e+61   2.41127e+68   7.8845e+135  4.39953e+202   2.24182e+68   1.37068e+67   2.84312e+67   1.98989e+68   9.53411e+66  -2.73433e+67   7.18628e+66
   7.72456e+59   -5.9381e+61   6.74801e+60   1.02642e+68  2.01937e+135  5.73582e+201   9.22821e+67   1.18312e+67   2.77081e+67   6.31026e+67  -9.28682e+66   2.67109e+67   1.94027e+66
  -1.11214e+60  -5.94855e+61  -1.09068e+61  -1.35204e+68  3.27877e+135 -1.27815e+202    1.2248e+68   -1.2013e+67  -2.71793e+67  -9.60112e+67  -9.29048e+66   2.67549e+67   -2.9155e+66
  -1.71915e+60  -5.66046e+61   -1.0838e+61  -1.37469e+68  3.52031e+135 -1.81189e+202   1.24006e+68  -1.25358e+67  -2.77112e+67  -9.72221e+67   9.59522e+66    2.5244e+67  -3.26192e+66
    1.1475e+60  -5.65003e+61   6.63238e+60   1.01028e+68  1.99723e+135  7.37776e+201   9.06062e+67   1.14588e+67   2.73267e+67   6.22428e+67   9.59887e+66   2.51714e+67   2.06898e+66
   7.76848e+59  -4.30363e+61   5.72002e+60   1.03648e+68  2.15838e+135  9.27244e+201   9.26528e+67   1.22721e+67   2.80279e+67    6.3348e+67  -9.08257e+66  -2.55537e+67   1.73916e+66
  -1.03374e+60  -4.31431e+61  -9.21982e+60  -1.36684e+68  3.49833e+135  -1.9011e+202   1.23224e+68  -1.29164e+67  -2.74333e+67  -9.63342e+67  -9.06295e+66  -2.55105e+67  -3.18508e+66
  -1.63106e+60  -4.03286e+61  -9.13219e+60  -1.38733e+68  3.54957e+135 -1.52721e+202   1.25289e+68  -1.33893e+67  -2.78579e+67  -9.74859e+67   9.60631e+66  -2.71978e+67  -3.52682e+66
   1.15033e+60  -4.02205e+61   5.61549e+60   1.02242e+68  1.97546e+135  5.03233e+201   9.20758e+67   1.19476e+67   2.77517e+67   6.25426e+67   9.58669e+66  -2.72693e+67   1.86613e+66
   3.16362e+49  -8.14943e+61   2.83858e+61   2.40719e+68  7.53045e+135  4.20257e+202   2.24533e+68   1.24192e+67    2.7288e+67   2.01012e+68  -9.19021e+66   2.65533e+67   7.13361e+65
   5.06742e+49  -8.07594e+61   7.88066e+60  -3.39887e+65 -2.09279e+135  1.95383e+202   4.57483e+67  -1.24377e+67   -2.8341e+67   4.04388e+67  -9.17673e+66   2.66817e+67    3.4435e+65
   3.85612e+59  -8.01868e+61   7.85917e+60  -6.32346e+65 -2.08538e+135  1.98602e+202   4.56703e+67  -1.25052e+67  -2.83762e+67    4.0249e+67   9.28843e+66   2.66153e+67   3.80154e+65
    1.3458e+60  -8.09207e+61   2.83413e+61   2.41272e+68  7.60492e+135   4.3908e+202   2.24961e+68   1.25468e+67   2.74479e+67   2.01278e+68   9.27496e+66   2.64768e+67   1.56592e+66
   2.33742e+49  -6.23699e+61   2.46038e+61   2.46108e+68   8.5517e+135  6.19483e+202   2.28073e+68   1.50642e+67   2.87883e+67   2.02256e+68   -8.8894e+66  -2.59187e+67   7.70038e+65
   3.92975e+49  -6.16417e+61   6.82721e+60   6.85644e+65 -2.03234e+135  1.87683e+202   4.50867e+67  -1.21421e+67  -2.78477e+67   4.06754e+67  -8.86762e+66  -2.57904e+67     2.941e+65
   3.89106e+59  -6.10806e+61    6.8086e+60   4.65758e+65 -2.03989e+135  1.85333e+202   4.51675e+67  -1.21929e+67  -2.78455e+67   4.05041e+67   9.03723e+66  -2.59982e+67   3.29414e+65
   1.32016e+60  -6.18074e+61   2.45551e+61   2.46722e+68  8.62345e+135  6.15758e+202   2.28579e+68    1.5206e+67    2.8983e+67   2.02533e+68   9.01545e+66  -2.61365e+67   1.61092e+66
   5.06742e+49  -8.07594e+61   7.88066e+60   1.04422e+68  2.10965e+135  7.37004e+201   9.37784e+67   1.17383e+67   2.80695e+67   6.46147e+67  -9.17673e+66   2.66021e+67    3.4435e+65
   6.93408e+49  -8.08627e+61  -1.26204e+61  -1.36612e+68  3.47183e+135   -1.731e+202   1.23252e+68  -1.31323e+67   -2.7554e+67  -9.59262e+67  -9.17806e+66   2.66205e+67  -2.82224e+64
  -5.73977e+59  -8.02899e+61  -1.26186e+61  -1.37885e+68  3.56991e+135 -1.87319e+202   1.24267e+68   -1.3426e+67  -2.78509e+67  -9.66083e+67   9.27557e+66   2.65517e+67   -8.1885e+65
   3.85612e+59  -8.01868e+61   7.85917e+60   1.04015e+68  2.08682e+135  7.41974e+201   9.34464e+67   1.16442e+67   2.79722e+67   6.43983e+67    9.2769e+66   2.65314e+67   3.80154e+65
   3.92975e+49  -6.16417e+61   6.82721e+60   1.04733e+68  2.17763e+135  8.74436e+201   9.37624e+67   1.18688e+67   2.81779e+67   6.46864e+67  -8.86762e+66  -2.58566e+67     2.941e+65
   5.47707e+49  -6.17459e+61   -1.0946e+61  -1.40717e+68  3.93875e+135 -2.46076e+202   1.25946e+68  -1.53791e+67  -2.84644e+67  -9.68734e+67  -8.86741e+66  -2.58383e+67  -1.87835e+65
  -5.40835e+59  -6.11849e+61  -1.09341e+61   -1.4196e+68  4.02207e+135 -2.48917e+202   1.27006e+68   -1.5666e+67  -2.87508e+67  -9.75434e+67   9.01607e+66  -2.60515e+67  -9.67631e+65
   3.89106e+59  -6.10806e+61    6.8086e+60   1.04343e+68  2.14018e+135   7.9262e+201   9.35267e+67   1.17787e+67   2.80884e+67   6.44757e+67   9.01585e+66  -2.60718e+67   3.29414e+65
    1.3458e+60  -8.09207e+61   2.83413e+61   2.39951e+68  7.35166e+135  3.72988e+202   2.24109e+68   1.18845e+67    2.7143e+67   2.00923e+68  -9.25984e+66   2.67857e+67   3.04266e+66
   3.85612e+59  -8.01868e+61   7.85917e+60  -2.82471e+65  -2.0994e+135  1.89779e+202     4.582e+67  -1.22923e+67  -2.82955e+67   4.03053e+67  -9.22913e+66   2.69239e+67   1.11376e+66
   7.67105e+59  -7.84585e+61   7.79181e+60   -1.0052e+66 -2.07389e+135  1.99318e+202   4.55511e+67  -1.24591e+67  -2.83887e+67   3.98425e+67   9.52937e+66   2.66065e+67   1.17994e+66
   2.70274e+60  -7.91906e+61   2.82049e+61   2.41307e+68  7.54041e+135  4.24704e+202   2.25141e+68   1.21974e+67   2.75295e+67    2.0158e+68   9.49866e+66   2.64427e+67   3.75491e+66
   1.32016e+60  -6.18074e+61   2.45551e+61   2.44642e+68  8.25775e+135  5.67569e+202   2.27139e+68    1.4138e+67    2.8503e+67   2.02001e+68  -9.00982e+66  -2.58361e+67   3.17411e+66
   3.89106e+59  -6.10806e+61    6.8086e+60   9.85654e+65 -2.02045e+135  1.84638e+202   4.49602e+67  -1.18908e+67  -2.77255e+67    4.0602e+67  -8.95798e+66  -2.56983e+67   9.91221e+65
   7.72456e+59   -5.9381e+61   6.74801e+60   4.46495e+65 -2.04885e+135  1.76842e+202   4.52664e+67  -1.20153e+67  -2.77239e+67   4.01856e+67   9.41496e+66  -2.63677e+67    1.0565e+66
    2.6589e+60  -6.01045e+61   2.44078e+61   2.46153e+68  8.42295e+135  5.47589e+202   2.28404e+68   1.44867e+67   2.89777e+67   2.02689e+68   9.36312e+66  -2.65309e+67   3.87661e+66
   3.85612e+59  -8.01868e+61   7.85917e+60   1.04365e+68  2.09799e+135  6.80647e+201   9.37762e+67    1.1857e+67   2.80529e+67   6.44546e+67  -9.24066e+66     2.684e+67   1.11376e+66
  -5.73977e+59  -8.02899e+61  -1.26186e+61  -1.35835e+68  3.34632e+135 -1.48965e+202   1.22901e+68  -1.23223e+67  -2.73777e+67  -9.61347e+67  -9.24176e+66   2.68603e+67  -8.35613e+65
   -1.1676e+60  -7.85616e+61  -1.26162e+61  -1.38953e+68  3.59391e+135 -1.84757e+202   1.25356e+68   -1.3042e+67     -2.81e+67  -9.78113e+67    9.5105e+66   2.65376e+67  -1.42345e+66
   7.67105e+59  -7.84585e+61   7.79181e+60   1.03394e+68  2.05189e+135  7.29268e+201   9.29432e+67   1.16331e+67   2.78263e+67   6.39346e+67   9.51159e+66   2.65099e+67   1.17994e+66
   3.89106e+59  -6.10806e+61    6.8086e+60   1.04863e+68  2.19659e+135  9.20598e+201   9.38062e+67   1.20808e+67   2.82083e+67   6.45736e+67  -8.97935e+66  -2.57718e+67   9.91221e+65
  -5.40835e+59  -6.11849e+61  -1.09341e+61  -1.38801e+68  3.71175e+135 -2.13644e+202   1.24716e+68  -1.39732e+67  -2.80218e+67  -9.68062e+67  -8.97431e+66  -2.57517e+67  -1.22082e+66
  -1.11214e+60  -5.94855e+61  -1.09068e+61  -1.41829e+68  3.90166e+135 -2.15555e+202   1.27333e+68  -1.46718e+67  -2.87082e+67  -9.84487e+67   9.38436e+66  -2.64375e+67   -1.8006e+66
   7.72456e+59   -5.9381e+61   6.74801e+60   1.03954e+68  2.09834e+135  6.79837e+201   9.33169e+67    1.1871e+67   2.80108e+67   6.40719e+67   9.37931e+66   -2.6465e+67    1.0565e+66
   2.70274e+60  -7.91906e+61   2.82049e+61   2.39794e+68  7.23937e+135  3.23174e+202   2.24191e+68   1.15575e+67   2.71804e+67   2.01056e+68  -9.46033e+66   2.70747e+67   6.38129e+66
   7.67105e+59  -7.84585e+61   7.79181e+60  -5.85123e+65 -2.10411e+135  1.83148e+202   4.58743e+67  -1.21761e+67  -2.82917e+67   3.98827e+67  -9.41308e+66    2.7238e+67   2.02837e+66
    1.1428e+60  -7.55482e+61   7.67133e+60  -1.03349e+66 -1.98492e+135  1.89826e+202   4.45644e+67  -1.22796e+67   -2.8282e+67    3.9528e+67   9.63098e+66   2.51307e+67   2.14129e+66
   4.06872e+60  -7.62773e+61   2.79048e+61   2.39496e+68   7.3246e+135  3.92212e+202   2.23682e+68   1.14888e+67   2.72249e+67   2.00783e+68   9.58372e+66    2.4931e+67   6.91443e+66
    2.6589e+60  -6.01045e+61   2.44078e+61   2.43732e+68  8.01611e+135  5.19648e+202   2.26692e+68   1.33428e+67    2.8419e+67   2.01971e+68  -9.32951e+66  -2.59078e+67   6.28249e+66
   7.72456e+59   -5.9381e+61   6.74801e+60   1.11225e+66 -2.01013e+135  1.81384e+202   4.48483e+67  -1.15988e+67  -2.75703e+67   4.02813e+67  -9.25237e+66  -2.57455e+67   1.92205e+66
    1.1475e+60  -5.65003e+61   6.63238e+60   9.16553e+65 -2.12081e+135  1.71678e+202   4.60614e+67  -1.16439e+67  -2.74279e+67   3.99884e+67   9.63594e+66  -2.79423e+67   2.03342e+66
   4.01613e+60  -5.72189e+61   2.41089e+61   2.43685e+68  7.91082e+135  4.29365e+202   2.26874e+68   1.33319e+67   2.85956e+67   2.01758e+68    9.5588e+66  -2.81405e+67   6.80834e+66
   7.67105e+59  -7.84585e+61   7.79181e+60   1.03814e+68  2.05174e+135  5.66541e+201    9.3411e+67    1.1916e+67   2.79232e+67   6.39748e+67  -9.43086e+66   2.71413e+67   2.02837e+66
   -1.1676e+60  -7.85616e+61  -1.26162e+61  -1.36565e+68  3.31893e+135 -1.28904e+202   1.23818e+68  -1.18168e+67  -2.75488e+67   -9.7199e+67  -9.44434e+66   2.71694e+67  -2.35136e+66
  -1.78222e+60  -7.56505e+61  -1.25566e+61  -1.37709e+68  3.51306e+135 -1.73765e+202   1.24301e+68  -1.20809e+67  -2.78452e+67  -9.77827e+67   9.60012e+66   2.50634e+67  -2.66171e+66
    1.1428e+60  -7.55482e+61   7.67133e+60   1.02892e+68  2.10191e+135  8.27818e+201   9.21137e+67   1.17033e+67   2.76781e+67   6.35109e+67    9.6136e+66   2.50233e+67   2.14129e+66
   7.72456e+59   -5.9381e+61   6.74801e+60    1.0462e+68  2.18397e+135  9.28347e+201   9.36017e+67   1.22875e+67   2.81645e+67   6.41676e+67  -9.28801e+66  -2.58427e+67   1.92205e+66
  -1.11214e+60  -5.94855e+61  -1.09068e+61  -1.38014e+68   3.5422e+135 -1.85212e+202   1.24522e+68  -1.26615e+67  -2.78279e+67  -9.75248e+67   -9.2917e+66  -2.58149e+67  -2.47424e+66
  -1.71915e+60  -5.66046e+61   -1.0838e+61  -1.39068e+68   3.4973e+135 -1.46689e+202   1.25868e+68  -1.29047e+67  -2.80802e+67  -9.80833e+67     9.594e+66   -2.8022e+67  -2.78033e+66
    1.1475e+60  -5.65003e+61   6.63238e+60   1.03785e+68  2.00728e+135   4.9478e+201   9.36165e+67   1.20949e+67   2.79629e+67   6.37272e+67   9.59768e+66  -2.80615e+67   2.03342e+66
   4.11715e+49  -1.03367e+62   3.22272e+61   2.43342e+68  7.54625e+135  3.96486e+202   2.27308e+68   1.18632e+67   2.75768e+67   2.03902e+68  -9.39365e+66    2.7094e+67   6.76099e+65
   6.34421e+49  -1.02624e+62   8.94524e+60  -2.44658e+65 -2.15493e+135  2.01268e+202   4.64218e+67  -1.24983e+67  -2.86355e+67   4.08891e+67  -9.38497e+66   2.72522e+67    3.7546e+65
     3.828e+59  -1.02047e+62   8.92214e+60  -4.20311e+65 -2.14697e+135  2.04639e+202   4.63373e+67  -1.25388e+67  -2.86555e+67    4.0774e+67   9.46152e+66   2.71462e+67   4.25059e+65
   1.36282e+60  -1.02789e+62   3.21856e+61   2.43699e+68  7.59783e+135  4.11927e+202   2.27577e+68   1.19456e+67   2.76796e+67   2.04073e+68   9.45284e+66   2.69823e+67   1.37244e+66
   3.16362e+49  -8.14943e+61   2.83858e+61   2.48142e+68   8.4754e+135  5.72535e+202   2.30432e+68   1.41315e+67   2.90009e+67   2.05009e+68  -9.19043e+66  -2.63062e+67   7.13316e+65
   5.06742e+49  -8.07594e+61   7.88066e+60   1.05237e+66  -2.0817e+135  1.89673e+202   4.56377e+67  -1.21163e+67  -2.80197e+67   4.11884e+67  -9.17697e+66   -2.6148e+67   3.44395e+65
   3.85612e+59  -8.01868e+61   7.85917e+60   9.18357e+65 -2.09027e+135  1.86808e+202   4.57287e+67  -1.21472e+67  -2.80184e+67    4.1084e+67    9.2882e+66  -2.63444e+67   3.93305e+65
    1.3458e+60  -8.09207e+61   2.83413e+61   2.48533e+68  8.51744e+135  5.65971e+202   2.30762e+68   1.42218e+67   2.91235e+67   2.05188e+68   9.27474e+66  -2.65082e+67   1.39998e+66
   6.34421e+49  -1.02624e+62   8.94524e+60    1.0549e+68  2.13532e+135  7.26112e+201   9.48307e+67    1.1902e+67   2.82987e+67   6.52894e+67  -9.38497e+66   2.71653e+67    3.7546e+65
   8.53513e+49  -1.02727e+62  -1.43322e+61  -1.38083e+68  3.46649e+135 -1.62189e+202   1.24901e+68  -1.24668e+67  -2.79105e+67  -9.77055e+67  -9.38705e+66   2.71739e+67   7.29631e+64
  -5.96897e+59  -1.02149e+62  -1.43367e+61  -1.38887e+68  3.53257e+135 -1.71151e+202   1.25527e+68  -1.26524e+67   -2.8101e+67  -9.81336e+67   9.45328e+66   2.70667e+67  -5.29469e+65
     3.828e+59  -1.02047e+62   8.92214e+60   1.05232e+68  2.12389e+135   7.5029e+201   9.46037e+67   1.18424e+67   2.82341e+67   6.51553e+67   9.45536e+66   2.70572e+67   4.25059e+65
   5.06742e+49  -8.07594e+61   7.88066e+60   1.05815e+68  2.21417e+135  8.74156e+201   9.47765e+67   1.20596e+67   2.83908e+67   6.53643e+67  -9.17697e+66  -2.62275e+67   3.44395e+65
   6.93408e+49  -8.08627e+61  -1.26204e+61   -1.4129e+68  3.85308e+135 -2.20097e+202   1.26924e+68   -1.4211e+67  -2.86334e+67  -9.84456e+67   -9.1783e+66   -2.6219e+67  -2.80869e+64
  -5.73977e+59  -8.02899e+61  -1.26186e+61  -1.42078e+68  3.90255e+135 -2.21404e+202   1.27607e+68  -1.43928e+67  -2.88184e+67  -9.88665e+67   9.27533e+66  -2.64187e+67  -6.22151e+65
   3.85612e+59  -8.01868e+61   7.85917e+60   1.05565e+68  2.18635e+135  7.98671e+201   9.46451e+67   1.20021e+67     2.833e+67   6.52333e+67   9.27666e+66  -2.64282e+67   3.93305e+65
   1.36282e+60  -1.02789e+62   3.21856e+61   2.42844e+68  7.42756e+135  3.62264e+202   2.27037e+68    1.1533e+67   2.74825e+67   2.03829e+68  -9.43165e+66    2.7297e+67   2.79387e+66
     3.828e+59  -1.02047e+62   8.92214e+60  -2.04879e+65 -2.16233e+135  1.96228e+202   4.65013e+67   -1.2397e+67  -2.86058e+67   4.07979e+67  -9.41252e+66   2.74608e+67   1.19987e+66
   7.62768e+59  -1.00308e+62    8.8513e+60  -6.18552e+65 -2.13394e+135  2.05904e+202   4.61987e+67  -1.24924e+67   -2.8656e+67   4.05299e+67   9.61573e+66   2.70202e+67   1.27346e+66
   2.73225e+60  -1.01049e+62   3.20567e+61   2.43703e+68  7.56001e+135  4.06031e+202   2.27665e+68   1.17312e+67   2.77259e+67   2.04246e+68    9.5966e+66   2.68426e+67   3.40519e+66
    1.3458e+60  -8.09207e+61   2.83413e+61   2.47213e+68  8.29093e+135   5.4329e+202   2.29833e+68   1.35599e+67   2.88188e+67   2.04834e+68  -9.26043e+66  -2.61993e+67   2.87665e+66
   3.85612e+59  -8.01868e+61   7.85917e+60   1.26815e+66 -2.07124e+135  1.88792e+202   4.55286e+67  -1.19344e+67  -2.79376e+67   4.11402e+67  -9.22975e+66  -2.60357e+67   1.12698e+66
   7.67105e+59  -7.84585e+61   7.79181e+60   9.54479e+65 -2.10313e+135  1.79924e+202   4.58699e+67  -1.20068e+67  -2.79364e+67   4.08977e+67   9.52875e+66  -2.66972e+67   1.19954e+66
   2.70274e+60  -7.91906e+61   2.82049e+61   2.48154e+68   8.3797e+135  5.17244e+202   2.30652e+68   1.37771e+67   2.91095e+67   2.05267e+68   9.49806e+66  -2.68744e+67   3.47948e+66
     3.828e+59  -1.02047e+62   8.92214e+60   1.05447e+68  2.12424e+135  6.67295e+201   9.48414e+67   1.19843e+67   2.82839e+67   6.51791e+67  -9.41867e+66   2.73717e+67   1.19987e+66
  -5.96897e+59  -1.02149e+62  -1.43367e+61  -1.37584e+68  3.38214e+135 -1.46371e+202   1.24688e+68  -1.19465e+67  -2.78003e+67  -9.78371e+67  -9.42239e+66   2.73813e+67  -4.04542e+65
  -1.20625e+60   -1.0041e+62  -1.43492e+61   -1.3949e+68  3.54823e+135 -1.69145e+202   1.26131e+68  -1.23863e+67  -2.82489e+67  -9.88545e+67   9.60292e+66   2.69379e+67  -8.71956e+65
   7.62768e+59  -1.00308e+62    8.8513e+60   1.04858e+68  2.10853e+135  7.66464e+201   9.42691e+67   1.18483e+67    2.8139e+67   6.48706e+67   9.60664e+66   2.69252e+67   1.27346e+66
   3.85612e+59  -8.01868e+61   7.85917e+60   1.05915e+68  2.23056e+135  9.25648e+201   9.48022e+67   1.22149e+67   2.84107e+67   6.52895e+67  -9.24128e+66  -2.61196e+67   1.12698e+66
  -5.73977e+59  -8.02899e+61  -1.26186e+61  -1.40028e+68  3.70573e+135 -1.98963e+202   1.26104e+68  -1.32896e+67  -2.83454e+67  -9.83932e+67  -9.24238e+66  -2.61101e+67  -6.38695e+65
   -1.1676e+60  -7.85616e+61  -1.26162e+61  -1.41888e+68  3.80965e+135 -1.98152e+202   1.27759e+68  -1.37187e+67  -2.87772e+67  -9.93918e+67   9.50987e+66  -2.67813e+67  -1.09962e+66
   7.67105e+59  -7.84585e+61   7.79181e+60   1.05354e+68  2.15519e+135  7.00348e+201   9.45738e+67   1.20853e+67   2.82785e+67   6.49898e+67   9.51097e+66  -2.67939e+67   1.19954e+66
   2.73225e+60  -1.01049e+62   3.20567e+61   2.42774e+68  7.36439e+135  3.24711e+202     2.271e+68   1.14159e+67   2.75114e+67   2.03846e+68  -9.55874e+66   2.74811e+67   6.18708e+66
   7.62768e+59  -1.00308e+62    8.8513e+60  -3.67592e+65 -2.16613e+135  1.90093e+202   4.65431e+67  -1.23018e+67  -2.85981e+67   4.05323e+67   -9.5266e+66   2.76583e+67   2.10433e+66
   1.13865e+60   -9.7391e+61    8.7292e+60  -5.37281e+65 -2.02901e+135  1.94956e+202   4.50477e+67  -1.23409e+67  -2.85613e+67   4.03649e+67   9.63946e+66   2.51528e+67   2.20984e+66
   4.10478e+60  -9.81303e+61   3.17566e+61   2.42496e+68  7.46836e+135  3.97299e+202   2.26574e+68   1.13518e+67   2.75233e+67   2.03621e+68   9.60732e+66   2.49575e+67   6.68453e+66
   2.70274e+60  -7.91906e+61   2.82049e+61   2.46641e+68  8.14075e+135  5.19464e+202   2.29546e+68   1.31376e+67   2.87606e+67   2.04743e+68  -9.46109e+66  -2.62425e+67     6.106e+66
   7.67105e+59  -7.84585e+61   7.79181e+60   1.37438e+66 -2.06549e+135   1.8821e+202   4.54685e+67  -1.17239e+67  -2.78395e+67   4.09378e+67  -9.41387e+66  -2.60658e+67   2.04798e+66
    1.1428e+60  -7.55482e+61   7.67133e+60   1.33156e+66 -2.20121e+135  1.80455e+202   4.69359e+67  -1.17338e+67  -2.77362e+67   4.08015e+67   9.63018e+66  -2.86155e+67   2.15203e+66
   4.06872e+60  -7.62773e+61   2.79048e+61   2.46492e+68  7.99183e+135  4.27387e+202    2.2971e+68   1.31031e+67   2.88393e+67    2.0455e+68   9.58296e+66  -2.88101e+67   6.59654e+66
   7.62768e+59  -1.00308e+62    8.8513e+60   1.05109e+68   2.0946e+135  5.74562e+201   9.46219e+67    1.2039e+67    2.8197e+67    6.4873e+67  -9.53569e+66   2.75633e+67   2.10433e+66
  -1.20625e+60   -1.0041e+62  -1.43492e+61  -1.38038e+68  3.36812e+135 -1.30726e+202   1.25246e+68  -1.16791e+67   -2.7914e+67  -9.84454e+67  -9.55122e+66   2.75764e+67  -1.99082e+66
  -1.82703e+60  -9.74925e+61  -1.42931e+61  -1.38508e+68  3.53594e+135  -1.7054e+202   1.25094e+68  -1.17873e+67   -2.8059e+67  -9.86613e+67   9.61549e+66    2.5069e+67  -2.27749e+66
   1.13865e+60   -9.7391e+61    8.7292e+60   1.04573e+68  2.19047e+135  9.04397e+201   9.35147e+67   1.19152e+67   2.80364e+67   6.46211e+67   9.63102e+66   2.50535e+67   2.20984e+66
   7.67105e+59  -7.84585e+61   7.79181e+60   1.05774e+68  2.22289e+135  9.46364e+201   9.46846e+67   1.23682e+67   2.83754e+67     6.503e+67  -9.43165e+66  -2.61624e+67   2.04798e+66
   -1.1676e+60  -7.85616e+61  -1.26162e+61    -1.395e+68  3.59789e+135 -1.83658e+202   1.25946e+68  -1.24942e+67  -2.82262e+67  -9.87797e+67  -9.44515e+66  -2.61494e+67  -2.02768e+66
  -1.78222e+60  -7.56505e+61  -1.25566e+61   -1.3995e+68  3.49037e+135 -1.44415e+202   1.26869e+68   -1.2598e+67  -2.83625e+67  -9.89897e+67   9.59931e+66  -2.87075e+67  -2.31037e+66
    1.1428e+60  -7.55482e+61   7.67133e+60   1.05257e+68  2.04569e+135  4.98592e+201   9.50444e+67   1.22491e+67   2.82239e+67   6.47844e+67   9.61281e+66  -2.87229e+67   2.15203e+66
   5.18441e+49  -1.28038e+62   3.61278e+61   2.46256e+68  7.61936e+135  3.84951e+202   2.30267e+68   1.15109e+67   2.78944e+67   2.06851e+68  -9.53418e+66   2.75941e+67    6.5203e+65
   7.75849e+49  -1.27285e+62   1.00227e+61  -1.63131e+65 -2.21832e+135  2.08596e+202   4.70993e+67  -1.25952e+67  -2.89717e+67   4.14037e+67  -9.52811e+66   2.77716e+67   3.93946e+65
    3.8092e+59  -1.26707e+62   9.99882e+60  -2.59132e+65 -2.20989e+135  2.12089e+202   4.70102e+67  -1.26173e+67  -2.89797e+67   4.13379e+67   9.58314e+66   2.76398e+67   4.62435e+65
    1.3747e+60  -1.27459e+62   3.60883e+61   2.46487e+68  7.65639e+135  3.98374e+202   2.30433e+68   1.15642e+67   2.79618e+67   2.06961e+68   9.57707e+66   2.74592e+67   1.25828e+66
   4.11715e+49  -1.03367e+62   3.22272e+61    2.5074e+68  8.50482e+135  5.49222e+202   2.33165e+68   1.35703e+67   2.92841e+67   2.07886e+68  -9.39379e+66  -2.66966e+67   6.76069e+65
   6.34421e+49  -1.02624e+62   8.94524e+60   1.36688e+66  -2.1353e+135  1.93524e+202   4.62296e+67  -1.21263e+67  -2.82636e+67   4.17568e+67  -9.38512e+66  -2.65191e+67    3.7549e+65
     3.828e+59  -1.02047e+62   8.92214e+60   1.29358e+66 -2.14454e+135  1.90199e+202   4.63272e+67  -1.21432e+67    -2.826e+67   4.16968e+67   9.46136e+66  -2.67079e+67   4.43015e+65
   1.36282e+60  -1.02789e+62   3.21856e+61   2.50989e+68  8.52804e+135  5.40955e+202   2.33383e+68   1.36278e+67   2.93621e+67   2.07999e+68   9.45269e+66  -2.68884e+67   1.27378e+66
   7.75849e+49  -1.27285e+62   1.00227e+61   1.06723e+68  2.17381e+135  7.33577e+201       9.6e+67   1.20709e+67   2.85824e+67   6.60697e+67  -9.52811e+66   2.76806e+67   3.93946e+65
   1.02885e+50  -1.27388e+62  -1.60777e+61   -1.3969e+68  3.49015e+135 -1.56563e+202   1.26583e+68  -1.20399e+67  -2.82821e+67   -9.9368e+67  -9.53029e+66    2.7681e+67   1.35053e+65
  -6.12677e+59   -1.2681e+62  -1.60859e+61  -1.40183e+68  3.53485e+135 -1.62021e+202   1.26951e+68  -1.21538e+67  -2.84011e+67  -9.96286e+67   9.57734e+66   2.75484e+67  -3.36708e+65
    3.8092e+59  -1.26707e+62   9.99882e+60   1.06565e+68  2.17013e+135  7.71493e+201    9.5843e+67   1.20343e+67   2.85408e+67   6.59895e+67   9.57952e+66   2.75479e+67   4.62435e+65
   6.34421e+49  -1.02624e+62   8.94524e+60   1.07102e+68  2.26458e+135  8.94871e+201   9.59489e+67    1.2274e+67   2.86706e+67   6.61571e+67  -9.38512e+66   -2.6606e+67    3.7549e+65
   8.53513e+49  -1.02727e+62  -1.43322e+61  -1.42279e+68  3.82189e+135  -2.0429e+202   1.28146e+68  -1.34347e+67  -2.88788e+67  -9.99655e+67   -9.3872e+66  -2.66056e+67   7.30547e+64
  -5.96897e+59  -1.02149e+62  -1.43367e+61  -1.42765e+68  3.84898e+135 -2.04814e+202    1.2858e+68  -1.35469e+67  -2.89959e+67  -1.00222e+68   9.45313e+66  -2.67964e+67  -3.92061e+65
     3.828e+59  -1.02047e+62   8.92214e+60   1.06946e+68  2.24316e+135  8.22643e+201   9.58866e+67    1.2238e+67   2.86297e+67    6.6078e+67   9.45521e+66  -2.67969e+67   4.43015e+65
    1.3747e+60  -1.27459e+62   3.60883e+61   2.45931e+68   7.5394e+135  3.59013e+202   2.30092e+68   1.13108e+67   2.78333e+67   2.06786e+68  -9.55273e+66    2.7778e+67   2.64833e+66
    3.8092e+59  -1.26707e+62   9.99882e+60  -1.32871e+65 -2.22625e+135  2.03875e+202   4.71833e+67  -1.25227e+67  -2.89505e+67   4.13404e+67   -9.5395e+66   2.79585e+67   1.26099e+66
   7.59855e+59  -1.24969e+62   9.92643e+60  -3.55254e+65 -2.19506e+135  2.13725e+202   4.68528e+67   -1.2574e+67   -2.8971e+67   4.11898e+67   9.68268e+66   2.74325e+67   1.34524e+66
   2.75319e+60   -1.2572e+62   3.59645e+61   2.46451e+68  7.63417e+135  3.97846e+202   2.30443e+68   1.14308e+67   2.79842e+67   2.07036e+68   9.66945e+66   2.72451e+67   3.20109e+66
   1.36282e+60  -1.02789e+62   3.21856e+61   2.50135e+68  8.38779e+135  5.33989e+202   2.32766e+68   1.32154e+67   2.91651e+67   2.07755e+68  -9.43204e+66  -2.65737e+67   2.69516e+66
     3.828e+59  -1.02047e+62   8.92214e+60    1.5089e+66 -2.12579e+135  1.94358e+202   4.61309e+67  -1.20014e+67  -2.82103e+67   4.17206e+67  -9.41292e+66  -2.63933e+67   1.21787e+66
   7.62768e+59  -1.00308e+62    8.8513e+60   1.33781e+66    -2.16e+135  1.84615e+202   4.64951e+67  -1.20409e+67  -2.82045e+67   4.15833e+67   9.61532e+66  -2.70542e+67   1.30092e+66
   2.73225e+60  -1.01049e+62   3.20567e+61   2.50697e+68  8.42577e+135  5.03835e+202   2.33287e+68   1.33449e+67   2.93398e+67   2.08012e+68   9.59621e+66  -2.72414e+67   3.24014e+66
    3.8092e+59  -1.26707e+62   9.99882e+60   1.06691e+68  2.16311e+135  6.72293e+201   9.60199e+67   1.21289e+67   2.85699e+67    6.5992e+67  -9.54312e+66   2.78666e+67   1.26099e+66
  -6.12677e+59   -1.2681e+62  -1.60859e+61  -1.39365e+68   3.4323e+135 -1.46182e+202   1.26453e+68  -1.17064e+67  -2.82123e+67  -9.94468e+67  -9.54717e+66   2.78671e+67  -1.30726e+65
  -1.23319e+60  -1.25071e+62  -1.61067e+61  -1.40486e+68  3.54566e+135 -1.60522e+202   1.27242e+68  -1.19649e+67  -2.84803e+67  -1.00041e+68   9.67297e+66   2.73394e+67  -5.15867e+65
   7.59855e+59  -1.24969e+62   9.92643e+60   1.06338e+68  2.16734e+135  8.07286e+201   9.56051e+67   1.20474e+67   2.84789e+67   6.58112e+67   9.67702e+66   2.73385e+67   1.34524e+66
     3.828e+59  -1.02047e+62   8.92214e+60   1.07161e+68  2.27762e+135  9.48755e+201   9.59472e+67   1.23798e+67   2.86793e+67   6.61019e+67  -9.41908e+66  -2.64823e+67   1.21787e+66
  -5.96897e+59  -1.02149e+62  -1.43367e+61  -1.41463e+68  3.72893e+135 -1.90747e+202   1.27604e+68  -1.28413e+67  -2.86954e+67   -9.9926e+67   -9.4228e+66  -2.64818e+67  -2.66993e+65
  -1.20625e+60   -1.0041e+62  -1.43492e+61  -1.42566e+68  3.77654e+135 -1.88485e+202   1.28641e+68  -1.30959e+67  -2.89588e+67  -1.00511e+68   9.60251e+66  -2.71483e+67   -6.4671e+65
   7.62768e+59  -1.00308e+62    8.8513e+60   1.06814e+68  2.21626e+135  7.30637e+201   9.58804e+67   1.22998e+67   2.85905e+67    6.5924e+67   9.60624e+66  -2.71492e+67   1.30092e+66
   2.75319e+60   -1.2572e+62   3.59645e+61   2.45905e+68  7.50877e+135  3.29316e+202   2.30132e+68   1.13304e+67   2.78583e+67   2.06716e+68   -9.6346e+66   2.78886e+67   6.10233e+66
   7.59855e+59  -1.24969e+62   9.92643e+60  -2.05946e+65 -2.22873e+135  1.97888e+202   4.72099e+67  -1.24388e+67  -2.89366e+67   4.11694e+67  -9.60929e+66   2.80756e+67   2.16562e+66
   1.13574e+60   -1.2206e+62   9.80418e+60  -2.52141e+65 -2.07722e+135   2.0171e+202   4.55773e+67  -1.24495e+67  -2.88882e+67   4.10855e+67   9.65654e+66      2.53e+67   2.26877e+66
    4.1309e+60   -1.2281e+62   3.56646e+61   2.45584e+68  7.62048e+135  4.04424e+202   2.29545e+68   1.12562e+67   2.78431e+67   2.06484e+68   9.63123e+66   2.51049e+67   6.58047e+66
   2.73225e+60  -1.01049e+62   3.20567e+61   2.49767e+68  8.29606e+135  5.26022e+202   2.32568e+68   1.30298e+67   2.91253e+67   2.07612e+68  -9.55924e+66  -2.66029e+67   6.02211e+66
   7.62768e+59  -1.00308e+62    8.8513e+60   1.58861e+66 -2.12287e+135  1.95664e+202    4.6102e+67  -1.18503e+67  -2.81467e+67   4.15856e+67  -9.52712e+66  -2.64161e+67   2.13177e+66
   1.13865e+60   -9.7391e+61    8.7292e+60    1.6009e+66 -2.27555e+135  1.89374e+202   4.77296e+67  -1.18475e+67  -2.80679e+67   4.15163e+67   9.63893e+66  -2.92071e+67   2.23347e+66
   4.10478e+60  -9.81303e+61   3.17566e+61   2.49508e+68  8.11281e+135  4.31386e+202   2.32683e+68     1.297e+67   2.91415e+67   2.07397e+68   9.60681e+66  -2.94019e+67   6.49352e+66
   7.59855e+59  -1.24969e+62   9.92643e+60   1.06487e+68  2.14469e+135  5.93381e+201   9.58893e+67   1.21826e+67   2.85134e+67   6.57908e+67  -9.61495e+66   2.79815e+67   2.16562e+66
  -1.23319e+60  -1.25071e+62  -1.61067e+61  -1.39631e+68  3.42639e+135 -1.33271e+202   1.26769e+68  -1.15883e+67   -2.8283e+67  -9.97596e+67   -9.6289e+66   2.79828e+67  -1.77549e+66
  -1.85913e+60  -1.22162e+62  -1.60513e+61   -1.3972e+68  3.58215e+135  -1.7056e+202   1.26252e+68  -1.16089e+67  -2.83361e+67   -9.9775e+67   9.63685e+66   2.52042e+67   -2.0466e+66
   1.13574e+60   -1.2206e+62   9.80418e+60   1.06143e+68  2.26885e+135  9.71838e+201   9.48552e+67   1.21033e+67   2.84015e+67   6.56383e+67    9.6508e+66   2.52048e+67   2.26877e+66
   7.62768e+59  -1.00308e+62    8.8513e+60   1.07065e+68  2.27164e+135  9.76407e+201   9.58713e+67   1.24904e+67   2.86484e+67   6.59264e+67  -9.53621e+66  -2.65111e+67   2.13177e+66
  -1.20625e+60   -1.0041e+62  -1.43492e+61  -1.41116e+68  3.66302e+135 -1.84643e+202   1.27478e+68  -1.23891e+67  -2.86241e+67  -1.00102e+68  -9.55176e+66  -2.65098e+67  -1.76569e+66
  -1.82703e+60  -9.74925e+61  -1.42931e+61  -1.41219e+68  3.51531e+135 -1.44674e+202   1.28169e+68  -1.24129e+67  -2.86846e+67  -1.00121e+68   9.61495e+66  -2.93071e+67  -2.03298e+66
   1.13865e+60   -9.7391e+61    8.7292e+60   1.06711e+68  2.09004e+135  5.12396e+201   9.64219e+67   1.24087e+67   2.85299e+67   6.57724e+67    9.6305e+66  -2.93065e+67   2.23347e+66
   6.36601e+49  -1.55551e+62   4.00881e+61   2.49391e+68  7.73156e+135  3.81414e+202   2.33376e+68   1.12844e+67    2.8236e+67   2.09871e+68  -9.63428e+66   2.80717e+67   6.37659e+65
   9.29439e+49  -1.54789e+62   1.11145e+61  -8.83376e+64 -2.28369e+135  2.17209e+202   4.77881e+67  -1.27231e+67  -2.93362e+67    4.1971e+67  -9.62954e+66   2.82626e+67   4.05162e+65
   3.79821e+59  -1.54213e+62   1.10903e+61   -1.3784e+65 -2.27475e+135  2.20821e+202   4.76945e+67  -1.27345e+67  -2.93368e+67   4.19334e+67   9.67132e+66   2.81136e+67   4.89898e+65
   1.38347e+60  -1.54975e+62     4.005e+61   2.49536e+68   7.7587e+135  3.93567e+202   2.33472e+68   1.13177e+67   2.82802e+67   2.09938e+68   9.66658e+66   2.79211e+67   1.19171e+66
   5.18441e+49  -1.28038e+62   3.61278e+61   2.53719e+68  8.60226e+135  5.40856e+202   2.36159e+68   1.32329e+67   2.96166e+67    2.1087e+68  -9.53427e+66  -2.70922e+67   6.52007e+65
   7.75849e+49  -1.27285e+62   1.00227e+61   1.62475e+66 -2.19277e+135  1.99164e+202   4.68552e+67  -1.21825e+67  -2.85591e+67   4.23663e+67  -9.52821e+66  -2.69012e+67   3.93963e+65
    3.8092e+59  -1.26707e+62   9.99882e+60     1.587e+66  -2.2024e+135  1.95509e+202   4.69565e+67  -1.21912e+67  -2.85536e+67   4.23319e+67   9.58304e+66  -2.70857e+67   4.77488e+65
    1.3747e+60  -1.27459e+62   3.60883e+61   2.53872e+68  8.61285e+135  5.31405e+202   2.36301e+68   1.32683e+67   2.96661e+67   2.10938e+68   9.57698e+66  -2.72781e+67   1.19814e+66
   9.29439e+49  -1.54789e+62   1.11145e+61    1.0808e+68  2.22153e+135  7.53874e+201   9.72615e+67   1.22389e+67   2.89084e+67    6.6933e+67  -9.62954e+66    2.8169e+67   4.05162e+65
   1.21975e+50  -1.54892e+62  -1.78543e+61  -1.41397e+68  3.53398e+135 -1.54585e+202   1.28293e+68  -1.17727e+67  -2.86633e+67  -1.00961e+68  -9.63146e+66   2.81626e+67   1.72426e+65
  -6.23683e+59  -1.54316e+62  -1.78646e+61  -1.41694e+68  3.56514e+135 -1.57806e+202     1.285e+68  -1.18413e+67  -2.87363e+67  -1.01117e+68   9.66671e+66    2.8013e+67  -2.13047e+65
   3.79821e+59  -1.54213e+62   1.10903e+61   1.07981e+68  2.22272e+135  8.01264e+201   9.71451e+67    1.2216e+67   2.88811e+67   6.68839e+67   9.66863e+66   2.80196e+67   4.89898e+65
   7.75849e+49  -1.27285e+62   1.00227e+61   1.08511e+68  2.32285e+135  9.28032e+201   9.72202e+67   1.24835e+67    2.8995e+67   6.70324e+67  -9.52821e+66  -2.69922e+67   3.93963e+65
   1.02885e+50  -1.27388e+62  -1.60777e+61  -1.43586e+68  3.83155e+135 -1.95929e+202   1.29559e+68  -1.29387e+67  -2.91812e+67  -1.01466e+68  -9.53039e+66  -2.69986e+67   1.35111e+65
  -6.12677e+59   -1.2681e+62  -1.60859e+61  -1.43882e+68  3.84435e+135 -1.96054e+202   1.29837e+68  -1.30069e+67  -2.92545e+67   -1.0162e+68   9.57724e+66  -2.71842e+67  -2.44854e+65
    3.8092e+59  -1.26707e+62   9.99882e+60   1.08411e+68  2.30526e+135  8.57141e+201   9.71988e+67   1.24604e+67   2.89668e+67   6.69835e+67   9.57942e+66  -2.71776e+67   4.77488e+65
   1.38347e+60  -1.54975e+62     4.005e+61   2.49175e+68  7.67712e+135  3.60813e+202   2.33262e+68   1.11693e+67   2.81969e+67   2.09809e+68  -9.64102e+66   2.82429e+67   2.56901e+66
   3.79821e+59  -1.54213e+62   1.10903e+61  -6.32991e+64 -2.29185e+135  2.12602e+202   4.78733e+67  -1.26672e+67  -2.93196e+67   4.19235e+67  -9.63051e+66   2.84352e+67   1.30355e+66
   7.58147e+59  -1.52483e+62   1.10174e+61  -1.83074e+65 -2.25783e+135  2.22673e+202   4.75169e+67  -1.26949e+67   -2.9323e+67   4.18349e+67   9.73646e+66    2.7848e+67   1.39726e+66
   2.76887e+60  -1.53245e+62   3.99295e+61   2.49455e+68  7.74552e+135  3.96514e+202   2.33414e+68   1.12339e+67   2.82857e+67   2.09935e+68   9.72595e+66   2.76525e+67   3.08818e+66
    1.3747e+60  -1.27459e+62   3.60883e+61   2.53316e+68  8.52822e+135  5.34661e+202   2.35883e+68    1.3015e+67   2.95377e+67   2.10763e+68  -9.55299e+66  -2.69593e+67   2.58815e+66
    3.8092e+59  -1.26707e+62   9.99882e+60   1.71317e+66 -2.18373e+135  2.01198e+202   4.67617e+67  -1.20966e+67  -2.85245e+67   4.23343e+67  -9.53977e+66   -2.6767e+67   1.27607e+66
   7.59855e+59  -1.24969e+62   9.92643e+60   1.61792e+66 -2.21954e+135  1.90869e+202   4.71398e+67  -1.21186e+67  -2.85157e+67   4.22522e+67   9.68242e+66  -2.74336e+67   1.36844e+66
   2.75319e+60   -1.2572e+62   3.59645e+61   2.53615e+68  8.53096e+135   5.0133e+202   2.36198e+68   1.30839e+67   2.96374e+67   2.10893e+68    9.6692e+66  -2.76291e+67    3.0999e+66
   3.79821e+59  -1.54213e+62   1.10903e+61   1.08056e+68  2.21121e+135  6.90493e+201   9.72872e+67   1.22833e+67   2.88983e+67    6.6874e+67   -9.6332e+66   2.83413e+67   1.30355e+66
  -6.23683e+59  -1.54316e+62  -1.78646e+61  -1.41182e+68  3.49296e+135 -1.47686e+202   1.28216e+68  -1.15569e+67   -2.8618e+67  -1.01007e+68  -9.63648e+66   2.83347e+67   3.69223e+64
  -1.25233e+60  -1.52586e+62  -1.78899e+61  -1.41816e+68  3.57396e+135 -1.56802e+202     1.286e+68  -1.17033e+67   -2.8772e+67  -1.01341e+68    9.7283e+66   2.77462e+67  -2.94641e+65
   7.58147e+59  -1.52483e+62   1.10174e+61   1.07833e+68  2.22781e+135  8.50477e+201   9.69541e+67   1.22319e+67   2.88393e+67   6.67616e+67   9.73158e+66   2.77538e+67   1.39726e+66
    3.8092e+59  -1.26707e+62   9.99882e+60   1.08537e+68  2.33327e+135  9.83479e+201   9.71956e+67    1.2555e+67   2.89959e+67    6.6986e+67  -9.54339e+66  -2.68589e+67   1.27607e+66
  -6.12677e+59   -1.2681e+62  -1.60859e+61  -1.43064e+68  3.77457e+135 -1.87392e+202     1.292e+68  -1.25597e+67  -2.90658e+67  -1.01438e+68  -9.54744e+66  -2.68655e+67   -3.8784e+64
  -1.23319e+60  -1.25071e+62  -1.61067e+61  -1.43696e+68  3.78623e+135 -1.84304e+202   1.29855e+68  -1.27055e+67  -2.92211e+67  -1.01769e+68    9.6727e+66  -2.75352e+67   -3.6561e+65
   7.59855e+59  -1.24969e+62   9.92643e+60   1.08311e+68  2.27952e+135  7.67263e+201   9.72198e+67   1.25028e+67   2.89343e+67   6.68736e+67   9.67676e+66  -2.75277e+67   1.36844e+66
   2.76887e+60  -1.53245e+62   3.99295e+61   2.49167e+68  7.66792e+135  3.36071e+202   2.33273e+68   1.12791e+67   2.82193e+67   2.09669e+68  -9.69512e+66   2.82999e+67   6.08856e+66
   7.58147e+59  -1.52483e+62   1.10174e+61  -8.74528e+64 -2.29265e+135  2.06529e+202   4.78817e+67  -1.25888e+67   -2.9301e+67   4.18023e+67  -9.67239e+66    2.8495e+67   2.21517e+66
   1.13396e+60  -1.49592e+62   1.08954e+61  -9.51728e+64 -2.12942e+135  2.09753e+202   4.61457e+67  -1.25906e+67  -2.92505e+67   4.17459e+67   9.67858e+66   2.55334e+67   2.31861e+66
   4.15094e+60  -1.50352e+62   3.96295e+61   2.48776e+68  7.78155e+135  4.13199e+202   2.32611e+68   1.11889e+67   2.81813e+67   2.09406e+68   9.65586e+66   2.53353e+67   6.55757e+66
   2.75319e+60   -1.2572e+62   3.59645e+61   2.53069e+68  8.47451e+135  5.37404e+202   2.35732e+68   1.29837e+67   2.95116e+67   2.10574e+68  -9.63493e+66  -2.69856e+67   6.00119e+66
   7.59855e+59  -1.24969e+62   9.92643e+60   1.76711e+66 -2.18246e+135  2.03784e+202   4.67503e+67  -1.19835e+67  -2.84812e+67   4.22318e+67  -9.60963e+66  -2.67905e+67   2.18881e+66
   1.13574e+60   -1.2206e+62   9.80418e+60    1.7839e+66 -2.34714e+135  1.98626e+202   4.84801e+67  -1.19796e+67  -2.84184e+67   4.21819e+67    9.6562e+66  -2.97494e+67   2.29076e+66
    4.1309e+60   -1.2281e+62   3.56646e+61   2.52708e+68  8.26401e+135  4.39671e+202   2.35791e+68   1.29004e+67   2.94873e+67   2.10321e+68    9.6309e+66  -2.99474e+67    6.4635e+66
   7.58147e+59  -1.52483e+62   1.10174e+61   1.07928e+68  2.20013e+135  6.20136e+201    9.7203e+67    1.2338e+67   2.88614e+67    6.6729e+67  -9.67727e+66   2.84008e+67   2.21517e+66
  -1.25233e+60  -1.52586e+62  -1.78899e+61   -1.4133e+68  3.49271e+135 -1.36461e+202   1.28381e+68  -1.15327e+67  -2.86599e+67  -1.01138e+68  -9.68848e+66   2.83935e+67  -1.65875e+66
  -1.88271e+60  -1.49695e+62  -1.78338e+61  -1.41217e+68  3.64495e+135 -1.72886e+202   1.27661e+68  -1.15066e+67  -2.86596e+67  -1.01051e+68   9.66152e+66   2.54289e+67  -1.91998e+66
   1.13396e+60  -1.49592e+62   1.08954e+61   1.07667e+68   2.3419e+135  1.03426e+202   9.61785e+67   1.22777e+67   2.87753e+67   6.66141e+67   9.67273e+66   2.54394e+67   2.31861e+66
   7.59855e+59  -1.24969e+62   9.92643e+60    1.0846e+68  2.32762e+135  1.01528e+202   9.71387e+67   1.26379e+67   2.89687e+67   6.68532e+67  -9.61529e+66  -2.68846e+67   2.18881e+66
  -1.23319e+60  -1.25071e+62  -1.61067e+61  -1.42841e+68  3.73617e+135 -1.87555e+202   1.29103e+68  -1.23292e+67  -2.90239e+67  -1.01488e+68  -9.62924e+66  -2.68918e+67  -1.62532e+66
  -1.85913e+60  -1.22162e+62  -1.60513e+61  -1.42753e+68  3.56239e+135 -1.46689e+202   1.29677e+68  -1.23088e+67  -2.90361e+67  -1.01408e+68   9.63651e+66   -2.9855e+67  -1.88283e+66
   1.13574e+60   -1.2206e+62   9.80418e+60   1.08179e+68  2.13971e+135  5.33987e+201   9.77907e+67   1.25731e+67   2.88714e+67   6.67346e+67   9.65046e+66  -2.98446e+67   2.29076e+66
   7.64735e+49  -1.85955e+62   4.41091e+61   2.52702e+68  7.87164e+135  3.83257e+202   2.36615e+68   1.11374e+67   2.85977e+67   2.12967e+68  -9.70847e+66   2.85391e+67    6.3075e+65
   1.09676e+50  -1.85182e+62   1.22216e+61  -1.94425e+64 -2.35139e+135  2.26932e+202   4.84912e+67  -1.28748e+67  -2.97227e+67    4.2578e+67  -9.70434e+66   2.87403e+67   4.12753e+65
   3.79257e+59   -1.8461e+62   1.21973e+61  -4.56754e+64 -2.34188e+135  2.30668e+202    4.8393e+67  -1.28809e+67  -2.97194e+67   4.25545e+67     9.738e+66   2.85792e+67   5.09156e+65
   1.39026e+60  -1.85383e+62   4.40719e+61   2.52784e+68  7.89171e+135  3.94586e+202    2.3666e+68   1.11563e+67    2.8626e+67   2.13002e+68   9.73386e+66   2.83774e+67   1.15453e+66
   6.36601e+49  -1.55551e+62   4.00881e+61    2.5697e+68  8.74543e+135  5.42264e+202    2.3935e+68   1.30333e+67    2.9985e+67   2.13952e+68  -9.63435e+66  -2.74952e+67   6.37641e+65
   9.29439e+49  -1.54789e+62   1.11145e+61   1.83302e+66 -2.25371e+135  2.06359e+202   4.75086e+67  -1.22796e+67  -2.88928e+67   4.30055e+67  -9.62961e+66   -2.7294e+67   4.05171e+65
   3.79821e+59  -1.54213e+62   1.10903e+61   1.81259e+66 -2.26357e+135  2.02482e+202   4.76116e+67  -1.22844e+67  -2.88867e+67   4.29836e+67   9.67125e+66  -2.74766e+67   5.00176e+65
   1.38347e+60  -1.54975e+62     4.005e+61   2.57056e+68  8.74714e+135  5.31877e+202   2.39439e+68   1.30532e+67   3.00158e+67   2.13988e+68   9.66651e+66  -2.76785e+67   1.15383e+66
   1.09676e+50  -1.85182e+62   1.22216e+61   1.09532e+68  2.27617e+135  7.83496e+201   9.85961e+67   1.24064e+67   2.92668e+67   6.78592e+67  -9.70434e+66   2.86444e+67   4.12753e+65
   1.42549e+50  -1.85286e+62  -1.96608e+61  -1.43189e+68  3.59229e+135 -1.55139e+202   1.30041e+68  -1.16102e+67  -2.90535e+67  -1.02525e+68  -9.70587e+66   2.86327e+67   1.94785e+65
  -6.31612e+59  -1.84714e+62  -1.96723e+61  -1.43367e+68  3.61526e+135 -1.56979e+202   1.30149e+68  -1.16513e+67  -2.90981e+67  -1.02618e+68   9.73391e+66   2.84712e+67  -1.36289e+65
   3.79257e+59   -1.8461e+62   1.21973e+61   1.09465e+68  2.28023e+135  8.37392e+201      9.85e+67   1.23907e+67   2.92477e+67   6.78261e+67   9.73545e+66   2.84833e+67   5.09156e+65
   9.29439e+49  -1.54789e+62   1.11145e+61   1.10002e+68  2.38622e+135  9.69431e+201   9.85603e+67   1.26823e+67   2.93518e+67   6.79675e+67  -9.62961e+66  -2.73877e+67   4.05171e+65
   1.21975e+50  -1.54892e+62  -1.78543e+61  -1.45136e+68   3.8711e+135 -1.92868e+202   1.31123e+68  -1.26353e+67  -2.95261e+67  -1.02974e+68  -9.63152e+66  -2.73993e+67   1.72462e+65
  -6.23683e+59  -1.54316e+62  -1.78646e+61  -1.45315e+68  3.87498e+135 -1.92783e+202   1.31306e+68  -1.26766e+67  -2.95718e+67  -1.03066e+68   9.66665e+66  -2.75827e+67  -1.53813e+65
   3.79821e+59  -1.54213e+62   1.10903e+61   1.09931e+68   2.3707e+135  8.98584e+201   9.85608e+67   1.26661e+67   2.93312e+67   6.79341e+67   9.66856e+66  -2.75706e+67   5.00176e+65
   1.39026e+60  -1.85383e+62   4.40719e+61   2.52555e+68  7.83422e+135  3.66103e+202   2.36537e+68   1.10791e+67   2.85732e+67   2.12903e+68  -9.70806e+66   2.87014e+67   2.53354e+66
   3.79257e+59   -1.8461e+62   1.21973e+61   2.66637e+63 -2.35954e+135  2.22296e+202   4.85751e+67  -1.28273e+67  -2.97082e+67   4.25382e+67  -9.69861e+66   2.89032e+67   1.33444e+66
   7.57266e+59  -1.82893e+62   1.21243e+61  -7.08123e+64 -2.32273e+135  2.32619e+202   4.81948e+67  -1.28443e+67  -2.97037e+67   4.24772e+67   9.78153e+66   2.82701e+67   1.43525e+66
   2.78123e+60  -1.83665e+62   4.39535e+61   2.52661e+68  7.88373e+135  3.99849e+202   2.36546e+68   1.11034e+67    2.8619e+67   2.12938e+68   9.77208e+66   2.80671e+67   3.03397e+66
   1.38347e+60  -1.54975e+62     4.005e+61   2.56696e+68  8.69969e+135  5.42154e+202   2.39151e+68   1.29049e+67   2.99326e+67   2.13858e+68  -9.64119e+66  -2.73567e+67   2.53109e+66
   3.79821e+59  -1.54213e+62   1.10903e+61   1.88707e+66 -2.24481e+135  2.09169e+202    4.7417e+67  -1.22171e+67  -2.88695e+67   4.29737e+67  -9.63069e+66  -2.71549e+67   1.31384e+66
   7.58147e+59  -1.52483e+62   1.10174e+61   1.82455e+66 -2.28188e+135  1.98476e+202   4.78038e+67  -1.22315e+67  -2.88597e+67   4.29159e+67   9.73629e+66  -2.78319e+67   1.41318e+66
   2.76887e+60  -1.53245e+62   3.99295e+61    2.5681e+68  8.67718e+135  5.06114e+202    2.3932e+68   1.29312e+67    2.9983e+67   2.13896e+68   9.72578e+66  -2.80349e+67   3.02427e+66
   3.79257e+59   -1.8461e+62   1.21973e+61   1.09513e+68  2.26623e+135  7.18319e+201   9.86247e+67   1.24443e+67   2.92588e+67   6.78098e+67  -9.70117e+66   2.88073e+67   1.33444e+66
  -6.31612e+59  -1.84714e+62  -1.96723e+61  -1.43042e+68  3.56185e+135 -1.50423e+202   1.29997e+68  -1.14673e+67  -2.90231e+67  -1.02552e+68  -9.70334e+66   2.87952e+67   1.35632e+65
  -1.26643e+60  -1.82996e+62  -1.96998e+61  -1.43385e+68  3.62388e+135  -1.5644e+202   1.30136e+68  -1.15465e+67  -2.91072e+67  -1.02732e+68   9.77414e+66   2.81612e+67  -1.62675e+65
   7.57266e+59  -1.82893e+62   1.21243e+61   1.09354e+68  2.29028e+135  8.96075e+201   9.83259e+67   1.24076e+67   2.92172e+67    6.7729e+67   9.77631e+66   2.81746e+67   1.43525e+66
   3.79821e+59  -1.54213e+62   1.10903e+61   1.10006e+68  2.39504e+135  1.02646e+202   9.85203e+67   1.27334e+67   2.93484e+67   6.79242e+67  -9.63337e+66  -2.72489e+67   1.31384e+66
  -6.23683e+59  -1.54316e+62  -1.78646e+61  -1.44802e+68  3.83727e+135 -1.87576e+202   1.30883e+68  -1.23923e+67  -2.94535e+67  -1.02956e+68  -9.63665e+66  -2.72609e+67   9.62089e+64
  -1.25233e+60  -1.52586e+62  -1.78899e+61  -1.45149e+68  3.82624e+135 -1.83948e+202   1.31309e+68  -1.24723e+67  -2.95411e+67  -1.03136e+68   9.72813e+66  -2.79395e+67  -1.97775e+65
   7.58147e+59  -1.52483e+62   1.10174e+61    1.0984e+68  2.34468e+135  8.08569e+201   9.85913e+67   1.26952e+67   2.93026e+67   6.78426e+67   9.73141e+66  -2.79262e+67   1.41318e+66
   2.78123e+60  -1.83665e+62   4.39535e+61   2.52548e+68  7.83909e+135  3.44387e+202    2.3652e+68   1.12488e+67    2.8593e+67   2.12706e+68  -9.74521e+66   2.87177e+67    6.1219e+66
   7.57266e+59  -1.82893e+62   1.21243e+61   6.60621e+62  -2.3585e+135  2.15991e+202   4.85644e+67  -1.27509e+67  -2.96872e+67   4.24388e+67  -9.72309e+66   2.89202e+67   2.25709e+66
   1.13301e+60  -1.80026e+62   1.20028e+61  -8.13615e+63 -2.18552e+135  2.18857e+202   4.67496e+67  -1.27529e+67  -2.96391e+67   4.23839e+67    9.7034e+66   2.58269e+67   2.36201e+66
   4.16716e+60  -1.80797e+62   4.36529e+61   2.52085e+68  7.95221e+135  4.23415e+202   2.35786e+68    1.1142e+67   2.85363e+67   2.12407e+68   9.68128e+66   2.56237e+67     6.588e+66
   2.76887e+60  -1.53245e+62   3.99295e+61   2.56522e+68  8.67108e+135  5.52331e+202   2.39024e+68   1.29765e+67   2.99167e+67   2.13629e+68  -9.69533e+66  -2.73875e+67   6.02468e+66
   7.58147e+59  -1.52483e+62   1.10174e+61    1.9201e+66 -2.24452e+135  2.12608e+202   4.74153e+67  -1.21255e+67  -2.88377e+67   4.28833e+67  -9.67261e+66   -2.7185e+67   2.23108e+66
   1.13396e+60  -1.49592e+62   1.08954e+61   1.92069e+66 -2.41826e+135  2.08326e+202   4.92133e+67  -1.21253e+67  -2.87853e+67   4.28313e+67   9.67836e+66  -3.02641e+67   2.33448e+66
   4.15094e+60  -1.50352e+62   3.96295e+61   2.56075e+68  8.43877e+135  4.51123e+202   2.39031e+68   1.28734e+67   2.98658e+67   2.13336e+68   9.65564e+66  -3.04673e+67   6.48403e+66
   7.57266e+59  -1.82893e+62   1.21243e+61   1.09425e+68  2.25989e+135  6.52984e+201   9.85596e+67   1.25009e+67   2.92337e+67   6.76906e+67  -9.72831e+66   2.88247e+67   2.25709e+66
  -1.26643e+60  -1.82996e+62  -1.96998e+61  -1.43124e+68  3.56593e+135 -1.40213e+202   1.30071e+68  -1.15022e+67  -2.90469e+67  -1.02575e+68  -9.73689e+66   2.88116e+67  -1.60671e+66
  -1.90078e+60  -1.80129e+62  -1.96423e+61  -1.42908e+68  3.71926e+135 -1.76804e+202   1.29242e+68  -1.14523e+67  -2.90165e+67  -1.02439e+68   9.68789e+66    2.5716e+67  -1.86222e+66
   1.13301e+60  -1.80026e+62   1.20028e+61    1.0919e+68  2.41314e+135  1.09495e+202   9.75162e+67   1.24467e+67   2.91601e+67   6.75836e+67   9.69647e+66   2.57322e+67   2.36201e+66
   7.58147e+59  -1.52483e+62   1.10174e+61   1.09936e+68  2.38917e+135  1.06106e+202   9.84721e+67   1.28013e+67   2.93247e+67     6.781e+67  -9.67749e+66  -2.72792e+67   2.23108e+66
  -1.25233e+60  -1.52586e+62  -1.78899e+61  -1.44664e+68  3.81633e+135 -1.91935e+202    1.3081e+68  -1.23018e+67  -2.94291e+67  -1.02933e+68  -9.68871e+66  -2.72923e+67  -1.56194e+66
  -1.88271e+60  -1.49695e+62  -1.78338e+61  -1.44472e+68  3.62495e+135 -1.49956e+202   1.31329e+68  -1.22577e+67  -2.94107e+67  -1.02804e+68    9.6613e+66  -3.03741e+67  -1.81374e+66
   1.13396e+60  -1.49592e+62   1.08954e+61   1.09683e+68  2.19425e+135  5.61728e+201   9.91772e+67   1.27429e+67   2.92405e+67   6.76996e+67   9.67251e+66  -3.03581e+67   2.33448e+66
   9.05426e+49  -2.19293e+62   4.81918e+61   2.56162e+68  8.03261e+135  3.88832e+202   2.39972e+68   1.10417e+67   2.89765e+67   2.16144e+68  -9.76608e+66   2.90046e+67   6.29628e+65
   1.27615e+50   -2.1851e+62    1.3345e+61   4.32467e+64 -2.42164e+135  2.37634e+202   4.92101e+67  -1.30438e+67  -3.01278e+67   4.32149e+67  -9.76219e+66   2.92144e+67   4.18888e+65
   3.79009e+59  -2.17943e+62   1.33206e+61   2.63819e+64 -2.41154e+135  2.41496e+202   4.91075e+67  -1.30477e+67   -3.0123e+67   4.31971e+67   9.79095e+66   2.90446e+67   5.22898e+65
   1.39577e+60  -2.18726e+62   4.81553e+61   2.56199e+68  8.04753e+135  3.99643e+202    2.3998e+68   1.10502e+67   2.89936e+67   2.16155e+68   9.78705e+66   2.88345e+67   1.13626e+66
   7.64735e+49  -1.85955e+62   4.41091e+61   2.60432e+68   8.9213e+135   5.5037e+202     2.427e+68   1.29211e+67   3.03814e+67   2.17129e+68  -9.70851e+66  -2.79077e+67   6.30736e+65
   1.09676e+50  -1.85182e+62   1.22216e+61   2.00359e+66 -2.31786e+135  2.14849e+202   4.81858e+67  -1.24079e+67  -2.92558e+67   4.36673e+67  -9.70438e+66  -2.76979e+67   4.12757e+65
   3.79257e+59   -1.8461e+62   1.21973e+61   1.98953e+66  -2.3279e+135  2.10821e+202   4.82893e+67  -1.24111e+67  -2.92497e+67   4.36504e+67   9.73796e+66  -2.78804e+67   5.15238e+65
   1.39026e+60  -1.85383e+62   4.40719e+61    2.6047e+68  8.91658e+135  5.39177e+202   2.42751e+68     1.293e+67   3.03997e+67    2.1714e+68   9.73382e+66  -2.80904e+67   1.12992e+66
   1.27615e+50   -2.1851e+62    1.3345e+61   1.11061e+68  2.33628e+135  8.20253e+201   9.99911e+67   1.25756e+67   2.96508e+67   6.88343e+67  -9.76219e+66   2.91161e+67   4.18888e+65
   1.64336e+50  -2.18614e+62  -2.14968e+61  -1.45059e+68  3.66139e+135 -1.57467e+202   1.31836e+68   -1.1515e+67  -2.94537e+67   -1.0409e+68  -9.76335e+66   2.91004e+67   2.08275e+65
  -6.37612e+59  -2.18047e+62  -2.15089e+61  -1.45166e+68  3.67959e+135 -1.58477e+202   1.31885e+68  -1.15399e+67  -2.94811e+67  -1.04145e+68   9.78705e+66   2.89304e+67   -9.0113e+64
   3.79009e+59  -2.17943e+62   1.33206e+61   1.11007e+68  2.34198e+135  8.78781e+201    9.9903e+67   1.25632e+67   2.96358e+67   6.88081e+67   9.78821e+66   2.89465e+67   5.22898e+65
   1.09676e+50  -1.85182e+62   1.22216e+61   1.11556e+68  2.45362e+135  1.01713e+202   9.99551e+67   1.28733e+67   2.97337e+67   6.89485e+67  -9.70438e+66  -2.77938e+67   4.12757e+65
   1.42549e+50  -1.85286e+62  -1.96608e+61  -1.46872e+68  3.93232e+135 -1.93518e+202   1.32812e+68    -1.246e+67  -2.99034e+67  -1.04508e+68  -9.70591e+66  -2.78095e+67   1.94806e+65
  -6.31612e+59  -1.84714e+62  -1.96723e+61  -1.46981e+68  3.93067e+135 -1.93315e+202   1.32939e+68  -1.24852e+67   -2.9932e+67  -1.04564e+68   9.73387e+66  -2.79923e+67  -9.91934e+64
   3.79257e+59   -1.8461e+62   1.21973e+61     1.115e+68  2.43901e+135  9.45412e+201   9.99659e+67   1.28604e+67   2.97173e+67    6.8922e+67    9.7354e+66  -2.79763e+67   5.15238e+65
   1.39577e+60  -2.18726e+62   4.81553e+61   2.56059e+68  8.00661e+135  3.73872e+202   2.39916e+68   1.10216e+67   2.89615e+67   2.16076e+68  -9.76135e+66   2.91603e+67   2.52804e+66
   3.79009e+59  -2.17943e+62   1.33206e+61   6.36437e+64 -2.42967e+135  2.32878e+202   4.92917e+67  -1.29998e+67  -3.01144e+67   4.31779e+67  -9.75216e+66   2.93703e+67   1.35903e+66
   7.56876e+59  -2.16241e+62   1.32477e+61   5.47547e+63 -2.39017e+135  2.43469e+202   4.88893e+67  -1.30132e+67  -3.01073e+67    4.3126e+67   9.82091e+66    2.8701e+67   1.46476e+66
   2.79144e+60  -2.17024e+62   4.80379e+61   2.56038e+68  8.04259e+135  4.06513e+202   2.39819e+68   1.10167e+67   2.89772e+67   2.16044e+68   9.81172e+66   2.84907e+67   3.01881e+66
   1.39026e+60  -1.85383e+62   4.40719e+61   2.60241e+68  8.89465e+135  5.54518e+202   2.42551e+68   1.28528e+67   3.03469e+67   2.17042e+68  -9.70817e+66  -2.77664e+67    2.5089e+66
   3.79257e+59   -1.8461e+62   1.21973e+61   2.03784e+66 -2.30891e+135  2.18142e+202   4.80943e+67  -1.23576e+67  -2.92385e+67    4.3634e+67  -9.69872e+66  -2.75564e+67   1.34052e+66
   7.57266e+59  -1.82893e+62   1.21243e+61   1.98439e+66 -2.34715e+135  2.07211e+202    4.8488e+67    -1.237e+67  -2.92295e+67   4.35838e+67   9.78142e+66  -2.82469e+67    1.4447e+66
   2.78123e+60  -1.83665e+62   4.39535e+61   2.60224e+68  8.85365e+135  5.16024e+202   2.42617e+68   1.28489e+67   3.03644e+67   2.17011e+68   9.77197e+66  -2.84572e+67   2.99246e+66
   3.79009e+59  -2.17943e+62   1.33206e+61   1.11044e+68   2.3267e+135  7.53405e+201   1.00021e+68   1.26112e+67   2.96444e+67   6.87888e+67   -9.7549e+66   2.92722e+67   1.35903e+66
  -6.37612e+59  -2.18047e+62  -2.15089e+61  -1.44955e+68  3.63752e+135 -1.54091e+202   1.31812e+68  -1.14167e+67  -2.94324e+67  -1.04106e+68  -9.75604e+66   2.92561e+67   1.90826e+65
  -1.27738e+60  -2.16346e+62  -2.15373e+61  -1.45127e+68    3.689e+135 -1.58358e+202   1.31806e+68  -1.14563e+67  -2.94745e+67  -1.04196e+68   9.81388e+66   2.85863e+67  -8.79586e+64
   7.56876e+59  -2.16241e+62   1.32477e+61   1.10911e+68  2.35527e+135  9.44554e+201   9.97298e+67   1.25804e+67   2.96112e+67   6.87196e+67   9.81502e+66   2.86035e+67   1.46476e+66
   3.79257e+59   -1.8461e+62   1.21973e+61   1.11548e+68  2.46165e+135  1.07598e+202   9.99065e+67    1.2914e+67   2.97285e+67   6.89056e+67  -9.70128e+66  -2.76523e+67   1.34052e+66
  -6.31612e+59  -1.84714e+62  -1.96723e+61  -1.46656e+68  3.91302e+135 -1.90301e+202   1.32646e+68  -1.23013e+67  -2.98571e+67  -1.04498e+68  -9.70345e+66  -2.76684e+67   1.72759e+65
  -1.26643e+60  -1.82996e+62  -1.96998e+61  -1.46833e+68  3.88757e+135 -1.86251e+202   1.32938e+68  -1.23421e+67  -2.99028e+67  -1.04588e+68   9.77402e+66  -2.83596e+67  -1.01926e+65
   7.57266e+59  -1.82893e+62   1.21243e+61   1.11409e+68   2.4121e+135  8.53905e+201   9.99994e+67   1.28819e+67   2.96915e+67   6.88356e+67   9.77619e+66  -2.83424e+67    1.4447e+66
   2.79144e+60  -2.17024e+62   4.80379e+61   2.56045e+68  8.02078e+135  3.53908e+202   2.39871e+68   1.12317e+67   2.89787e+67   2.15834e+68  -9.78828e+66   2.91441e+67   6.18743e+66
   7.56876e+59  -2.16241e+62   1.32477e+61   6.87876e+64 -2.42675e+135  2.26255e+202   4.92621e+67  -1.29237e+67  -3.00927e+67   4.30852e+67  -9.76595e+66   2.93539e+67    2.2949e+66
   1.13257e+60  -2.13402e+62   1.31266e+61   4.50174e+64 -2.24548e+135  2.28881e+202   4.73865e+67  -1.29292e+67  -3.00483e+67   4.30225e+67    9.7297e+66   2.61637e+67   2.40173e+66
    4.1809e+60  -2.14184e+62   4.77363e+61   2.55519e+68  8.13294e+135  4.34949e+202   2.39076e+68   1.11105e+67   2.89073e+67   2.15502e+68   9.70737e+66   2.59541e+67    6.6544e+66
   2.78123e+60  -1.83665e+62   4.39535e+61   2.60112e+68  8.88272e+135  5.69989e+202   2.42437e+68   1.29943e+67   3.03384e+67   2.16779e+68  -9.74535e+66  -2.78066e+67    6.0804e+66
   7.57266e+59  -1.82893e+62   1.21243e+61   2.05583e+66 -2.30931e+135  2.22162e+202   4.80992e+67  -1.22766e+67   -2.9213e+67   4.35454e+67  -9.72323e+66  -2.75968e+67   2.26654e+66
   1.13301e+60  -1.80026e+62   1.20028e+61   2.03569e+66 -2.49047e+135  2.18551e+202   4.99461e+67  -1.22813e+67  -2.91675e+67   4.34844e+67   9.70325e+66  -3.07657e+67    2.3718e+66
   4.16716e+60  -1.80797e+62   4.36529e+61   2.59598e+68  8.63272e+135  4.65029e+202   2.42401e+68   1.28757e+67   3.02699e+67   2.16452e+68   9.68113e+66  -3.09754e+67   6.54051e+66
   7.56876e+59  -2.16241e+62   1.32477e+61   1.10975e+68  2.32348e+135  6.90813e+201   9.99593e+67   1.26699e+67   2.96258e+67   6.86788e+67  -9.77185e+66   2.92564e+67    2.2949e+66
  -1.27738e+60  -2.16346e+62  -2.15373e+61  -1.45001e+68  3.64513e+135 -1.44455e+202   1.31834e+68  -1.14893e+67  -2.94455e+67  -1.04066e+68  -9.77838e+66   2.92393e+67  -1.59625e+66
  -1.91535e+60  -2.13506e+62  -2.14781e+61  -1.44733e+68  3.80176e+135 -1.81824e+202   1.30942e+68  -1.14274e+67  -2.93983e+67  -1.03907e+68   9.71506e+66   2.60475e+67  -1.84901e+66
   1.13257e+60  -2.13402e+62   1.31266e+61   1.10741e+68  2.48488e+135  1.15629e+202   9.88876e+67   1.26161e+67   2.95574e+67   6.85678e+67    9.7216e+66   2.60669e+67   2.40173e+66
   7.57266e+59  -1.82893e+62   1.21243e+61    1.1148e+68  2.45531e+135  1.11264e+202   9.98628e+67   1.29752e+67    2.9708e+67   6.87973e+67  -9.72846e+66  -2.76923e+67   2.26654e+66
  -1.26643e+60  -1.82996e+62  -1.96998e+61  -1.46572e+68  3.90281e+135 -1.97461e+202   1.32592e+68  -1.22979e+67  -2.98426e+67  -1.04432e+68  -9.73704e+66  -2.77092e+67    -1.546e+66
  -1.90078e+60  -1.80129e+62  -1.96423e+61  -1.46325e+68  3.69868e+135 -1.54155e+202   1.33087e+68  -1.22408e+67  -2.98049e+67  -1.04279e+68   9.68775e+66  -3.08798e+67  -1.79504e+66
   1.13301e+60  -1.80026e+62   1.20028e+61   1.11234e+68   2.2533e+135  5.94505e+201   1.00597e+68   1.29184e+67   2.96317e+67   6.86841e+67   9.69633e+66  -3.08605e+67    2.3718e+66
   1.05756e+50  -2.55614e+62   5.23378e+61   2.59756e+68  8.21013e+135  3.97093e+202    2.4344e+68   1.09797e+67   2.93704e+67   2.19406e+68  -9.81314e+66   2.94738e+67   6.32941e+65
   1.46649e+50  -2.54819e+62   1.44851e+61   9.98845e+64 -2.49464e+135  2.49235e+202   4.99465e+67  -1.32256e+67  -3.05503e+67   4.38757e+67  -9.80929e+66   2.96915e+67   4.24698e+65
   3.78925e+59  -2.54258e+62   1.44608e+61   8.52156e+64 -2.48398e+135  2.53228e+202   4.98396e+67   -1.3229e+67  -3.05452e+67   4.38594e+67   9.83517e+66    2.9515e+67   5.33478e+65
   1.40044e+60  -2.55052e+62   5.23016e+61    2.5976e+68  8.22133e+135  4.07616e+202   2.43421e+68   1.09805e+67   2.93797e+67   2.19399e+68   9.83132e+66   2.92972e+67   1.13067e+66
   9.05426e+49  -2.19293e+62   4.81918e+61   2.64069e+68  9.12225e+135  5.63326e+202   2.46191e+68   1.28664e+67   3.08011e+67   2.20401e+68  -9.76611e+66  -2.83311e+67   6.29617e+65
   1.27615e+50   -2.1851e+62    1.3345e+61   2.14849e+66  -2.3851e+135  2.24425e+202   4.88847e+67   -1.2558e+67   -2.9642e+67   4.43485e+67  -9.76221e+66  -2.81133e+67   4.18889e+65
   3.79009e+59  -2.17943e+62   1.33206e+61   2.13525e+66 -2.39531e+135  2.20281e+202   4.89885e+67   -1.2561e+67  -2.96364e+67   4.43326e+67   9.79092e+66  -2.82968e+67   5.26045e+65
   1.39577e+60  -2.18726e+62   4.81553e+61   2.64073e+68  9.11282e+135  5.51403e+202   2.46215e+68   1.28674e+67   3.08109e+67   2.20395e+68   9.78702e+66  -2.85147e+67   1.11992e+66
   1.46649e+50  -2.54819e+62   1.44851e+61   1.12654e+68  2.40101e+135  8.62817e+201   1.01439e+68   1.27484e+67   3.00557e+67   6.98497e+67  -9.80929e+66   2.95906e+67   4.24698e+65
   1.87291e+50  -2.54924e+62  -2.33623e+61  -1.47003e+68  3.73887e+135  -1.6106e+202   1.33683e+68  -1.14625e+67  -2.98652e+67  -1.05676e+68  -9.81016e+66    2.9572e+67   2.16602e+65
  -6.42431e+59  -2.54363e+62  -2.33747e+61   -1.4707e+68  3.75443e+135 -1.61583e+202   1.33698e+68  -1.14779e+67  -2.98825e+67   -1.0571e+68   9.83129e+66   2.93953e+67  -6.32544e+64
   3.78925e+59  -2.54258e+62   1.44608e+61   1.12605e+68  2.40763e+135  9.24908e+201   1.01353e+68   1.27372e+67   3.00426e+67   6.98256e+67   9.83216e+66   2.94143e+67   5.33478e+65
   1.27615e+50   -2.1851e+62    1.3345e+61   1.13166e+68  2.52474e+135  1.07032e+202   1.01399e+68   1.30614e+67   3.01366e+67   6.99679e+67  -9.76221e+66  -2.82116e+67   4.18889e+65
   1.64336e+50  -2.18614e+62  -2.14968e+61  -1.48753e+68  4.00933e+135  -1.9676e+202   1.34604e+68  -1.23676e+67  -3.03063e+67   -1.0608e+68  -9.76338e+66  -2.82303e+67   2.08288e+65
  -6.37612e+59  -2.18047e+62  -2.15089e+61  -1.48821e+68  4.00425e+135  -1.9648e+202   1.34698e+68  -1.23833e+67  -3.03246e+67  -1.06113e+68   9.78702e+66   -2.8414e+67   -6.7392e+64
   3.79009e+59  -2.17943e+62   1.33206e+61   1.13116e+68  2.51037e+135  9.97075e+201   1.01414e+68   1.30499e+67   3.01225e+67   6.99436e+67   9.78819e+66   -2.8395e+67   5.26045e+65
   1.40044e+60  -2.55052e+62   5.23016e+61   2.59681e+68  8.19181e+135  3.83481e+202   2.43398e+68   1.09854e+67   2.93616e+67   2.19334e+68  -9.80574e+66   2.96245e+67   2.54353e+66
   3.78925e+59  -2.54258e+62   1.44608e+61   1.19236e+65 -2.50251e+135  2.44309e+202   5.00252e+67  -1.31824e+67  -3.05374e+67    4.3839e+67  -9.79646e+66   2.98422e+67   1.38085e+66
   7.56742e+59  -2.52573e+62   1.43881e+61   6.18779e+64 -2.46045e+135  2.55171e+202    4.9603e+67  -1.31956e+67  -3.05302e+67   4.37877e+67    9.8566e+66   2.91426e+67   1.48998e+66
   2.80021e+60  -2.53368e+62   5.21846e+61   2.59569e+68  8.21829e+135  4.15671e+202   2.43224e+68   1.09596e+67   2.93562e+67   2.19254e+68   9.84732e+66    2.8925e+67    3.0304e+66
   1.39577e+60  -2.18726e+62   4.81553e+61   2.63934e+68  9.10866e+135  5.70548e+202   2.46074e+68   1.28389e+67   3.07788e+67   2.20317e+68  -9.76142e+66  -2.81889e+67   2.51167e+66
   3.79009e+59  -2.17943e+62   1.33206e+61   2.17249e+66 -2.37601e+135  2.28022e+202   4.87928e+67  -1.25131e+67  -2.96278e+67   4.43134e+67  -9.75223e+66  -2.79711e+67   1.36218e+66
   7.56876e+59  -2.16241e+62   1.32477e+61   2.11732e+66  -2.4155e+135  2.16905e+202   4.91933e+67  -1.25258e+67    -2.962e+67   4.42631e+67   9.82084e+66  -2.86775e+67   1.46967e+66
   2.79144e+60  -2.17024e+62   4.80379e+61   2.63825e+68  9.05387e+135  5.29747e+202   2.46069e+68   1.28137e+67   3.07742e+67   2.20237e+68   9.81165e+66  -2.88951e+67   2.99128e+66
   3.78925e+59  -2.54258e+62   1.44608e+61   1.12639e+68  2.39172e+135  7.94277e+201   1.01469e+68   1.27838e+67   3.00505e+67   6.98052e+67  -9.79947e+66   2.97415e+67   1.38085e+66
  -6.42431e+59  -2.54363e+62  -2.33747e+61  -1.46927e+68  3.71909e+135 -1.58491e+202   1.33673e+68  -1.13914e+67  -2.98495e+67  -1.05686e+68  -9.79982e+66   2.97225e+67   2.19051e+65
  -1.28639e+60  -2.52679e+62  -2.34033e+61  -1.46998e+68  3.76508e+135 -1.61837e+202   1.33579e+68  -1.14079e+67  -2.98667e+67  -1.05724e+68   9.84971e+66   2.90226e+67  -4.91402e+64
   7.56742e+59  -2.52573e+62   1.43881e+61   1.12513e+68  2.42325e+135  9.96435e+201   1.01173e+68   1.27547e+67   3.00206e+67    6.9738e+67   9.85006e+66   2.90425e+67   1.48998e+66
   3.79009e+59  -2.17943e+62   1.33206e+61   1.13153e+68  2.53251e+135  1.13123e+202   1.01347e+68   1.30978e+67   3.01311e+67   6.99243e+67  -9.75497e+66  -2.80693e+67   1.36218e+66
  -6.37612e+59  -2.18047e+62  -2.15089e+61   -1.4861e+68  3.99899e+135  -1.9486e+202   1.34484e+68  -1.22602e+67  -3.02758e+67  -1.06074e+68  -9.75611e+66  -2.80882e+67   2.13566e+65
  -1.27738e+60  -2.16346e+62  -2.15373e+61  -1.48686e+68  3.96412e+135 -1.90419e+202   1.34698e+68  -1.22778e+67   -3.0296e+67  -1.06113e+68   9.81381e+66  -2.87948e+67  -5.06225e+64
   7.56876e+59  -2.16241e+62   1.32477e+61   1.13023e+68  2.48229e+135  9.03132e+201   1.01449e+68   1.30678e+67   3.00985e+67   6.98568e+67   9.81495e+66   -2.8775e+67   1.46967e+66
   2.80021e+60  -2.53368e+62   5.21846e+61   2.59656e+68  8.21231e+135  3.64431e+202   2.43329e+68   1.12231e+67   2.93763e+67   2.19057e+68  -9.82665e+66   2.95808e+67   6.27566e+66
   7.56742e+59  -2.52573e+62   1.43881e+61   1.24487e+65  -2.4978e+135  2.37314e+202   4.99781e+67  -1.31057e+67  -3.05157e+67   4.37459e+67  -9.80385e+66    2.9798e+67   2.33107e+66
    1.1324e+60  -2.49765e+62   1.42671e+61    8.4226e+64  -2.3092e+135  2.39755e+202   4.80542e+67   -1.3115e+67  -3.04748e+67   4.36741e+67   9.75676e+66   2.65327e+67    2.4399e+66
   4.19302e+60  -2.50558e+62   5.18817e+61   2.59081e+68  8.32398e+135  4.47711e+202   2.42485e+68   1.10904e+67   2.92937e+67   2.18697e+68   9.73395e+66    2.6316e+67    6.7458e+66
   2.79144e+60  -2.17024e+62   4.80379e+61   2.63832e+68  9.10778e+135  5.89888e+202   2.45966e+68   1.30287e+67   3.07757e+67   2.20027e+68  -9.78837e+66  -2.82418e+67   6.15991e+66
   7.56876e+59  -2.16241e+62   1.32477e+61   2.18061e+66 -2.37704e+135  2.32468e+202   4.88036e+67  -1.24363e+67  -2.96054e+67   4.42223e+67  -9.76605e+66  -2.80246e+67    2.2998e+66
   1.13257e+60  -2.13402e+62   1.31266e+61   2.14233e+66 -2.56476e+135  2.29366e+202   5.06888e+67  -1.24452e+67  -2.95643e+67   4.41518e+67    9.7296e+66  -3.12641e+67   2.40701e+66
    4.1809e+60  -2.14184e+62   4.77363e+61   2.63267e+68  8.84308e+135  4.80946e+202   2.45899e+68   1.28983e+67   3.06951e+67   2.19673e+68   9.70728e+66  -3.14807e+67   6.62304e+66
   7.56742e+59  -2.52573e+62   1.43881e+61   1.12576e+68  2.39069e+135  7.33015e+201   1.01403e+68   1.28446e+67    3.0035e+67   6.96963e+67  -9.81039e+66   2.96978e+67   2.33107e+66
  -1.28639e+60  -2.52679e+62  -2.34033e+61  -1.46954e+68  3.72968e+135 -1.49137e+202   1.33663e+68  -1.14884e+67  -2.98565e+67  -1.05609e+68  -9.81554e+66   2.96781e+67  -1.61222e+66
  -1.92775e+60   -2.4987e+62  -2.33423e+61  -1.46659e+68  3.89052e+135 -1.87643e+202   1.32734e+68  -1.14203e+67  -2.97997e+67  -1.05439e+68   9.74254e+66   2.64119e+67  -1.86435e+66
    1.1324e+60  -2.49765e+62   1.42671e+61   1.12336e+68  2.55857e+135   1.2199e+202   1.00303e+68   1.27891e+67   2.99683e+67   6.95783e+67   9.74769e+66   2.64332e+67    2.4399e+66
   7.56876e+59  -2.16241e+62   1.32477e+61   1.13086e+68  2.52554e+135  1.16941e+202   1.01306e+68   1.31573e+67   3.01131e+67   6.98159e+67  -9.77194e+66  -2.81221e+67    2.2998e+66
  -1.27738e+60  -2.16346e+62  -2.15373e+61  -1.48561e+68  3.99512e+135 -2.03912e+202   1.34444e+68  -1.23108e+67   -3.0267e+67  -1.05983e+68  -9.77848e+66  -2.81417e+67  -1.55893e+66
  -1.91535e+60  -2.13506e+62  -2.14781e+61  -1.48281e+68  3.78093e+135 -1.59089e+202   1.34931e+68  -1.22462e+67   -3.0217e+67  -1.05818e+68   9.71497e+66   -3.1382e+67   -1.8073e+66
   1.13257e+60  -2.13402e+62   1.31266e+61   1.12839e+68  2.31658e+135  6.31634e+201   1.02059e+68   1.31001e+67   3.00414e+67   6.96971e+67    9.7215e+66  -3.13609e+67   2.40701e+66
   1.21855e+50  -2.94962e+62   5.65487e+61   2.63478e+68  8.40158e+135  4.07373e+202    2.4702e+68   1.09398e+67   2.97783e+67   2.22759e+68  -9.85347e+66   2.99507e+67   6.39596e+65
   1.66873e+50  -2.94155e+62   1.56427e+61    1.5123e+65 -2.57066e+135   2.6171e+202   5.07019e+67  -1.34171e+67  -3.09893e+67   4.45576e+67  -9.84959e+66   3.01761e+67   4.30687e+65
   3.78912e+59  -2.93601e+62   1.56185e+61   1.35708e+65 -2.55945e+135  2.65835e+202   5.05912e+67  -1.34207e+67  -3.09845e+67   4.45409e+67   9.87384e+66   2.99941e+67   5.42548e+65
   1.40453e+60  -2.94407e+62   5.65127e+61   2.63457e+68  8.41014e+135   4.1779e+202   2.46981e+68   1.09351e+67    2.9782e+67    2.2274e+68   9.86997e+66   2.97687e+67   1.13385e+66
   1.05756e+50  -2.55614e+62   5.23378e+61   2.67864e+68  9.34381e+135  5.80001e+202   2.49814e+68   1.28507e+67   3.12414e+67   2.23772e+68  -9.81315e+66  -2.87665e+67   6.32933e+65
   1.46649e+50  -2.54819e+62   1.44851e+61   2.27766e+66 -2.45544e+135  2.34944e+202   4.96048e+67   -1.2723e+67  -3.00477e+67   4.50484e+67  -9.80931e+66   -2.8541e+67   4.24698e+65
   3.78925e+59  -2.54258e+62   1.44608e+61   2.26299e+66 -2.46586e+135  2.30696e+202    4.9709e+67  -1.27264e+67  -3.00426e+67    4.5032e+67   9.83515e+66  -2.87264e+67   5.34864e+65
   1.40044e+60  -2.55052e+62   5.23016e+61   2.67844e+68  9.33086e+135  5.67395e+202   2.49819e+68   1.28462e+67   3.12453e+67   2.23753e+68   9.83131e+66  -2.89518e+67    1.1197e+66
   1.66873e+50  -2.94155e+62   1.56427e+61   1.14306e+68  2.46989e+135  9.10432e+201   1.02937e+68   1.29263e+67   3.04786e+67   7.09011e+67  -9.84959e+66   3.00723e+67   4.30687e+65
   2.11631e+50  -2.94262e+62  -2.52579e+61  -1.49021e+68  3.82325e+135 -1.65592e+202   1.35588e+68  -1.14368e+67  -3.02892e+67  -1.07295e+68  -9.85025e+66   3.00515e+67   2.21912e+65
  -6.46537e+59  -2.93707e+62  -2.52704e+61  -1.49064e+68   3.8374e+135 -1.65832e+202   1.35583e+68  -1.14466e+67  -3.03005e+67  -1.07317e+68   9.86992e+66   2.98694e+67  -4.83155e+64
   3.78912e+59  -2.93601e+62   1.56185e+61   1.14259e+68  2.47708e+135  9.75551e+201   1.02849e+68   1.29154e+67   3.04662e+67   7.08769e+67   9.87058e+66   2.98905e+67   5.42548e+65
   1.46649e+50  -2.54819e+62   1.44851e+61   1.14832e+68   2.5996e+135  1.12875e+202   1.02892e+68    1.3251e+67   3.05583e+67   7.10224e+67  -9.80931e+66  -2.86419e+67   4.24698e+65
   1.87291e+50  -2.54924e+62  -2.33623e+61  -1.50753e+68  4.09819e+135 -2.01838e+202   1.36486e+68  -1.23279e+67  -3.07306e+67  -1.07695e+68  -9.81018e+66  -2.86627e+67    2.1661e+65
  -6.42431e+59  -2.54363e+62  -2.33747e+61  -1.50797e+68  4.09091e+135 -2.01496e+202   1.36561e+68  -1.23379e+67  -3.07426e+67  -1.07717e+68   9.83127e+66  -2.88482e+67  -4.95238e+64
   3.78925e+59  -2.54258e+62   1.44608e+61   1.14783e+68  2.58511e+135  1.05348e+202   1.02908e+68   1.32398e+67   3.05452e+67   7.09982e+67   9.83214e+66  -2.88272e+67   5.34864e+65
   1.40453e+60  -2.94407e+62   5.65127e+61    2.6342e+68  8.38844e+135  3.94529e+202   2.46986e+68   1.09633e+67   2.97735e+67   2.22684e+68  -9.84441e+66   3.00972e+67   2.57399e+66
   3.78912e+59  -2.93601e+62   1.56185e+61   1.69929e+65 -2.57836e+135  2.56582e+202   5.07778e+67  -1.33736e+67  -3.09766e+67   4.45201e+67   -9.8349e+66   3.03226e+67   1.40194e+66
   7.56721e+59  -2.91935e+62   1.55458e+61   1.08155e+65 -2.53385e+135  2.67714e+202   5.03375e+67  -1.33878e+67  -3.09703e+67   4.44663e+67   9.88989e+66   2.95962e+67   1.51354e+66
   2.80803e+60  -2.92741e+62   5.63955e+61   2.63244e+68  8.40846e+135  4.26782e+202   2.46757e+68   1.09225e+67   2.97533e+67   2.22568e+68   9.88037e+66   2.93711e+67   3.06076e+66
   1.40044e+60  -2.55052e+62   5.23016e+61   2.67766e+68  9.33919e+135  5.89508e+202   2.49719e+68   1.28512e+67   3.12273e+67   2.23688e+68  -9.80579e+66  -2.86246e+67   2.53254e+66
   3.78925e+59  -2.54258e+62   1.44608e+61     2.297e+66 -2.44621e+135  2.38751e+202   4.95125e+67  -1.26798e+67  -3.00348e+67   4.50116e+67  -9.79651e+66  -2.83992e+67   1.38224e+66
   7.56742e+59  -2.52573e+62   1.43881e+61   2.23657e+66 -2.48708e+135  2.27456e+202   4.99208e+67  -1.26937e+67  -3.00283e+67   4.49586e+67   9.85656e+66  -2.91231e+67   1.49215e+66
   2.80021e+60  -2.53368e+62   5.21846e+61   2.67593e+68   9.2739e+135  5.46479e+202   2.49663e+68   1.28111e+67   3.12077e+67   2.23574e+68   9.84727e+66  -2.93481e+67   3.01194e+66
   3.78912e+59  -2.93601e+62   1.56185e+61   1.14293e+68  2.46083e+135  8.40087e+201   1.02966e+68   1.29625e+67   3.04741e+67   7.08562e+67  -9.83816e+66   3.02189e+67   1.40194e+66
  -6.46537e+59  -2.93707e+62  -2.52704e+61  -1.48962e+68  3.80602e+135 -1.63494e+202   1.35586e+68  -1.13824e+67  -3.02769e+67  -1.07303e+68  -9.83796e+66   3.01979e+67    2.3067e+65
  -1.29422e+60  -2.92042e+62  -2.52986e+61  -1.48974e+68  3.84947e+135  -1.6642e+202   1.35439e+68  -1.13851e+67  -3.02792e+67  -1.07309e+68   9.88301e+66   2.94714e+67  -3.25579e+64
   7.56721e+59  -2.91935e+62   1.55458e+61   1.14165e+68  2.49457e+135  1.05215e+202    1.0266e+68   1.29331e+67   3.04452e+67   7.07872e+67   9.88281e+66   2.94931e+67   1.51354e+66
   3.78925e+59  -2.54258e+62   1.44608e+61   1.14817e+68  2.60738e+135  1.19185e+202   1.02838e+68   1.32864e+67    3.0553e+67   7.09778e+67  -9.79951e+66     -2.85e+67   1.38224e+66
  -6.42431e+59  -2.54363e+62  -2.33747e+61  -1.50654e+68   4.0933e+135 -2.00779e+202   1.36394e+68  -1.22515e+67  -3.07096e+67  -1.07693e+68  -9.79986e+66   -2.8521e+67   2.32793e+65
  -1.28639e+60  -2.52679e+62  -2.34033e+61   -1.5067e+68  4.05192e+135 -1.95936e+202   1.36563e+68  -1.22551e+67  -3.07139e+67  -1.07701e+68   9.84966e+66  -2.92449e+67  -2.64461e+64
   7.56742e+59  -2.52573e+62   1.43881e+61   1.14688e+68   2.5557e+135  9.56354e+201   1.02945e+68   1.32566e+67   3.05224e+67   7.09089e+67   9.85001e+66  -2.92232e+67   1.49215e+66
   2.80803e+60  -2.92741e+62   5.63955e+61   2.63386e+68   8.4135e+135  3.75847e+202   2.46898e+68   1.12205e+67   2.97861e+67   2.22379e+68  -9.86193e+66   3.00292e+67   6.38041e+66
   7.56721e+59  -2.91935e+62   1.55458e+61   1.72837e+65 -2.57194e+135  2.49181e+202   5.07146e+67   -1.3296e+67  -3.09553e+67   4.44242e+67  -9.83856e+66   3.02538e+67   2.36711e+66
   1.13236e+60  -2.89159e+62   1.54249e+61   1.19224e+65 -2.37664e+135  2.51457e+202    4.8751e+67  -1.33084e+67  -3.09171e+67   4.43447e+67   9.78417e+66    2.6927e+67   2.47791e+66
   4.20405e+60  -2.89963e+62   5.60911e+61   2.62772e+68  8.52544e+135   4.6163e+202   2.46016e+68   1.10789e+67   2.96951e+67   2.21998e+68   9.76079e+66   2.67031e+67   6.85519e+66
   2.80021e+60  -2.53368e+62   5.21846e+61    2.6768e+68   9.3455e+135  6.11755e+202   2.49614e+68   1.30747e+67   3.12278e+67   2.23377e+68  -9.82671e+66  -2.86923e+67   6.25719e+66
   7.56742e+59  -2.52573e+62   1.43881e+61   2.29917e+66 -2.44794e+135  2.43545e+202     4.953e+67  -1.26039e+67  -3.00139e+67   4.49169e+67  -9.80391e+66  -2.84677e+67   2.33324e+66
    1.1324e+60  -2.49765e+62   1.42671e+61   2.24735e+66  -2.6418e+135  2.40833e+202   5.14476e+67  -1.26158e+67  -2.99756e+67   4.48388e+67    9.7567e+66  -3.17657e+67   2.44235e+66
   4.19302e+60  -2.50558e+62   5.18817e+61   2.67076e+68  9.06814e+135  4.98616e+202   2.49523e+68   1.29355e+67   3.11388e+67   2.23002e+68   9.73389e+66  -3.19897e+67   6.72478e+66
   7.56721e+59  -2.91935e+62   1.55458e+61    1.1423e+68  2.46149e+135  7.79311e+201   1.02893e+68   1.30249e+67   3.04601e+67   7.07451e+67  -9.84563e+66   3.01507e+67   2.36711e+66
  -1.29422e+60  -2.92042e+62  -2.52986e+61   -1.4898e+68  3.81919e+135 -1.54229e+202   1.35557e+68   -1.1496e+67  -3.02806e+67  -1.07203e+68  -9.84995e+66   3.01292e+67   -1.6451e+66
  -1.93882e+60  -2.89265e+62  -2.52359e+61  -1.48668e+68  3.98456e+135 -1.94089e+202   1.34601e+68  -1.14239e+67  -3.02179e+67  -1.07026e+68   9.77007e+66    2.6802e+67  -1.89806e+66
   1.13236e+60  -2.89159e+62   1.54249e+61   1.13982e+68  2.63508e+135  1.28685e+202   1.01768e+68   1.29675e+67   3.03934e+67   7.06206e+67   9.77438e+66   2.68244e+67   2.47791e+66
   7.56742e+59  -2.52573e+62   1.43881e+61   1.14751e+68  2.59964e+135  1.23112e+202   1.02801e+68   1.33464e+67   3.05369e+67   7.08672e+67  -9.81045e+66  -2.85678e+67   2.33324e+66
  -1.28639e+60  -2.52679e+62  -2.34033e+61  -1.50626e+68  4.09299e+135 -2.11151e+202   1.36364e+68  -1.23357e+67  -3.07038e+67  -1.07586e+68   -9.8156e+66  -2.85894e+67  -1.58954e+66
  -1.92775e+60   -2.4987e+62  -2.33423e+61  -1.50325e+68  3.87013e+135 -1.64641e+202   1.36849e+68  -1.22664e+67  -3.06458e+67  -1.07413e+68   9.74248e+66  -3.18877e+67  -1.83867e+66
    1.1324e+60  -2.49765e+62   1.42671e+61   1.14499e+68   2.3839e+135  6.72753e+201   1.03567e+68   1.32883e+67   3.04675e+67    7.0743e+67   9.74763e+66  -3.18652e+67   2.44235e+66
    1.3888e+50  -3.37387e+62   6.08262e+61   2.67325e+68  8.60546e+135  4.19249e+202   2.50713e+68   1.09148e+67   3.01998e+67    2.2621e+68   -9.8895e+66   3.04381e+67   6.48754e+65
   1.88224e+50  -3.36568e+62   1.68183e+61   1.98375e+65 -2.64995e+135   2.7507e+202   5.14781e+67  -1.36168e+67  -3.14448e+67     4.526e+67  -9.88556e+66   3.06713e+67   4.37021e+65
   3.78924e+59   -3.3602e+62   1.67941e+61   1.81118e+65 -2.63822e+135  2.79327e+202   5.13639e+67  -1.36208e+67  -3.14403e+67   4.52422e+67   9.90899e+66   3.04844e+67   5.51104e+65
   1.40824e+60  -3.36839e+62   6.07903e+61   2.67288e+68  8.61219e+135  4.29702e+202    2.5066e+68   1.09062e+67   3.01996e+67   2.26182e+68   9.90505e+66   3.02513e+67   1.14323e+66
   1.21855e+50  -2.94962e+62   5.65487e+61   2.71807e+68  9.58335e+135  5.99696e+202   2.53566e+68   1.28621e+67   3.17005e+67   2.27245e+68  -9.85348e+66  -2.92147e+67    6.3959e+65
   1.66873e+50  -2.94155e+62   1.56427e+61   2.39845e+66 -2.52901e+135  2.46331e+202   5.03464e+67  -1.28985e+67  -3.04707e+67   4.57677e+67   -9.8496e+66  -2.89815e+67   4.30686e+65
   3.78912e+59  -2.93601e+62   1.56185e+61   2.38182e+66 -2.53969e+135  2.41977e+202   5.04515e+67  -1.29023e+67  -3.04662e+67   4.57503e+67   9.87383e+66  -2.91695e+67   5.43013e+65
   1.40453e+60  -2.94407e+62   5.65127e+61   2.71771e+68  9.56775e+135  5.86433e+202   2.53558e+68   1.28537e+67   3.17005e+67   2.27217e+68   9.86996e+66  -2.94026e+67   1.12646e+66
   1.88224e+50  -3.36568e+62   1.68183e+61   1.16015e+68  2.54271e+135  9.62719e+201   1.04484e+68   1.31102e+67   3.09182e+67   7.19869e+67  -9.88556e+66   3.05644e+67   4.37021e+65
   2.37247e+50  -3.36676e+62  -2.71841e+61  -1.51112e+68  3.91362e+135 -1.70855e+202   1.37554e+68  -1.14281e+67  -3.07266e+67  -1.08957e+68  -9.88609e+66   3.05419e+67   2.25407e+65
  -6.50212e+59  -3.36128e+62  -2.71966e+61   -1.5114e+68   3.9271e+135 -1.70936e+202   1.37536e+68  -1.14347e+67  -3.07342e+67  -1.08971e+68   9.90499e+66   3.03549e+67  -4.06377e+64
   3.78924e+59   -3.3602e+62   1.67941e+61   1.15967e+68   2.5503e+135  1.03066e+202   1.04394e+68    1.3099e+67   3.09059e+67   7.19621e+67   9.90551e+66   3.03776e+67   5.51104e+65
   1.66873e+50  -2.94155e+62   1.56427e+61   1.16553e+68  2.67837e+135  1.19241e+202   1.04433e+68   1.34449e+67   3.09972e+67   7.21111e+67   -9.8496e+66  -2.90853e+67   4.30686e+65
   2.11631e+50  -2.94262e+62  -2.52579e+61  -1.52855e+68  4.19639e+135 -2.08265e+202   1.38449e+68  -1.23215e+67  -3.11739e+67  -1.09359e+68  -9.85026e+66  -2.91079e+67   2.21917e+65
  -6.46537e+59  -2.93707e+62  -2.52704e+61  -1.52884e+68  4.18761e+135 -2.07865e+202   1.38513e+68  -1.23281e+67  -3.11819e+67  -1.09374e+68   9.86991e+66  -2.92958e+67  -4.00343e+64
   3.78912e+59  -2.93601e+62   1.56185e+61   1.16505e+68  2.66355e+135  1.11474e+202    1.0445e+68   1.34337e+67   3.09846e+67   7.20864e+67   9.87057e+66  -2.92731e+67   5.43013e+65
   1.40824e+60  -3.36839e+62   6.07903e+61   2.67279e+68  8.59586e+135  4.06777e+202   2.50683e+68   1.09505e+67   3.01975e+67   2.26131e+68  -9.87939e+66   3.05811e+67   2.61533e+66
   3.78924e+59   -3.3602e+62   1.67941e+61   2.16676e+65  -2.6575e+135  2.69723e+202   5.15514e+67  -1.35725e+67  -3.14321e+67   4.52214e+67  -9.86959e+66   3.08141e+67   1.42331e+66
   7.56738e+59  -3.34375e+62   1.67214e+61   1.49705e+65 -2.61061e+135   2.8112e+202   5.10943e+67   -1.3588e+67  -3.14267e+67   4.51644e+67   9.92159e+66   3.00628e+67   1.53694e+66
    2.8152e+60  -3.35193e+62   6.06726e+61   2.67056e+68  8.61166e+135  4.39495e+202   2.50415e+68   1.08992e+67   3.01672e+67    2.2599e+68   9.91179e+66   2.98301e+67   3.10457e+66
   1.40453e+60  -2.94407e+62   5.65127e+61   2.71734e+68  9.58487e+135  6.10955e+202   2.53485e+68   1.28819e+67    3.1692e+67    2.2716e+68  -9.84444e+66   -2.9074e+67   2.56659e+66
   3.78912e+59  -2.93601e+62   1.56185e+61   2.41604e+66 -2.51966e+135  2.50306e+202   5.02543e+67  -1.28552e+67  -3.04583e+67   4.57296e+67  -9.83493e+66   -2.8841e+67    1.4024e+66
   7.56721e+59  -2.91935e+62   1.55458e+61   2.35019e+66 -2.56208e+135  2.38819e+202   5.06715e+67  -1.28704e+67  -3.04529e+67   4.56735e+67   9.88986e+66  -2.95837e+67   1.51428e+66
   2.80803e+60  -2.92741e+62   5.63955e+61   2.71515e+68  9.51135e+135  5.65725e+202   2.53395e+68   1.28314e+67   3.16622e+67   2.27022e+68   9.88034e+66  -2.98164e+67   3.04831e+66
   3.78924e+59   -3.3602e+62   1.67941e+61   1.16003e+68  2.53382e+135  8.90415e+201   1.04512e+68   1.31473e+67   3.09141e+67   7.19412e+67  -9.87307e+66   3.07073e+67   1.42331e+66
  -6.50212e+59  -3.36128e+62  -2.71966e+61  -1.51063e+68  3.89803e+135 -1.69023e+202   1.37558e+68  -1.13842e+67  -3.07165e+67  -1.08963e+68  -9.87252e+66   3.06846e+67   2.31969e+65
  -1.30133e+60  -3.34483e+62  -2.72242e+61  -1.51039e+68  3.94065e+135 -1.71831e+202   1.37376e+68  -1.13785e+67  -3.07096e+67  -1.08951e+68   9.91465e+66   2.99334e+67  -2.97642e+64
   7.56738e+59  -3.34375e+62   1.67214e+61   1.15871e+68  2.56948e+135  1.11206e+202   1.04196e+68    1.3117e+67    3.0885e+67   7.18694e+67   9.91411e+66   2.99565e+67   1.53694e+66
   3.78912e+59  -2.93601e+62   1.56185e+61   1.16539e+68  2.68625e+135  1.25777e+202   1.04379e+68   1.34808e+67   3.09925e+67   7.20656e+67  -9.83819e+66  -2.89447e+67    1.4024e+66
  -6.46537e+59  -2.93707e+62  -2.52704e+61  -1.52782e+68  4.19481e+135 -2.07756e+202   1.38374e+68  -1.22639e+67  -3.11584e+67  -1.09359e+68  -9.83799e+66  -2.89674e+67   2.38959e+65
  -1.29422e+60  -2.92042e+62  -2.52986e+61   -1.5276e+68  4.14853e+135 -2.02478e+202   1.38517e+68  -1.22588e+67  -3.11529e+67  -1.09348e+68   9.88298e+66  -2.97099e+67  -1.87478e+64
   7.56721e+59  -2.91935e+62   1.55458e+61   1.16407e+68  2.63269e+135  1.01377e+202   1.04489e+68   1.34505e+67   3.09626e+67   7.19944e+67   9.88278e+66  -2.96868e+67   1.51428e+66
    2.8152e+60  -3.35193e+62   6.06726e+61   2.67236e+68  8.62448e+135  3.88108e+202    2.5058e+68   1.12222e+67   3.02085e+67   2.25805e+68  -9.89516e+66   3.04904e+67   6.49765e+66
   7.56738e+59  -3.34375e+62   1.67214e+61   2.17025e+65 -2.64944e+135  2.61887e+202   5.14732e+67  -1.34939e+67  -3.14112e+67   4.51221e+67  -9.87119e+66   3.07226e+67   2.40387e+66
   1.13237e+60  -3.31632e+62   1.66006e+61   1.54013e+65  -2.4478e+135  2.64001e+202   4.94755e+67  -1.35084e+67  -3.13746e+67    4.5037e+67   9.81166e+66   2.73427e+67   2.51657e+66
   4.21434e+60  -3.32448e+62   6.03665e+61   2.66593e+68  8.73738e+135  4.76654e+202   2.49668e+68   1.10738e+67   3.01113e+67   2.25408e+68    9.7877e+66   2.71111e+67   6.97802e+66
   2.80803e+60  -2.92741e+62   5.63955e+61   2.71657e+68  9.59577e+135  6.35464e+202   2.53381e+68   1.31294e+67   3.16949e+67   2.26833e+68  -9.86197e+66  -2.91583e+67   6.36795e+66
   7.56721e+59  -2.91935e+62   1.55458e+61   2.41487e+66  -2.5222e+135   2.5542e+202   5.02795e+67  -1.27786e+67  -3.04379e+67   4.56314e+67   -9.8386e+66  -2.89261e+67   2.36785e+66
   1.13236e+60  -2.89159e+62   1.54249e+61    2.3538e+66 -2.72205e+135  2.53013e+202   5.22263e+67  -1.27927e+67  -3.04014e+67   4.55479e+67   9.78413e+66  -3.22752e+67   2.47882e+66
   4.20405e+60  -2.89963e+62   5.60911e+61   2.71025e+68  9.30703e+135  5.17906e+202   2.53274e+68   1.29836e+67   3.15997e+67   2.26442e+68   9.76075e+66  -3.25068e+67   6.84093e+66
   7.56738e+59  -3.34375e+62   1.67214e+61   1.15939e+68  2.53593e+135  8.29645e+201   1.04431e+68   1.32111e+67   3.09005e+67   7.18271e+67  -9.87868e+66   3.06162e+67   2.40387e+66
  -1.30133e+60  -3.34483e+62  -2.72242e+61  -1.51076e+68   3.9135e+135 -1.59714e+202   1.37515e+68  -1.15094e+67  -3.07183e+67  -1.08848e+68  -9.88255e+66   3.05933e+67  -1.68902e+66
  -1.94906e+60  -3.31739e+62  -2.71597e+61  -1.50752e+68  4.08346e+135 -2.01076e+202   1.36538e+68  -1.14345e+67  -3.06516e+67  -1.08666e+68   9.79749e+66   2.72133e+67  -1.94382e+66
   1.13237e+60  -3.31632e+62   1.66006e+61   1.15683e+68  2.71491e+135  1.35787e+202   1.03284e+68   1.31521e+67   3.08332e+67   7.16975e+67   9.80136e+66   2.72367e+67   2.51657e+66
   7.56721e+59  -2.91935e+62   1.55458e+61   1.16472e+68  2.67757e+135  1.29775e+202   1.04346e+68   1.35423e+67   3.09775e+67   7.19523e+67  -9.84567e+66  -2.90292e+67   2.36785e+66
  -1.29422e+60  -2.92042e+62  -2.52986e+61  -1.52766e+68  4.19629e+135 -2.19098e+202   1.38351e+68  -1.23697e+67  -3.11543e+67  -1.09242e+68  -9.84998e+66  -2.90521e+67  -1.63129e+66
  -1.93882e+60  -2.89265e+62  -2.52359e+61   -1.5245e+68  3.96545e+135 -1.70748e+202   1.38837e+68  -1.22969e+67  -3.10908e+67  -1.09062e+68   9.77003e+66  -3.24012e+67  -1.88218e+66
   1.13236e+60  -2.89159e+62   1.54249e+61   1.16216e+68  2.45517e+135   7.1773e+201   1.05124e+68   1.34832e+67   3.09091e+67   7.18238e+67   9.77434e+66  -3.23779e+67   2.47882e+66
   1.56436e+50  -3.82938e+62   6.51723e+61   2.71299e+68    8.821e+135  4.32461e+202   2.54524e+68   1.08996e+67   3.06349e+67   2.29765e+68   -9.9228e+66   3.09383e+67   6.59804e+65
   2.10631e+50  -3.82107e+62   1.80124e+61   2.42442e+65 -2.73282e+135  2.89356e+202   5.22769e+67   -1.3824e+67  -3.19167e+67   4.59832e+67  -9.91877e+66   3.11794e+67    4.4372e+65
   3.78939e+59  -3.81565e+62   1.79882e+61   2.23512e+65 -2.72056e+135  2.93745e+202   5.21595e+67  -1.38284e+67  -3.19126e+67   4.59645e+67   9.94187e+66   3.09879e+67   5.59674e+65
   1.41169e+60  -3.82397e+62   6.51363e+61    2.7125e+68  8.82651e+135  4.43063e+202    2.5446e+68   1.08883e+67    3.0632e+67    2.2973e+68   9.93784e+66   3.07469e+67   1.15708e+66
    1.3888e+50  -3.37387e+62   6.08262e+61   2.75896e+68  9.83941e+135  6.21985e+202   2.57448e+68   1.28929e+67   3.21778e+67   2.30826e+68  -9.88951e+66  -2.96767e+67   6.48749e+65
   1.88224e+50  -3.36568e+62   1.68183e+61   2.51578e+66 -2.60598e+135  2.58564e+202   5.11107e+67   -1.3082e+67    -3.091e+67   4.65078e+67  -9.88557e+66  -2.94356e+67    4.3702e+65
   3.78924e+59   -3.3602e+62   1.67941e+61    2.4974e+66 -2.61695e+135  2.54096e+202   5.12171e+67  -1.30862e+67  -3.09058e+67   4.64895e+67   9.90899e+66  -2.96266e+67   5.51162e+65
   1.40824e+60  -3.36839e+62   6.07903e+61   2.75848e+68  9.82174e+135  6.08072e+202   2.57431e+68   1.28818e+67   3.21751e+67   2.30791e+68   9.90504e+66  -2.98676e+67   1.13825e+66
   2.10631e+50  -3.82107e+62   1.80124e+61   1.17782e+68  2.61942e+135  1.01956e+202   1.06081e+68   1.33004e+67   3.13736e+67   7.31076e+67  -9.91877e+66   3.10691e+67    4.4372e+65
   2.64443e+50  -3.82216e+62  -2.91418e+61  -1.53276e+68  4.00952e+135  -1.7673e+202   1.39585e+68  -1.14304e+67  -3.11782e+67  -1.10667e+68  -9.91921e+66   3.10452e+67   2.27743e+65
  -6.53624e+59  -3.81674e+62  -2.91542e+61  -1.53295e+68  4.02274e+135 -1.76722e+202   1.39559e+68  -1.14349e+67  -3.11835e+67  -1.10677e+68   9.93778e+66   3.08537e+67  -3.73881e+64
   3.78939e+59  -3.81565e+62   1.79882e+61   1.17732e+68  2.62736e+135  1.09028e+202   1.05988e+68    1.3289e+67   3.13613e+67   7.30819e+67   9.93822e+66   3.08777e+67   5.59674e+65
   1.88224e+50  -3.36568e+62   1.68183e+61   1.18333e+68  2.76123e+135  1.26141e+202   1.06025e+68    1.3645e+67   3.14529e+67   7.32347e+67  -9.88557e+66  -2.95425e+67    4.3702e+65
   2.37247e+50  -3.36676e+62  -2.71841e+61  -1.55047e+68  4.30243e+135 -2.15746e+202   1.40489e+68  -1.23363e+67  -3.16347e+67  -1.11076e+68  -9.88609e+66  -2.95664e+67    2.2541e+65
  -6.50212e+59  -3.36128e+62  -2.71966e+61  -1.55067e+68  4.29253e+135  -2.1528e+202   1.40546e+68  -1.23408e+67  -3.16404e+67  -1.11086e+68   9.90498e+66  -2.97574e+67  -3.55782e+64
   3.78924e+59   -3.3602e+62   1.67941e+61   1.18283e+68  2.74598e+135  1.18103e+202   1.06042e+68   1.36336e+67   3.14404e+67   7.32093e+67   9.90551e+66  -2.97334e+67   5.51162e+65
   1.41169e+60  -3.82397e+62   6.51363e+61    2.7126e+68  8.81389e+135  4.20091e+202   2.54496e+68    1.0944e+67   3.06344e+67   2.29682e+68  -9.91197e+66   3.10778e+67   2.66475e+66
   3.78939e+59  -3.81565e+62   1.79882e+61   2.60528e+65 -2.74022e+135  2.83776e+202   5.23478e+67  -1.37789e+67   -3.1904e+67   4.59435e+67  -9.90186e+66   3.13186e+67   1.44541e+66
   7.56761e+59   -3.7994e+62   1.79156e+61   1.89243e+65 -2.69097e+135  2.95435e+202   5.18749e+67  -1.37954e+67  -3.18993e+67   4.58839e+67   9.95223e+66   3.05434e+67   1.56088e+66
   2.82193e+60  -3.80771e+62   6.50179e+61   2.71006e+68  8.82708e+135  4.53586e+202   2.54199e+68   1.08853e+67   3.05968e+67   2.29523e+68   9.94212e+66   3.03029e+67   3.15826e+66
   1.40824e+60  -3.36839e+62   6.07903e+61   2.75839e+68  9.84515e+135  6.34637e+202   2.57375e+68   1.29261e+67   3.21731e+67    2.3074e+68  -9.87941e+66  -2.95378e+67   2.61034e+66
   3.78924e+59   -3.3602e+62   1.67941e+61   2.53296e+66 -2.59653e+135  2.62695e+202   5.10191e+67   -1.3038e+67  -3.08976e+67   4.64686e+67  -9.86961e+66   -2.9297e+67   1.42337e+66
   7.56738e+59  -3.34375e+62   1.67214e+61   2.46278e+66 -2.64068e+135  2.50995e+202   5.14465e+67  -1.30542e+67  -3.08929e+67   4.64099e+67   9.92157e+66  -3.00596e+67   1.53704e+66
    2.8152e+60  -3.35193e+62   6.06726e+61   2.75588e+68  9.76488e+135  5.87188e+202   2.57263e+68   1.28682e+67   3.21361e+67   2.30584e+68   9.91178e+66  -3.03001e+67   3.09613e+66
   3.78939e+59  -3.81565e+62   1.79882e+61   1.17769e+68  2.61067e+135  9.45134e+201   1.06108e+68   1.33384e+67   3.13698e+67   7.30609e+67  -9.90551e+66   3.12085e+67   1.44541e+66
  -6.53624e+59  -3.81674e+62  -2.91542e+61  -1.53235e+68    3.995e+135 -1.75036e+202   1.39592e+68  -1.13933e+67  -3.11695e+67  -1.10672e+68  -9.90477e+66   3.11844e+67   2.26663e+65
    -1.308e+60  -3.80049e+62  -2.91811e+61  -1.53186e+68  4.03779e+135 -1.77912e+202   1.39385e+68  -1.13821e+67  -3.11567e+67  -1.10647e+68   9.94517e+66   3.04094e+67   -3.5685e+64
   7.56761e+59   -3.7994e+62   1.79156e+61   1.17634e+68  2.64817e+135  1.17645e+202   1.05781e+68   1.33072e+67   3.13402e+67   7.29865e+67   9.94442e+66   3.04336e+67   1.56088e+66
   3.78924e+59   -3.3602e+62   1.67941e+61   1.18319e+68  2.76921e+135  1.32905e+202   1.05972e+68   1.36818e+67   3.14486e+67   7.31884e+67  -9.87309e+66  -2.94038e+67   1.42337e+66
  -6.50212e+59  -3.36128e+62  -2.71966e+61   -1.5499e+68  4.30286e+135 -2.15612e+202   1.40424e+68  -1.22903e+67  -3.16226e+67  -1.11077e+68  -9.87254e+66  -2.94278e+67   2.37034e+65
  -1.30133e+60  -3.34483e+62  -2.72242e+61  -1.54943e+68  4.25258e+135 -2.09857e+202   1.40552e+68  -1.22796e+67  -3.16107e+67  -1.11053e+68   9.91463e+66  -3.01902e+67   -2.1215e+64
   7.56738e+59  -3.34375e+62   1.67214e+61   1.18185e+68  2.71352e+135  1.07564e+202   1.06085e+68   1.36508e+67   3.14188e+67   7.31149e+67   9.91409e+66  -3.01659e+67   1.53704e+66
   2.82193e+60  -3.80771e+62   6.50179e+61   2.71211e+68  8.84553e+135  4.01207e+202   2.54381e+68   1.12272e+67   3.06442e+67   2.29339e+68  -9.92702e+66   3.09652e+67   6.62474e+66
   7.56761e+59   -3.7994e+62   1.79156e+61   2.58935e+65 -2.73056e+135  2.75476e+202   5.22554e+67   -1.3699e+67  -3.18832e+67   4.58411e+67  -9.90243e+66   3.12052e+67   2.44173e+66
   1.13239e+60  -3.77231e+62   1.77948e+61    1.8976e+65 -2.52271e+135  2.77424e+202    5.0227e+67   -1.3715e+67  -3.18475e+67   4.57523e+67   9.83912e+66   2.77772e+67   2.55632e+66
   4.22412e+60  -3.78061e+62     6.471e+61   2.70544e+68  8.95996e+135  4.92754e+202   2.53445e+68   1.10734e+67    3.0542e+67   2.28929e+68   9.81453e+66   2.75378e+67   7.11137e+66
    2.8152e+60  -3.35193e+62   6.06726e+61   2.75768e+68  9.85882e+135  6.60985e+202   2.57272e+68   1.31912e+67   3.21775e+67   2.30399e+68  -9.89518e+66  -2.96399e+67   6.48921e+66
   7.56738e+59  -3.34375e+62   1.67214e+61   2.53009e+66 -2.60003e+135  2.68127e+202   5.10532e+67  -1.29601e+67  -3.08774e+67   4.63675e+67  -9.87122e+66  -2.93998e+67   2.40396e+66
   1.13237e+60  -3.31632e+62   1.66006e+61   2.46297e+66 -2.80585e+135  2.65972e+202   5.30275e+67  -1.29756e+67  -3.08417e+67   4.62803e+67   9.81164e+66  -3.27958e+67   2.51676e+66
   4.21434e+60  -3.32448e+62   6.03665e+61   2.75113e+68  9.55942e+135  5.38772e+202   2.57153e+68   1.30401e+67   3.20774e+67   2.29995e+68   9.78767e+66  -3.30352e+67   6.96823e+66
   7.56761e+59   -3.7994e+62   1.79156e+61   1.17704e+68  2.61413e+135  8.84108e+201   1.06019e+68   1.34036e+67   3.13563e+67   7.29438e+67  -9.91024e+66   3.10955e+67   2.44173e+66
    -1.308e+60  -3.80049e+62  -2.91811e+61  -1.53244e+68  4.01261e+135 -1.65594e+202   1.39539e+68  -1.15272e+67  -3.11701e+67  -1.10547e+68  -9.91393e+66   3.10714e+67  -1.74051e+66
  -1.95878e+60   -3.7734e+62  -2.91147e+61  -1.52909e+68   4.1872e+135 -2.08572e+202   1.38542e+68  -1.14498e+67  -3.11005e+67  -1.10358e+68   9.82472e+66   2.76435e+67  -1.99783e+66
   1.13239e+60  -3.77231e+62   1.77948e+61   1.17441e+68  2.79845e+135  1.43351e+202   1.04852e+68   1.33431e+67    3.1288e+67   7.28103e+67   9.82841e+66   2.76678e+67   2.55632e+66
   7.56738e+59  -3.34375e+62   1.67214e+61   1.18252e+68  2.75945e+135  1.36941e+202   1.05944e+68   1.37449e+67   3.14343e+67   7.30726e+67   -9.8787e+66  -2.95062e+67   2.40396e+66
  -1.30133e+60  -3.34483e+62  -2.72242e+61  -1.54981e+68  4.30504e+135 -2.27715e+202   1.40407e+68  -1.24105e+67  -3.16194e+67  -1.10951e+68  -9.88257e+66  -2.95303e+67  -1.68047e+66
  -1.94906e+60  -3.31739e+62  -2.71597e+61  -1.54653e+68  4.06649e+135 -1.77381e+202   1.40894e+68  -1.23348e+67  -3.15519e+67  -1.10766e+68   9.79746e+66   -3.2926e+67  -1.93377e+66
   1.13237e+60  -3.31632e+62   1.66006e+61   1.17992e+68  2.53037e+135  7.66598e+201   1.06732e+68   1.36849e+67   3.13661e+67   7.29407e+67   9.80133e+66  -3.29017e+67   2.51676e+66
    1.7437e+50  -4.31666e+62   6.95891e+61   2.75405e+68  9.04797e+135  4.46861e+202   2.58457e+68   1.08912e+67    3.1084e+67    2.3343e+68  -9.95431e+66   3.14529e+67   6.72335e+65
   2.33715e+50  -4.30822e+62   1.92256e+61   2.84398e+65 -2.81955e+135  3.04628e+202   5.31002e+67  -1.40386e+67  -3.24053e+67   4.67283e+67  -9.95017e+66   3.17021e+67   4.50755e+65
    3.7895e+59  -4.30287e+62   1.92014e+61   2.64149e+65 -2.80678e+135  3.09152e+202   5.29797e+67  -1.40433e+67  -3.24014e+67   4.67089e+67   9.97327e+66   3.15061e+67     5.685e+65
   1.41497e+60  -4.31131e+62   6.95529e+61   2.75347e+68  9.05267e+135  4.57695e+202   2.58386e+68   1.08779e+67   3.10792e+67    2.3339e+68   9.96914e+66    3.1257e+67   1.17421e+66
   1.56436e+50  -3.82938e+62   6.51723e+61   2.80131e+68  1.01113e+136  6.46621e+202   2.61462e+68   1.29378e+67    3.2673e+67    2.3452e+68   -9.9228e+66  -3.01531e+67   6.59801e+65
   2.10631e+50  -3.82107e+62   1.80124e+61   2.63281e+66 -2.68656e+135  2.71657e+202   5.18988e+67  -1.32724e+67  -3.13651e+67   4.72703e+67  -9.91877e+66  -2.99039e+67   4.43719e+65
   3.78939e+59  -3.81565e+62   1.79882e+61   2.61308e+66 -2.69789e+135  2.67067e+202   5.20069e+67  -1.32769e+67  -3.13611e+67   4.72512e+67   9.94187e+66  -3.00984e+67   5.59595e+65
   1.41169e+60  -3.82397e+62   6.51363e+61   2.80075e+68  1.00919e+136  6.32053e+202   2.61438e+68   1.29248e+67   3.26684e+67   2.34481e+68   9.93784e+66  -3.03474e+67   1.15371e+66
   2.33715e+50  -4.30822e+62   1.92256e+61   1.19606e+68  2.70009e+135  1.08099e+202   1.07729e+68   1.34972e+67    3.1845e+67   7.42641e+67  -9.95017e+66   3.15883e+67   4.50755e+65
   2.92822e+50  -4.30932e+62  -3.11319e+61  -1.55515e+68  4.11074e+135  -1.8315e+202   1.41683e+68  -1.14401e+67  -3.16446e+67   -1.1243e+68  -9.95057e+66   3.15631e+67   2.29275e+65
  -6.56871e+59  -4.30398e+62  -3.11442e+61  -1.55528e+68  4.12394e+135 -1.83096e+202   1.41651e+68  -1.14432e+67  -3.16484e+67  -1.12436e+68   9.96906e+66   3.13672e+67  -3.68939e+64
    3.7895e+59  -4.30287e+62   1.92014e+61   1.19556e+68  2.70839e+135  1.15459e+202   1.07634e+68   1.34855e+67   3.18324e+67   7.42377e+67   9.96946e+66   3.13923e+67     5.685e+65
   2.10631e+50  -3.82107e+62   1.80124e+61   1.20172e+68  2.84838e+135  1.33597e+202    1.0767e+68    1.3852e+67   3.19252e+67   7.43947e+67  -9.91877e+66  -3.00142e+67   4.43719e+65
   2.64443e+50  -3.82216e+62  -2.91418e+61  -1.57326e+68  4.41551e+135 -2.24109e+202   1.42604e+68   -1.2365e+67  -3.21127e+67  -1.12848e+68  -9.91922e+66  -3.00393e+67   2.27745e+65
  -6.53624e+59  -3.81674e+62  -2.91542e+61  -1.57339e+68   4.4047e+135  -2.2357e+202   1.42657e+68  -1.23681e+67  -3.21167e+67  -1.12854e+68   9.93777e+66  -3.02337e+67  -3.41991e+64
   3.78939e+59  -3.81565e+62   1.79882e+61   1.20122e+68  2.83264e+135  1.25261e+202   1.07687e+68   1.38404e+67   3.19127e+67   7.43685e+67   9.93821e+66  -3.02085e+67   5.59595e+65
   1.41497e+60  -4.31131e+62   6.95529e+61   2.75371e+68   9.0427e+135   4.3441e+202    2.5843e+68   1.09421e+67   3.10847e+67   2.33344e+68  -9.94297e+66   3.15889e+67   2.72042e+66
    3.7895e+59  -4.30287e+62   1.92014e+61   3.02402e+65 -2.82682e+135  2.98804e+202   5.31687e+67  -1.39927e+67  -3.23926e+67   4.66877e+67  -9.93252e+66   3.18378e+67   1.46838e+66
   7.56777e+59  -4.28683e+62   1.91288e+61   2.27996e+65 -2.77517e+135   3.1072e+202   5.26804e+67  -1.40098e+67  -3.23882e+67    4.6626e+67   9.98212e+66   3.10389e+67   1.58568e+66
   2.82836e+60  -4.29527e+62   6.94337e+61   2.75092e+68  9.05435e+135  4.68921e+202   2.58111e+68   1.08778e+67    3.1042e+67   2.33172e+68   9.97166e+66   3.07903e+67   3.21945e+66
   1.41169e+60  -3.82397e+62   6.51363e+61   2.80085e+68  1.01199e+136  6.60437e+202   2.61395e+68   1.29805e+67   3.26708e+67   2.34433e+68  -9.91198e+66  -3.00166e+67   2.66137e+66
   3.78939e+59  -3.81565e+62   1.79882e+61    2.6501e+66 -2.67706e+135  2.75949e+202   5.18081e+67  -1.32275e+67  -3.13526e+67   4.72302e+67  -9.90187e+66  -2.97676e+67   1.44533e+66
   7.56761e+59   -3.7994e+62   1.79156e+61   2.57679e+66 -2.72308e+135  2.64015e+202   5.22467e+67  -1.32444e+67  -3.13483e+67   4.71695e+67   9.95222e+66  -3.05512e+67   1.56076e+66
   2.82193e+60  -3.80771e+62   6.50179e+61    2.7981e+68  1.00338e+136  6.10712e+202   2.61266e+68   1.29172e+67   3.26287e+67   2.34264e+68    9.9421e+66  -3.07998e+67   3.15248e+66
    3.7895e+59  -4.30287e+62   1.92014e+61   1.19594e+68  2.69145e+135   1.0043e+202   1.07756e+68   1.35361e+67   3.18413e+67   7.42165e+67  -9.93633e+66   3.17241e+67   1.46838e+66
  -6.56871e+59  -4.30398e+62  -3.11442e+61  -1.55478e+68  4.09698e+135 -1.81516e+202   1.41691e+68  -1.14078e+67  -3.16369e+67  -1.12433e+68  -9.93547e+66   3.16989e+67   2.16899e+65
  -1.31438e+60  -4.28793e+62  -3.11702e+61  -1.55412e+68  4.14052e+135 -1.84579e+202   1.41466e+68  -1.13926e+67    -3.162e+67    -1.124e+68   9.97489e+66   3.09002e+67    -4.735e+64
   7.56777e+59  -4.28683e+62   1.91288e+61   1.19455e+68  2.73085e+135  1.24565e+202   1.07418e+68   1.35041e+67    3.1811e+67   7.41399e+67   9.97403e+66   3.09255e+67   1.58568e+66
   3.78939e+59  -3.81565e+62   1.79882e+61   1.20159e+68  2.85644e+135   1.4059e+202   1.07618e+68   1.38899e+67   3.19212e+67   7.43475e+67  -9.90553e+66  -2.98778e+67   1.44533e+66
  -6.53624e+59  -3.81674e+62  -2.91542e+61  -1.57278e+68  4.41718e+135 -2.24252e+202   1.42546e+68  -1.23266e+67  -3.21027e+67  -1.12849e+68  -9.90478e+66   -2.9903e+67   2.29857e+65
    -1.308e+60  -3.80049e+62  -2.91811e+61  -1.57214e+68  4.36333e+135 -2.17971e+202   1.42664e+68  -1.23118e+67  -3.20864e+67  -1.12816e+68   9.94516e+66  -3.06863e+67  -3.01972e+64
   7.56761e+59   -3.7994e+62   1.79156e+61   1.20021e+68  2.79843e+135  1.14225e+202   1.07734e+68   1.38582e+67   3.18911e+67   7.42721e+67   9.94441e+66   -3.0661e+67   1.56076e+66
   2.82836e+60  -4.29527e+62   6.94337e+61   2.75316e+68  9.07711e+135  4.15158e+202   2.58306e+68   1.12349e+67   3.10937e+67   2.32988e+68  -9.95796e+66   3.14546e+67   6.76003e+66
   7.56777e+59  -4.28683e+62   1.91288e+61    2.9963e+65 -2.81553e+135  2.90009e+202   5.30625e+67  -1.39115e+67  -3.23716e+67   4.65828e+67   -9.9327e+66   3.17027e+67   2.48088e+66
   1.13241e+60  -4.26009e+62    1.9008e+61   2.26462e+65  -2.6015e+135   2.9178e+202   5.10054e+67  -1.39284e+67  -3.23363e+67   4.64912e+67   9.86642e+66   2.82294e+67   2.59736e+66
   4.23354e+60  -4.26851e+62   6.91239e+61    2.7463e+68  9.19345e+135  5.09926e+202   2.57348e+68   1.10765e+67   3.09875e+67   2.32566e+68   9.84117e+66    2.7982e+67   7.25341e+66
   2.82193e+60  -3.80771e+62   6.50179e+61   2.80016e+68  1.01352e+136  6.88354e+202   2.61292e+68   1.32592e+67   3.26761e+67    2.3408e+68  -9.92704e+66  -3.01375e+67   6.61897e+66
   7.56761e+59   -3.7994e+62   1.79156e+61   2.64648e+66 -2.68164e+135  2.81712e+202   5.18522e+67   -1.3148e+67  -3.13322e+67   4.71267e+67  -9.90245e+66  -2.98893e+67   2.44161e+66
   1.13239e+60  -3.77231e+62   1.77948e+61   2.57536e+66 -2.89352e+135  2.79778e+202    5.3853e+67  -1.31645e+67   -3.1297e+67   4.70368e+67    9.8391e+66  -3.33296e+67   2.55624e+66
   4.22412e+60  -3.78061e+62     6.471e+61   2.79341e+68  9.82541e+135  5.61232e+202   2.61163e+68   1.31035e+67   3.25721e+67   2.33666e+68   9.81451e+66   -3.3577e+67   7.10452e+66
   7.56777e+59  -4.28683e+62   1.91288e+61   1.19527e+68  2.69628e+135  9.42895e+201   1.07658e+68   1.36024e+67   3.18275e+67   7.40967e+67  -9.94079e+66   3.15893e+67   2.48088e+66
  -1.31438e+60  -4.28793e+62  -3.11702e+61  -1.55485e+68  4.11665e+135 -1.71878e+202    1.4163e+68  -1.15486e+67  -3.16367e+67    -1.123e+68  -9.94444e+66   3.15642e+67  -1.79755e+66
  -1.96815e+60  -4.26119e+62   -3.1102e+61  -1.55139e+68   4.2959e+135 -2.16577e+202   1.40614e+68  -1.14688e+67  -3.15645e+67  -1.12106e+68   9.85172e+66   2.80911e+67  -2.05786e+66
   1.13241e+60  -4.26009e+62    1.9008e+61   1.19259e+68  2.88596e+135  1.51424e+202   1.06475e+68   1.35407e+67   3.17583e+67   7.39603e+67   9.85537e+66   2.81163e+67   2.59736e+66
   7.56761e+59   -3.7994e+62   1.79156e+61   1.20091e+68  2.84542e+135  1.44636e+202   1.07594e+68   1.39546e+67   3.19072e+67   7.42293e+67  -9.91026e+66  -2.99991e+67   2.44161e+66
    -1.308e+60  -3.80049e+62  -2.91811e+61  -1.57273e+68  4.41936e+135 -2.36996e+202   1.42532e+68  -1.24569e+67  -3.20998e+67  -1.12716e+68  -9.91394e+66  -3.00243e+67  -1.73502e+66
  -1.95878e+60   -3.7734e+62  -2.91147e+61  -1.56933e+68  4.17315e+135 -1.84538e+202   1.43021e+68  -1.23786e+67  -3.20292e+67  -1.12525e+68   9.82471e+66  -3.34642e+67   -1.9912e+66
   1.13239e+60  -3.77231e+62   1.77948e+61   1.19827e+68  2.60958e+135  8.19508e+201   1.08393e+68   1.38936e+67   3.18386e+67   7.40949e+67   9.82839e+66   -3.3439e+67   2.55624e+66
    1.9245e+50  -4.83623e+62   7.40787e+61   2.79647e+68  9.28647e+135  4.62373e+202   2.62518e+68   1.08874e+67   3.15477e+67   2.37211e+68  -9.98461e+66   3.19832e+67   6.86089e+65
   2.57725e+50  -4.82766e+62   2.04586e+61   3.24975e+65 -2.91046e+135  3.20965e+202   5.39497e+67  -1.42607e+67  -3.29111e+67   4.74968e+67  -9.98036e+66   3.22408e+67   4.58091e+65
   3.78956e+59  -4.82238e+62   2.04344e+61   3.03761e+65 -2.89716e+135  3.25624e+202   5.38261e+67  -1.42656e+67  -3.29074e+67   4.74767e+67   1.00037e+67   3.20402e+67    5.7767e+65
   1.41812e+60  -4.83095e+62   7.40424e+61   2.79582e+68  9.29064e+135  4.73505e+202   2.62442e+68   1.08725e+67   3.15415e+67   2.37168e+68   9.99941e+66   3.17827e+67   1.19384e+66
    1.7437e+50  -4.31666e+62   6.95891e+61   2.84515e+68  1.03988e+136  6.73487e+202   2.65612e+68   1.29936e+67   3.31863e+67   2.38335e+68  -9.95431e+66  -3.06447e+67   6.72332e+65
   2.33715e+50  -4.30822e+62   1.92256e+61   2.75147e+66   -2.771e+135  2.85654e+202   5.27121e+67  -1.34693e+67   -3.1836e+67   4.80567e+67  -9.95018e+66  -3.03871e+67   4.50754e+65
    3.7895e+59  -4.30287e+62   1.92014e+61   2.73075e+66 -2.78273e+135  2.80935e+202   5.28222e+67   -1.3474e+67  -3.18322e+67    4.8037e+67   9.97327e+66  -3.05854e+67   5.68404e+65
   1.41497e+60  -4.31131e+62   6.95529e+61   2.84452e+68   1.0378e+136  6.58245e+202   2.65584e+68    1.2979e+67   3.31803e+67   2.38292e+68   9.96913e+66  -3.08429e+67   1.17189e+66
   2.57725e+50  -4.82766e+62   2.04586e+61   1.21492e+68  2.78487e+135  1.14721e+202   1.09432e+68   1.37009e+67   3.23325e+67   7.54583e+67  -9.98036e+66   3.21233e+67   4.58091e+65
   3.22882e+50  -4.82877e+62  -3.31554e+61  -1.57831e+68  4.21729e+135 -1.90087e+202   1.43851e+68  -1.14551e+67  -3.21265e+67  -1.14249e+68  -9.98073e+66    3.2097e+67   2.30191e+65
  -6.60008e+59   -4.8235e+62  -3.31675e+61  -1.57839e+68   4.2306e+135 -1.90017e+202   1.43815e+68  -1.14571e+67  -3.21292e+67  -1.14253e+68   9.99934e+66   3.18965e+67  -3.81934e+64
   3.78956e+59  -4.82238e+62   2.04344e+61    1.2144e+68  2.79354e+135  1.22381e+202   1.09335e+68    1.3689e+67   3.23198e+67   7.54312e+67   9.99971e+66   3.19227e+67    5.7767e+65
   2.33715e+50  -4.30822e+62   1.92256e+61   1.22073e+68  2.94005e+135  1.41637e+202    1.0937e+68   1.40666e+67   3.24143e+67   7.55925e+67  -9.95018e+66  -3.05009e+67   4.50754e+65
   2.92822e+50  -4.30932e+62  -3.11319e+61  -1.59689e+68   4.5353e+135 -2.33272e+202   1.44794e+68  -1.24035e+67  -3.26079e+67  -1.14678e+68  -9.95057e+66  -3.05272e+67   2.29277e+65
  -6.56871e+59  -4.30398e+62  -3.11442e+61  -1.59698e+68  4.52367e+135 -2.32648e+202   1.44844e+68  -1.24055e+67  -3.26107e+67  -1.14682e+68   9.96906e+66  -3.07254e+67  -3.47789e+64
    3.7895e+59  -4.30287e+62   1.92014e+61   1.22022e+68  2.92377e+135  1.32979e+202   1.09388e+68   1.40548e+67   3.24017e+67   7.55658e+67   9.96946e+66  -3.06991e+67   5.68404e+65
   1.41812e+60  -4.83095e+62   7.40424e+61   2.79616e+68  9.28265e+135  4.49719e+202   2.62492e+68   1.09435e+67   3.15492e+67   2.37123e+68  -9.97291e+66   3.21156e+67   2.78117e+66
   3.78956e+59  -4.82238e+62   2.04344e+61   3.42996e+65 -2.91759e+135  3.14882e+202   5.40158e+67  -1.42139e+67  -3.28983e+67   4.74553e+67  -9.96209e+66    3.2373e+67   1.49226e+66
   7.56786e+59  -4.80655e+62   2.03618e+61    2.6644e+65 -2.86348e+135  3.27054e+202   5.35121e+67  -1.42316e+67   -3.2894e+67    4.7392e+67   1.00114e+67   3.15501e+67   1.61143e+66
   2.83458e+60  -4.81512e+62   7.39222e+61   2.79318e+68  9.29347e+135  4.85434e+202   2.62155e+68   1.08749e+67   3.15026e+67   2.36941e+68   1.00006e+67   3.12931e+67   3.28664e+66
   1.41497e+60  -4.31131e+62   6.95529e+61   2.84475e+68  1.04096e+136  6.88328e+202    2.6555e+68   1.30432e+67   3.31857e+67   2.38246e+68  -9.94298e+66   -3.0511e+67   2.71809e+66
    3.7895e+59  -4.30287e+62   1.92014e+61     2.769e+66 -2.76148e+135  2.90116e+202   5.26227e+67  -1.34234e+67  -3.18234e+67   4.80158e+67  -9.93253e+66  -3.02536e+67   1.46829e+66
   7.56777e+59  -4.28683e+62   1.91288e+61   2.69352e+66 -2.80953e+135  2.77932e+202   5.30734e+67  -1.34409e+67  -3.18192e+67   4.79536e+67   9.98211e+66  -3.10591e+67   1.58553e+66
   2.82836e+60  -4.29527e+62   6.94337e+61   2.84183e+68  1.03181e+136  6.36237e+202   2.65408e+68   1.29757e+67   3.31398e+67   2.38067e+68   9.97165e+66  -3.13161e+67   3.21541e+66
   3.78956e+59  -4.82238e+62   2.04344e+61   1.21479e+68  2.77634e+135  1.06812e+202   1.09457e+68   1.37406e+67   3.23289e+67   7.54098e+67  -9.96604e+66   3.22555e+67   1.49226e+66
  -6.60008e+59   -4.8235e+62  -3.31675e+61  -1.57797e+68   4.2041e+135 -1.88463e+202    1.4386e+68  -1.14263e+67  -3.21195e+67  -1.14251e+68  -9.96513e+66   3.22292e+67   2.03889e+65
  -1.32057e+60  -4.80766e+62  -3.31925e+61  -1.57718e+68  4.24878e+135   -1.918e+202   1.43619e+68  -1.14081e+67  -3.20995e+67  -1.14211e+68    1.0004e+67   3.14066e+67  -6.30575e+64
   7.56786e+59  -4.80655e+62   2.03618e+61   1.21337e+68  2.81772e+135  1.31997e+202    1.0911e+68   1.37078e+67   3.22979e+67   7.53314e+67   1.00031e+67   3.14329e+67   1.61143e+66
    3.7895e+59  -4.30287e+62   1.92014e+61   1.22061e+68  2.94812e+135  1.48861e+202   1.09319e+68   1.41054e+67   3.24105e+67   7.55447e+67  -9.93634e+66  -3.03674e+67   1.46829e+66
  -6.56871e+59  -4.30398e+62  -3.11442e+61  -1.59648e+68  4.53775e+135 -2.33636e+202    1.4474e+68  -1.23701e+67  -3.25992e+67  -1.14679e+68  -9.93548e+66  -3.03936e+67   2.19017e+65
  -1.31438e+60  -4.28793e+62  -3.11702e+61  -1.59571e+68  4.48052e+135 -2.26777e+202   1.44853e+68  -1.23523e+67  -3.25796e+67  -1.14639e+68   9.97488e+66  -3.11988e+67  -4.36234e+64
   7.56777e+59  -4.28683e+62   1.91288e+61   1.21921e+68  2.88766e+135  1.21394e+202   1.09439e+68   1.40731e+67     3.238e+67   7.54675e+67   9.97402e+66  -3.11724e+67   1.58553e+66
   2.83458e+60  -4.81512e+62   7.39222e+61   2.79557e+68  9.31976e+135  4.29996e+202   2.62359e+68   1.12449e+67   3.15577e+67   2.36755e+68  -9.98823e+66   3.19594e+67   6.90252e+66
   7.56786e+59  -4.80655e+62   2.03618e+61   3.39674e+65 -2.90463e+135  3.05558e+202   5.38957e+67  -1.41314e+67  -3.28771e+67   4.73482e+67  -9.96226e+66   3.22159e+67   2.52141e+66
   1.13242e+60  -4.78016e+62    2.0241e+61   2.63776e+65 -2.68431e+135  3.07139e+202    5.1811e+67  -1.41489e+67  -3.28418e+67   4.72545e+67   9.89352e+66   2.86988e+67   2.63982e+66
   4.24271e+60  -4.78871e+62   7.36105e+61   2.78853e+68  9.43824e+135   5.2819e+202   2.61382e+68   1.10824e+67   3.14481e+67   2.36323e+68   9.86754e+66    2.8443e+67   7.40307e+66
   2.82836e+60  -4.29527e+62   6.94337e+61   2.84407e+68  1.04255e+136  7.17655e+202   2.65446e+68   1.33328e+67   3.31915e+67   2.37882e+68  -9.95797e+66  -3.06517e+67   6.75599e+66
   7.56777e+59  -4.28683e+62   1.91288e+61   2.76516e+66 -2.76728e+135  2.96233e+202   5.26775e+67  -1.33425e+67  -3.18027e+67   4.79103e+67  -9.93271e+66  -3.03952e+67   2.48074e+66
   1.13241e+60  -4.26009e+62    1.9008e+61   2.69125e+66 -2.98534e+135  2.94506e+202   5.47045e+67  -1.33596e+67  -3.17675e+67   4.78184e+67   9.86641e+66  -3.38784e+67   2.59723e+66
   4.23354e+60  -4.26851e+62   6.91239e+61   2.83715e+68  1.01054e+136  5.85348e+202   2.65309e+68   1.31731e+67    3.3084e+67   2.37458e+68   9.84116e+66  -3.41341e+67   7.24846e+66
   7.56786e+59  -4.80655e+62   2.03618e+61    1.2141e+68  2.78258e+135  1.00628e+202   1.09352e+68    1.3808e+67   3.23148e+67   7.52876e+67   -9.9706e+66   3.20987e+67   2.52141e+66
  -1.32057e+60  -4.80766e+62  -3.31925e+61  -1.57802e+68  4.22581e+135 -1.78588e+202    1.4379e+68  -1.15731e+67  -3.21188e+67   -1.1411e+68  -9.97432e+66   3.20726e+67    -1.859e+66
  -1.97729e+60  -4.78127e+62  -3.31224e+61  -1.57446e+68  4.40981e+135 -2.25111e+202   1.42756e+68  -1.14909e+67  -3.20442e+67  -1.13911e+68   9.87843e+66   2.85558e+67  -2.12262e+66
   1.13242e+60  -4.78016e+62    2.0241e+61   1.21138e+68  2.97771e+135  1.60053e+202   1.08152e+68   1.37452e+67   3.22445e+67   7.51486e+67   9.88215e+66    2.8582e+67   2.63982e+66
   7.56777e+59  -4.28683e+62   1.91288e+61   1.21992e+68  2.93571e+135  1.52891e+202     1.093e+68   1.41714e+67   3.23965e+67   7.54243e+67   -9.9408e+66  -3.05086e+67   2.48074e+66
  -1.31438e+60  -4.28793e+62  -3.11702e+61  -1.59644e+68  4.53948e+135 -2.46955e+202   1.44729e+68  -1.25083e+67  -3.25964e+67  -1.14539e+68  -9.94445e+66  -3.05348e+67  -1.79382e+66
  -1.96815e+60  -4.26119e+62   -3.1102e+61  -1.59294e+68  4.28551e+135 -1.92234e+202    1.4522e+68  -1.24275e+67  -3.25232e+67  -1.14343e+68   9.85171e+66  -3.40175e+67  -2.05319e+66
   1.13241e+60  -4.26009e+62    1.9008e+61   1.21724e+68  2.69293e+135  8.76703e+201   1.10108e+68   1.41096e+67   3.23271e+67   7.52875e+67   9.85536e+66  -3.39914e+67   2.59723e+66
   2.11135e+50  -5.38863e+62   7.86435e+61    2.8403e+68  9.53684e+135  4.78976e+202   2.66714e+68   1.08869e+67   3.20266e+67   2.41117e+68  -1.00141e+67   3.25305e+67   7.00927e+65
   2.82641e+50  -5.37992e+62    2.1712e+61   3.64678e+65 -3.00586e+135  3.38453e+202    5.4827e+67  -1.44905e+67  -3.34347e+67   4.82899e+67  -1.00097e+67   3.27969e+67   4.65707e+65
   3.78958e+59  -5.37471e+62   2.16877e+61   3.42749e+65   -2.992e+135   3.4325e+202   5.47002e+67  -1.44956e+67   -3.3431e+67   4.82693e+67   1.00333e+67   3.25915e+67   5.87207e+65
    1.4212e+60  -5.38342e+62   7.86071e+61   2.83961e+68  9.54065e+135  4.90458e+202   2.66633e+68   1.08708e+67   3.20193e+67   2.41071e+68    1.0029e+67   3.23252e+67   1.21547e+66
    1.9245e+50  -4.83623e+62   7.40787e+61   2.89052e+68  1.07023e+136  7.02562e+202   2.69905e+68   1.30579e+67   3.37181e+67   2.42276e+68  -9.98461e+66  -3.11523e+67   6.86086e+65
   2.57725e+50  -4.82766e+62   2.04586e+61   2.87291e+66 -2.85957e+135  3.00616e+202   5.35521e+67  -1.36727e+67  -3.23231e+67   4.88687e+67  -9.98036e+66   -3.0886e+67    4.5809e+65
   3.78956e+59  -4.82238e+62   2.04344e+61   2.85147e+66 -2.87173e+135   2.9576e+202   5.36644e+67  -1.36776e+67  -3.23195e+67   4.88485e+67   1.00037e+67  -3.10884e+67   5.77599e+65
   1.41812e+60  -4.83095e+62   7.40424e+61   2.88983e+68  1.06801e+136  6.86614e+202   2.69872e+68   1.30421e+67   3.37109e+67    2.4223e+68   9.99941e+66  -3.13547e+67   1.19219e+66
   2.82641e+50  -5.37992e+62    2.1712e+61    1.2344e+68  2.87395e+135  1.21849e+202   1.11192e+68   1.39116e+67   3.28368e+67    7.6692e+67  -1.00097e+67   3.26753e+67   4.65707e+65
   3.53753e+50  -5.38105e+62  -3.52133e+61  -1.60226e+68  4.32929e+135  -1.9754e+202   1.46093e+68  -1.14742e+67  -3.26247e+67  -1.16127e+68  -1.00101e+67    3.2648e+67   2.30587e+65
  -6.63067e+59  -5.37584e+62  -3.52253e+61  -1.60231e+68  4.34282e+135 -1.97472e+202   1.46052e+68  -1.14754e+67  -3.26266e+67  -1.16129e+68   1.00289e+67   3.24427e+67  -4.07449e+64
   3.78958e+59  -5.37471e+62   2.16877e+61   1.23388e+68  2.88302e+135  1.29825e+202   1.11092e+68   1.38994e+67    3.2824e+67   7.66643e+67   1.00292e+67     3.247e+67   5.87207e+65
   2.57725e+50  -4.82766e+62   2.04586e+61    1.2404e+68  3.03647e+135  1.50297e+202   1.11128e+68   1.42889e+67   3.29205e+67   7.68303e+67  -9.98036e+66  -3.10036e+67    4.5809e+65
   3.22882e+50  -4.82877e+62  -3.31554e+61  -1.62139e+68  4.66177e+135 -2.43206e+202   1.47062e+68  -1.24493e+67  -3.31206e+67  -1.16569e+68  -9.98073e+66  -3.10309e+67   2.30192e+65
  -6.60008e+59   -4.8235e+62  -3.31675e+61  -1.62144e+68  4.64936e+135 -2.42485e+202   1.47109e+68  -1.24504e+67  -3.31225e+67  -1.16571e+68   9.99934e+66  -3.12333e+67  -3.66916e+64
   3.78956e+59  -4.82238e+62   2.04344e+61   1.23988e+68  3.01961e+135  1.41294e+202   1.11146e+68   1.42769e+67   3.29078e+67    7.6803e+67    9.9997e+66  -3.12059e+67   5.77599e+65
    1.4212e+60  -5.38342e+62   7.86071e+61   2.84002e+68  9.53427e+135  4.66035e+202   2.66689e+68   1.09475e+67   3.20288e+67   2.41026e+68  -1.00021e+67   3.26591e+67    2.8463e+66
   3.78958e+59  -5.37471e+62   2.16877e+61   3.82789e+65 -3.01284e+135  3.32097e+202   5.48906e+67   -1.4443e+67  -3.34218e+67   4.82476e+67  -9.99086e+66   3.29252e+67   1.51703e+66
    7.5679e+59  -5.35909e+62   2.16151e+61   3.04715e+65 -2.95616e+135  3.44523e+202   5.43714e+67   -1.4461e+67  -3.34173e+67   4.81831e+67   1.00403e+67   3.20779e+67   1.63815e+66
   2.84065e+60   -5.3678e+62   7.84858e+61   2.83689e+68  9.54472e+135  5.03106e+202   2.66336e+68   1.08753e+67   3.19791e+67   2.40835e+68   1.00291e+67   3.18122e+67   3.35888e+66
   1.41812e+60  -4.83095e+62   7.40424e+61   2.89017e+68  1.07145e+136  7.18354e+202   2.69845e+68    1.3113e+67   3.37187e+67   2.42185e+68  -9.97292e+66  -3.10218e+67   2.77951e+66
   3.78956e+59  -4.82238e+62   2.04344e+61    2.8907e+66 -2.85006e+135  3.05262e+202   5.34642e+67   -1.3626e+67  -3.23104e+67   4.88271e+67  -9.96209e+66  -3.07557e+67   1.49219e+66
   7.56786e+59  -4.80655e+62   2.03618e+61   2.81367e+66 -2.90027e+135  2.92815e+202   5.39277e+67  -1.36438e+67  -3.23062e+67   4.87636e+67   1.00114e+67  -3.15839e+67   1.61132e+66
   2.83458e+60  -4.81512e+62   7.39222e+61   2.88709e+68   1.0618e+136  6.63779e+202   2.69694e+68   1.30419e+67   3.36696e+67   2.41997e+68   1.00006e+67  -3.18497e+67   3.28369e+66
   3.78958e+59  -5.37471e+62   2.16877e+61   1.23428e+68  2.86554e+135  1.13687e+202   1.11215e+68    1.3952e+67   3.28332e+67   7.66426e+67  -9.99495e+66   3.28038e+67   1.51703e+66
  -6.63067e+59  -5.37584e+62  -3.52253e+61  -1.60195e+68  4.31659e+135 -1.95894e+202   1.46102e+68  -1.14483e+67  -3.26182e+67  -1.16129e+68  -9.99403e+66   3.27764e+67   1.88303e+65
  -1.32662e+60  -5.36023e+62  -3.52492e+61  -1.60105e+68  4.36265e+135 -1.99572e+202   1.45846e+68  -1.14276e+67  -3.25957e+67  -1.16082e+68   1.00326e+67   3.19294e+67   -8.1857e+64
    7.5679e+59  -5.35909e+62   2.16151e+61   1.23283e+68  2.90901e+135   1.3998e+202   1.10859e+68   1.39185e+67   3.28016e+67   7.65626e+67   1.00317e+67   3.19568e+67   1.63815e+66
   3.78956e+59  -4.82238e+62   2.04344e+61   1.24027e+68  3.04452e+135  1.57756e+202   1.11077e+68   1.43285e+67   3.29168e+67   7.67816e+67  -9.96605e+66  -3.08732e+67   1.49219e+66
  -6.60008e+59   -4.8235e+62  -3.31675e+61  -1.62101e+68  4.66473e+135 -2.43764e+202   1.47011e+68  -1.24196e+67  -3.31128e+67  -1.16569e+68  -9.96514e+66  -3.09005e+67   2.05394e+65
  -1.32057e+60  -4.80766e+62  -3.31925e+61  -1.62013e+68  4.60414e+135  -2.3627e+202   1.47119e+68  -1.23993e+67  -3.30906e+67  -1.16523e+68    1.0004e+67  -3.17284e+67   -6.0337e+64
   7.56786e+59  -4.80655e+62   2.03618e+61   1.23884e+68  2.98146e+135  1.29109e+202   1.11202e+68   1.42956e+67   3.28858e+67    7.6703e+67   1.00031e+67  -3.17011e+67   1.61132e+66
   2.84065e+60   -5.3678e+62   7.84858e+61    2.8394e+68   9.5741e+135   4.4577e+202   2.66548e+68   1.12569e+67    3.2037e+67   2.40646e+68   -1.0018e+67   3.24804e+67   7.05167e+66
    7.5679e+59  -5.35909e+62   2.16151e+61   3.79344e+65 -2.99813e+135  3.22205e+202   5.47565e+67   -1.4359e+67  -3.34001e+67   4.81385e+67  -9.99127e+66   3.27456e+67   2.56335e+66
   1.13242e+60  -5.33306e+62   2.14944e+61   3.01354e+65 -2.77138e+135   3.2358e+202   5.26447e+67   -1.4377e+67  -3.33646e+67    4.8043e+67   9.92036e+66   2.91854e+67   2.68373e+66
   4.25168e+60  -5.34175e+62   7.81722e+61   2.83219e+68  9.69489e+135  5.47587e+202   2.65552e+68   1.10905e+67   3.19241e+67   2.40204e+68   9.89361e+66    2.8921e+67   7.55973e+66
   2.83458e+60  -4.81512e+62   7.39222e+61   2.88947e+68  1.07307e+136   7.4901e+202   2.69741e+68    1.3412e+67   3.37247e+67   2.41811e+68  -9.98824e+66  -3.11834e+67   6.89957e+66
   7.56786e+59  -4.80655e+62   2.03618e+61    2.8869e+66 -2.85719e+135  3.11756e+202   5.35306e+67  -1.35436e+67  -3.22893e+67   4.87197e+67  -9.96227e+66  -3.09181e+67    2.5213e+66
   1.13242e+60  -4.78016e+62    2.0241e+61   2.81084e+66 -3.08162e+135  3.10235e+202   5.55834e+67  -1.35611e+67   -3.2254e+67    4.8626e+67   9.89351e+66  -3.44436e+67   2.63971e+66
   4.24271e+60  -4.78871e+62   7.36105e+61   2.88239e+68     1.04e+136  6.11218e+202   2.69595e+68   1.32484e+67    3.3614e+67   2.41376e+68   9.86753e+66  -3.47081e+67   7.39931e+66
    7.5679e+59  -5.35909e+62   2.16151e+61   1.23357e+68  2.87326e+135  1.07461e+202   1.11103e+68   1.40205e+67   3.28188e+67   7.65181e+67  -9.99986e+66   3.26245e+67   2.56335e+66
  -1.32662e+60  -5.36023e+62  -3.52492e+61  -1.60198e+68  4.34037e+135 -1.85749e+202   1.46024e+68  -1.16004e+67   -3.2617e+67  -1.15981e+68  -1.00037e+67   3.25973e+67  -1.92425e+66
  -1.98624e+60  -5.33419e+62  -3.51772e+61  -1.59832e+68  4.52925e+135 -2.34204e+202   1.44972e+68  -1.15159e+67  -3.25402e+67  -1.15776e+68   9.90484e+66   2.90376e+67  -2.19144e+66
   1.13242e+60  -5.33306e+62   2.14944e+61   1.23081e+68  3.07399e+135  1.69285e+202   1.09886e+68   1.39566e+67   3.27473e+67   7.63767e+67   9.90867e+66   2.90647e+67   2.68373e+66
   7.56786e+59  -4.80655e+62   2.03618e+61   1.23958e+68  3.03056e+135  1.61748e+202   1.11063e+68   1.43958e+67   3.29027e+67   7.66591e+67  -9.97061e+66  -3.10353e+67    2.5213e+66
  -1.32057e+60  -4.80766e+62  -3.31925e+61  -1.62097e+68  4.66568e+135 -2.57624e+202   1.47002e+68  -1.25642e+67  -3.31099e+67  -1.16423e+68  -9.97433e+66  -3.10625e+67  -1.85628e+66
  -1.97729e+60  -4.78127e+62  -3.31224e+61  -1.61736e+68  4.40377e+135 -2.00496e+202   1.47495e+68   -1.2481e+67  -3.30343e+67  -1.16221e+68   9.87842e+66  -3.45875e+67  -2.11909e+66
   1.13242e+60  -4.78016e+62    2.0241e+61   1.23685e+68  2.78063e+135  9.38497e+201   1.11881e+68    1.4333e+67   3.28323e+67   7.65201e+67   9.88214e+66  -3.45604e+67   2.63971e+66
   2.30196e+50  -5.97442e+62   8.32861e+61   2.88563e+68  9.79963e+135  4.96687e+202   2.71052e+68    1.0889e+67   3.25215e+67   2.45153e+68  -1.00429e+67   3.30958e+67   7.16788e+65
   3.08125e+50  -5.96556e+62   2.29864e+61   4.03811e+65 -3.10609e+135  3.57195e+202   5.57338e+67  -1.47285e+67  -3.39768e+67   4.91091e+67  -1.00384e+67   3.33714e+67   4.73596e+65
   3.78959e+59  -5.96043e+62   2.29621e+61   3.81315e+65 -3.09163e+135  3.62131e+202   5.56038e+67  -1.47337e+67  -3.39731e+67   4.90881e+67   1.00624e+67   3.31609e+67   5.97115e+65
    1.4242e+60  -5.96928e+62   8.32495e+61   2.88489e+68  9.80317e+135   5.0856e+202   2.70966e+68   1.08719e+67   3.25132e+67   2.45104e+68   1.00579e+67   3.28855e+67    1.2388e+66
   2.11135e+50  -5.38863e+62   7.86435e+61   2.93747e+68  1.10223e+136  7.33895e+202   2.74345e+68   1.31294e+67    3.4269e+67   2.46349e+68  -1.00141e+67  -3.16768e+67   7.00925e+65
   2.82641e+50  -5.37992e+62    2.1712e+61   2.99788e+66 -2.95256e+135  3.16619e+202   5.44201e+67  -1.38828e+67   -3.2827e+67   4.97077e+67  -1.00097e+67  -3.14013e+67   4.65706e+65
   3.78958e+59  -5.37471e+62   2.16877e+61   2.97586e+66  -2.9652e+135  3.11619e+202   5.45349e+67  -1.38879e+67  -3.28234e+67   4.96871e+67   1.00333e+67  -3.16083e+67   5.87167e+65
    1.4212e+60  -5.38342e+62   7.86071e+61   2.93674e+68  1.09988e+136  7.17204e+202    2.7431e+68   1.31126e+67   3.42609e+67   2.46301e+68    1.0029e+67  -3.18837e+67   1.21424e+66
   3.08125e+50  -5.96556e+62   2.29864e+61   1.25455e+68  2.96759e+135  1.29519e+202   1.13011e+68   1.41296e+67   3.33586e+67   7.79672e+67  -1.00384e+67   3.32457e+67   4.73596e+65
   3.85825e+50  -5.96671e+62  -3.73069e+61  -1.62705e+68  4.44697e+135 -2.05523e+202   1.48411e+68  -1.14968e+67  -3.31399e+67  -1.18068e+68  -1.00388e+67   3.32173e+67   2.30509e+65
  -6.66065e+59  -5.96157e+62  -3.73187e+61  -1.62707e+68  4.46078e+135 -2.05472e+202   1.48367e+68  -1.14972e+67   -3.3141e+67  -1.18069e+68   1.00579e+67   3.30069e+67  -4.42502e+64
   3.78959e+59  -5.96043e+62   2.29621e+61   1.25402e+68  2.97709e+135   1.3783e+202   1.12909e+68   1.41172e+67   3.33456e+67    7.7939e+67   1.00582e+67   3.30353e+67   5.97115e+65
   2.82641e+50  -5.37992e+62    2.1712e+61   1.26074e+68  3.13793e+135  1.59622e+202   1.12945e+68   1.45193e+67   3.34445e+67   7.81098e+67  -1.00097e+67  -3.15228e+67   4.65706e+65
   3.53753e+50  -5.38105e+62  -3.52133e+61  -1.64676e+68  4.79508e+135 -2.53919e+202   1.49409e+68   -1.2501e+67  -3.36515e+67  -1.18523e+68  -1.00101e+67  -3.15512e+67   2.30588e+65
  -6.63067e+59  -5.37584e+62  -3.52253e+61  -1.64677e+68  4.78188e+135 -2.53087e+202   1.49455e+68  -1.25014e+67  -3.36526e+67  -1.18523e+68   1.00289e+67  -3.17581e+67  -3.95915e+64
   3.78958e+59  -5.37471e+62   2.16877e+61   1.26021e+68  3.12045e+135   1.5025e+202   1.12964e+68   1.45071e+67   3.34316e+67   7.80821e+67   1.00292e+67  -3.17297e+67   5.87167e+65
    1.4242e+60  -5.96928e+62   8.32495e+61   2.88537e+68  9.79821e+135  4.83402e+202   2.71026e+68   1.09536e+67   3.25243e+67   2.45059e+68  -1.00307e+67   3.32203e+67   2.91547e+66
   3.78959e+59  -5.96043e+62   2.29621e+61   4.22069e+65 -3.11288e+135  3.50547e+202   5.57948e+67  -1.46802e+67  -3.39637e+67    4.9066e+67   -1.0019e+67   3.34956e+67    1.5427e+66
    7.5679e+59  -5.94503e+62   2.28896e+61   3.42826e+65 -3.05352e+135  3.63226e+202   5.52597e+67  -1.46985e+67  -3.39591e+67   4.90004e+67   1.00687e+67   3.26232e+67   1.66585e+66
    2.8466e+60  -5.95388e+62   8.31271e+61    2.8821e+68  9.80857e+135   5.2196e+202   2.70659e+68   1.08782e+67   3.24718e+67    2.4486e+68   1.00571e+67   3.23483e+67   3.43569e+66
    1.4212e+60  -5.38342e+62   7.86071e+61   2.93716e+68  1.10357e+136  7.50614e+202   2.74287e+68   1.31892e+67   3.42704e+67   2.46256e+68  -1.00021e+67  -3.15499e+67   2.84507e+66
   3.78958e+59  -5.37471e+62   2.16877e+61    3.0159e+66 -2.94309e+135  3.21462e+202    5.4334e+67  -1.38353e+67  -3.28141e+67   4.96654e+67  -9.99086e+66  -3.12746e+67   1.51699e+66
    7.5679e+59  -5.35909e+62   2.16151e+61   2.93766e+66 -2.99561e+135  3.08743e+202   5.48109e+67  -1.38534e+67  -3.28097e+67   4.96008e+67   1.00403e+67  -3.21265e+67   1.63808e+66
   2.84065e+60   -5.3678e+62   7.84858e+61   2.93394e+68   1.0934e+136  6.93411e+202   2.74128e+68    1.3115e+67   3.42187e+67   2.46061e+68   1.00291e+67  -3.24014e+67   3.35661e+66
   3.78959e+59  -5.96043e+62   2.29621e+61   1.25443e+68  2.95931e+135  1.21092e+202   1.13033e+68   1.41707e+67    3.3355e+67   7.79169e+67  -1.00233e+67     3.337e+67    1.5427e+66
  -6.66065e+59  -5.96157e+62  -3.73187e+61  -1.62676e+68  4.43473e+135 -2.03833e+202   1.48421e+68  -1.14733e+67  -3.31339e+67  -1.18069e+68  -1.00223e+67   3.33416e+67    1.7049e+65
  -1.33256e+60  -5.94617e+62  -3.73414e+61  -1.62576e+68  4.48237e+135 -2.07911e+202   1.48151e+68  -1.14503e+67  -3.31091e+67  -1.18017e+68   1.00608e+67   3.24695e+67  -1.03239e+65
    7.5679e+59  -5.94503e+62   2.28896e+61   1.25295e+68  3.00498e+135  1.48556e+202   1.12667e+68   1.41366e+67   3.33227e+67   7.78354e+67   1.00599e+67    3.2498e+67   1.66585e+66
   3.78958e+59  -5.37471e+62   2.16877e+61   1.26061e+68  3.14592e+135   1.6732e+202   1.12896e+68   1.45597e+67   3.34409e+67   7.80604e+67  -9.99496e+66   -3.1396e+67   1.51699e+66
  -6.63067e+59  -5.37584e+62  -3.52253e+61  -1.64641e+68  4.79838e+135 -2.54662e+202    1.4936e+68  -1.24744e+67  -3.36443e+67  -1.18523e+68  -9.99403e+66  -3.14244e+67    1.8946e+65
  -1.32662e+60  -5.36023e+62  -3.52492e+61  -1.64543e+68  4.73439e+135 -2.46472e+202   1.49466e+68  -1.24517e+67  -3.36198e+67  -1.18472e+68   1.00326e+67  -3.22761e+67  -7.97073e+64
    7.5679e+59  -5.35909e+62   2.16151e+61   1.25916e+68  3.08009e+135  1.37415e+202   1.13025e+68   1.45262e+67   3.34092e+67   7.79803e+67   1.00317e+67  -3.22476e+67   1.63808e+66
    2.8466e+60  -5.95388e+62   8.31271e+61   2.88472e+68  9.84084e+135  4.62539e+202   2.70879e+68    1.1271e+67   3.25322e+67   2.44669e+68  -1.00474e+67   3.30185e+67   7.20725e+66
    7.5679e+59  -5.94503e+62   2.28896e+61   4.18769e+65 -3.09634e+135  3.40044e+202   5.56463e+67  -1.45948e+67  -3.39416e+67   4.89551e+67  -1.00198e+67   3.32928e+67   2.60676e+66
   1.13242e+60  -5.91935e+62   2.27688e+61   3.38948e+65 -2.86293e+135  3.41194e+202   5.35075e+67  -1.46132e+67  -3.39058e+67   4.88579e+67    9.9469e+66   2.96898e+67   2.72918e+66
    4.2605e+60  -5.92819e+62   8.28115e+61   2.87734e+68  9.96403e+135  5.68178e+202   2.69864e+68   1.11007e+67   3.24161e+67   2.44217e+68   9.91934e+66   2.94162e+67   7.72317e+66
   2.84065e+60   -5.3678e+62   7.84858e+61   2.93645e+68  1.10517e+136  7.82568e+202   2.74182e+68   1.34966e+67   3.42766e+67   2.45872e+68   -1.0018e+67  -3.17332e+67   7.04939e+66
    7.5679e+59  -5.35909e+62   2.16151e+61   3.01229e+66 -2.95165e+135  3.28361e+202   5.44126e+67  -1.37514e+67  -3.27925e+67   4.95562e+67  -9.99127e+66  -3.14588e+67   2.56329e+66
   1.13242e+60  -5.33306e+62   2.14944e+61   2.93436e+66 -3.18266e+135  3.27054e+202   5.64913e+67  -1.37694e+67   -3.2757e+67   4.94608e+67   9.92035e+66  -3.50265e+67   2.68367e+66
   4.25168e+60  -5.34175e+62   7.81722e+61    2.9292e+68  1.07101e+136  6.38971e+202   2.74029e+68   1.33293e+67   3.41627e+67   2.45428e+68   9.89361e+66  -3.53001e+67   7.55671e+66
    7.5679e+59  -5.94503e+62   2.28896e+61   1.25371e+68  2.96861e+135  1.14828e+202   1.12912e+68   1.42403e+67   3.33402e+67   7.77901e+67  -1.00287e+67   3.31676e+67   2.60676e+66
  -1.33256e+60  -5.94617e+62  -3.73414e+61  -1.62677e+68  4.46065e+135 -1.93394e+202   1.48334e+68  -1.16305e+67  -3.31322e+67  -1.17914e+68  -1.00326e+67   3.31393e+67    -1.993e+66
  -1.99503e+60   -5.9205e+62  -3.72674e+61    -1.623e+68  4.65456e+135 -2.43895e+202   1.47264e+68  -1.15436e+67  -3.30531e+67  -1.17703e+68   9.93091e+66   2.95367e+67  -2.26396e+66
   1.13242e+60  -5.91935e+62   2.27688e+61   1.25089e+68   3.1751e+135  1.79174e+202   1.11679e+68   1.41753e+67   3.32674e+67   7.76464e+67   9.93489e+66   2.95649e+67   2.72918e+66
    7.5679e+59  -5.35909e+62   2.16151e+61    1.2599e+68  3.13027e+135  1.71254e+202   1.12886e+68   1.46281e+67   3.34264e+67   7.79358e+67  -9.99987e+66  -3.15799e+67   2.56329e+66
  -1.32662e+60  -5.36023e+62  -3.52492e+61  -1.64636e+68  4.79833e+135 -2.69049e+202   1.49354e+68  -1.26246e+67  -3.36411e+67   -1.1837e+68  -1.00037e+67  -3.16082e+67   -1.9221e+66
  -1.98624e+60  -5.33419e+62  -3.51772e+61  -1.64265e+68  4.52824e+135 -2.09362e+202   1.49849e+68   -1.2539e+67  -3.35633e+67  -1.18163e+68   9.90483e+66  -3.51754e+67  -2.18853e+66
   1.13242e+60  -5.33306e+62   2.14944e+61   1.25714e+68  2.87292e+135  1.00526e+202   1.13715e+68   1.45643e+67   3.33549e+67   7.77945e+67   9.90866e+66  -3.51472e+67   2.68367e+66
    2.4912e+50  -6.59417e+62   8.80091e+61   2.93252e+68  1.00755e+136  5.15551e+202   2.75538e+68   1.08932e+67   3.30332e+67   2.49326e+68  -1.00713e+67   3.36802e+67   7.33667e+65
   3.33884e+50  -6.58516e+62   2.42826e+61    4.4253e+65 -3.21149e+135    3.773e+202   5.66717e+67  -1.49751e+67  -3.45383e+67   4.99559e+67  -1.00666e+67   3.39654e+67   4.81763e+65
   3.78958e+59   -6.5801e+62   2.42583e+61   4.19535e+65  -3.1964e+135  3.82379e+202   5.65383e+67  -1.49804e+67  -3.45346e+67   4.99345e+67   1.00911e+67   3.37496e+67   6.07398e+65
   1.42716e+60  -6.58911e+62   8.79722e+61   2.93174e+68  1.00788e+136  5.27849e+202   2.75449e+68    1.0875e+67    3.3024e+67   2.49275e+68   1.00865e+67   3.34645e+67   1.26368e+66
   2.30196e+50  -5.97442e+62   8.32861e+61    2.9861e+68  1.13596e+136  7.67596e+202   2.78941e+68   1.32075e+67   3.48399e+67   2.50562e+68  -1.00429e+67  -3.22191e+67   7.16785e+65
   3.08125e+50  -5.96556e+62   2.29864e+61   3.12688e+66 -3.05027e+135  3.33748e+202   5.53177e+67  -1.41001e+67  -3.33484e+67   5.05754e+67  -1.00384e+67  -3.19339e+67   4.73595e+65
   3.78959e+59  -5.96043e+62   2.29621e+61   3.10435e+66 -3.06343e+135  3.28601e+202   5.54352e+67  -1.41053e+67  -3.33448e+67   5.05544e+67   1.00624e+67  -3.21458e+67   5.97101e+65
    1.4242e+60  -5.96928e+62   8.32495e+61   2.98532e+68  1.13347e+136  7.50116e+202   2.78903e+68   1.31897e+67   3.48309e+67   2.50512e+68   1.00579e+67  -3.24308e+67   1.23782e+66
   3.33884e+50  -6.58516e+62   2.42826e+61    1.2754e+68  3.06607e+135  1.37773e+202   1.14893e+68   1.43551e+67   3.38987e+67    7.9286e+67  -1.00666e+67   3.38353e+67   4.81763e+65
    4.1833e+50  -6.58633e+62  -3.94372e+61  -1.65271e+68  4.57063e+135 -2.14064e+202   1.50811e+68  -1.15225e+67   -3.3673e+67  -1.20075e+68   -1.0067e+67   3.38058e+67    2.2997e+65
  -6.69014e+59  -6.58127e+62  -3.94488e+61   -1.6527e+68  4.58478e+135 -2.14043e+202   1.50762e+68  -1.15222e+67  -3.36734e+67  -1.20074e+68   1.00864e+67   3.35901e+67  -4.85511e+64
   3.78958e+59   -6.5801e+62   2.42583e+61   1.27485e+68  3.07604e+135   1.4644e+202   1.14789e+68   1.43425e+67   3.38855e+67   7.92574e+67   1.00867e+67   3.36196e+67   6.07398e+65
   3.08125e+50  -5.96556e+62   2.29864e+61   1.28178e+68  3.24475e+135  1.69665e+202   1.14826e+68    1.4758e+67    3.3987e+67   7.94334e+67  -1.00384e+67  -3.20596e+67   4.73595e+65
   3.85825e+50  -5.96671e+62  -3.73069e+61  -1.67304e+68  4.93554e+135 -2.65445e+202   1.51839e+68  -1.25581e+67  -3.42012e+67  -1.20545e+68  -1.00388e+67  -3.20891e+67    2.3051e+65
  -6.66065e+59  -5.96157e+62  -3.73187e+61  -1.67303e+68  4.92153e+135 -2.64486e+202   1.51884e+68  -1.25578e+67  -3.42016e+67  -1.20543e+68   1.00579e+67  -3.23009e+67  -4.32903e+64
   3.78959e+59  -5.96043e+62   2.29621e+61   1.28125e+68  3.22659e+135  1.59898e+202   1.14845e+68   1.47456e+67    3.3974e+67   7.94052e+67   1.00582e+67  -3.22714e+67   5.97101e+65
   1.42716e+60  -6.58911e+62   8.79722e+61   2.93228e+68  1.00752e+136  5.01878e+202   2.75513e+68   1.09617e+67   3.30365e+67    2.4923e+68  -1.00588e+67   3.38003e+67   2.98855e+66
   3.78958e+59   -6.5801e+62   2.42583e+61   4.60989e+65 -3.21808e+135   3.7034e+202     5.673e+67   -1.4926e+67  -3.45251e+67    4.9912e+67  -1.00467e+67   3.40852e+67   1.56929e+66
   7.56789e+59  -6.56492e+62   2.41858e+61   3.80724e+65 -3.15588e+135  3.83272e+202   5.61785e+67  -1.49445e+67  -3.45201e+67   4.98453e+67   1.00968e+67   3.31869e+67   1.69455e+66
   2.85245e+60  -6.57392e+62   8.78486e+61   2.92888e+68  1.00856e+136  5.42042e+202   2.75132e+68   1.08833e+67   3.29815e+67   2.49023e+68   1.00847e+67   3.29024e+67   3.51684e+66
    1.4242e+60  -5.96928e+62   8.32495e+61    2.9858e+68   1.1374e+136  7.85251e+202   2.78884e+68   1.32714e+67    3.4842e+67   2.50467e+68  -1.00307e+67   -3.2096e+67   2.91449e+66
   3.78959e+59  -5.96043e+62   2.29621e+61    3.1451e+66 -3.04086e+135  3.38802e+202   5.52336e+67  -1.40518e+67  -3.33354e+67   5.05322e+67   -1.0019e+67  -3.18111e+67   1.54269e+66
    7.5679e+59  -5.94503e+62   2.28896e+61   3.06582e+66 -3.09583e+135  3.25805e+202   5.57246e+67  -1.40701e+67  -3.33307e+67   5.04666e+67   1.00687e+67  -3.26877e+67   1.66582e+66
    2.8466e+60  -5.95388e+62   8.31271e+61   2.98246e+68   1.1267e+136  7.25256e+202   2.78718e+68   1.31942e+67   3.47877e+67   2.50264e+68   1.00571e+67  -3.29722e+67   3.43382e+66
   3.78958e+59   -6.5801e+62   2.42583e+61   1.27527e+68  3.05795e+135  1.29071e+202   1.14914e+68   1.43969e+67    3.3895e+67   7.92349e+67  -1.00511e+67   3.39553e+67   1.56929e+66
  -6.69014e+59  -6.58127e+62  -3.94488e+61  -1.65243e+68  4.55885e+135 -2.12314e+202   1.50819e+68  -1.15013e+67  -3.36673e+67  -1.20075e+68  -1.00502e+67   3.39257e+67   1.50616e+65
   -1.3384e+60  -6.56608e+62  -3.94703e+61  -1.65135e+68  4.60824e+135 -2.16847e+202   1.50536e+68  -1.14762e+67  -3.36405e+67  -1.20018e+68   1.00886e+67   3.30278e+67  -1.26948e+65
   7.56789e+59  -6.56492e+62   2.41858e+61   1.27376e+68  3.10595e+135  1.57776e+202   1.14537e+68   1.43621e+67    3.3862e+67    7.9152e+67   1.00877e+67   3.30573e+67   1.69455e+66
   3.78959e+59  -5.96043e+62   2.29621e+61   1.28166e+68  3.25263e+135  1.77608e+202   1.14777e+68   1.47991e+67   3.39834e+67   7.93831e+67  -1.00233e+67  -3.19367e+67   1.54269e+66
  -6.66065e+59  -5.96157e+62  -3.73187e+61  -1.67272e+68  4.93908e+135 -2.66372e+202   1.51792e+68   -1.2534e+67  -3.41945e+67  -1.20543e+68  -1.00223e+67  -3.19662e+67   1.71454e+65
  -1.33256e+60  -5.94617e+62  -3.73414e+61  -1.67165e+68  4.87156e+135 -2.57421e+202   1.51896e+68  -1.25092e+67  -3.41679e+67  -1.20487e+68   1.00608e+67  -3.28425e+67  -1.01406e+65
    7.5679e+59  -5.94503e+62   2.28896e+61   1.28018e+68  3.18388e+135  1.46361e+202   1.14911e+68    1.4765e+67   3.39511e+67   7.93016e+67   1.00599e+67   -3.2813e+67   1.66582e+66
   2.85245e+60  -6.57392e+62   8.78486e+61    2.9316e+68  1.01208e+136  4.80373e+202   2.75358e+68    1.1287e+67   3.30443e+67   2.48829e+68  -1.00764e+67   3.35745e+67   7.36928e+66
   7.56789e+59  -6.56492e+62   2.41858e+61   4.57992e+65 -3.19957e+135   3.5918e+202   5.65666e+67   -1.4839e+67  -3.45023e+67   4.97993e+67   -1.0048e+67   3.38584e+67   2.65168e+66
   1.13242e+60  -6.53961e+62    2.4065e+61   3.76402e+65 -2.95928e+135  3.60084e+202   5.44006e+67  -1.48578e+67  -3.44661e+67   4.97003e+67   9.97313e+66   3.02124e+67   2.77621e+66
   4.26918e+60   -6.5486e+62    8.7531e+61   2.92405e+68  1.02464e+136  5.90041e+202   2.74325e+68   1.11127e+67    3.2925e+67   2.48367e+68   9.94469e+66   2.99293e+67   7.89336e+66
    2.8466e+60  -5.95388e+62   8.31271e+61   2.98508e+68  1.13895e+136  8.18508e+202   2.78778e+68    1.3587e+67   3.48482e+67   2.50072e+68  -1.00474e+67  -3.23021e+67   7.20538e+66
    7.5679e+59  -5.94503e+62   2.28896e+61   3.14176e+66 -3.05099e+135  3.46138e+202    5.5325e+67  -1.39664e+67  -3.33132e+67   5.04213e+67  -1.00198e+67  -3.20181e+67   2.60673e+66
   1.13242e+60  -5.91935e+62   2.27688e+61   3.06206e+66  -3.2888e+135  3.45058e+202   5.74298e+67  -1.39848e+67  -3.32774e+67   5.03242e+67    9.9469e+66  -3.56281e+67   2.72915e+66
    4.2605e+60  -5.92819e+62   8.28115e+61   2.97766e+68  1.10367e+136   6.6876e+202   2.78617e+68   1.34158e+67   3.47311e+67   2.49619e+68   9.91933e+66  -3.59113e+67   7.72057e+66
   7.56789e+59  -6.56492e+62   2.41858e+61   1.27453e+68  3.06892e+135  1.22774e+202   1.14784e+68   1.44677e+67   3.38798e+67   7.91059e+67  -1.00571e+67   3.37288e+67   2.65168e+66
   -1.3384e+60  -6.56608e+62  -3.94703e+61  -1.65242e+68  4.58703e+135 -2.01562e+202   1.50725e+68  -1.16635e+67  -3.36653e+67  -1.19913e+68  -1.00612e+67   3.36995e+67  -2.06515e+66
   -2.0037e+60  -6.54077e+62  -3.93943e+61  -1.64855e+68  4.78613e+135  -2.5423e+202   1.49636e+68  -1.15741e+67  -3.35839e+67  -1.19697e+68   9.95663e+66   3.00539e+67  -2.34004e+66
   1.13242e+60  -6.53961e+62    2.4065e+61   1.27167e+68  3.28137e+135  1.89777e+202   1.13534e+68   1.44016e+67   3.38057e+67   7.89597e+67   9.96078e+66   3.00831e+67   2.77621e+66
    7.5679e+59  -5.94503e+62   2.28896e+61   1.28094e+68  3.23516e+135  1.81462e+202   1.14773e+68   1.48687e+67   3.39686e+67   7.92564e+67  -1.00287e+67  -3.21434e+67   2.60673e+66
  -1.33256e+60  -5.94617e+62  -3.73414e+61  -1.67265e+68  4.93784e+135 -2.81285e+202   1.51788e+68  -1.26894e+67  -3.41911e+67  -1.20384e+68  -1.00327e+67  -3.21727e+67  -1.99117e+66
  -1.99503e+60   -5.9205e+62  -3.72674e+61  -1.66884e+68  4.65926e+135  -2.1888e+202   1.52286e+68  -1.26015e+67   -3.4111e+67  -1.20171e+68   9.93091e+66  -3.57822e+67   -2.2614e+66
   1.13242e+60  -5.91935e+62   2.27688e+61   1.27812e+68  2.97011e+135  1.07744e+202   1.15611e+68   1.48038e+67   3.38958e+67   7.91127e+67   9.93489e+66   -3.5753e+67   2.72915e+66
   2.68572e+50  -7.24848e+62   9.28152e+61   2.98105e+68  1.03652e+136  5.35629e+202   2.80181e+68   1.08992e+67   3.35624e+67   2.53644e+68  -1.00992e+67   3.42848e+67   7.51601e+65
   3.59792e+50  -7.23932e+62   2.56013e+61   4.80889e+65 -3.32244e+135  3.98894e+202   5.76426e+67  -1.52307e+67  -3.51201e+67   5.08317e+67  -1.00944e+67   3.45801e+67   4.90225e+65
   3.78958e+59  -7.23434e+62   2.55771e+61    4.5739e+65 -3.30667e+135  4.04119e+202   5.75055e+67  -1.52361e+67  -3.51164e+67   5.08099e+67   1.01194e+67   3.43586e+67   6.18074e+65
   1.43007e+60  -7.24349e+62   9.27781e+61   2.98022e+68  1.03684e+136  5.48388e+202   2.80087e+68     1.088e+67   3.35524e+67    2.5359e+68   1.01146e+67   3.40634e+67   1.29007e+66
    2.4912e+50  -6.59417e+62   8.80091e+61   3.03646e+68  1.17152e+136  8.03825e+202     2.837e+68   1.32918e+67   3.54317e+67   2.54922e+68  -1.00713e+67    -3.278e+67   7.33664e+65
   3.33884e+50  -6.58516e+62   2.42826e+61   3.26033e+66 -3.15305e+135  3.52101e+202   5.62466e+67  -1.43248e+67   -3.3888e+67   5.14731e+67  -1.00666e+67  -3.24846e+67   4.81762e+65
   3.78958e+59   -6.5801e+62   2.42583e+61   3.23728e+66 -3.16676e+135  3.46802e+202    5.6367e+67  -1.43301e+67  -3.38844e+67   5.14517e+67   1.00911e+67  -3.27018e+67   6.07407e+65
   1.42716e+60  -6.58911e+62   8.79722e+61   3.03564e+68  1.16889e+136  7.85499e+202   2.83659e+68    1.3273e+67   3.54219e+67    2.5487e+68   1.00865e+67   -3.2997e+67   1.26285e+66
   3.59792e+50  -7.23932e+62   2.56013e+61   1.29697e+68  3.16971e+135  1.46661e+202   1.16841e+68   1.45885e+67    3.4458e+67   8.06509e+67  -1.00944e+67   3.44455e+67   4.90225e+65
   4.51015e+50   -7.2405e+62  -4.16056e+61  -1.67928e+68  4.70066e+135 -2.23202e+202   1.53295e+68  -1.15512e+67  -3.42249e+67  -1.22152e+68  -1.00947e+67   3.44148e+67   2.28968e+65
  -6.71919e+59  -7.23551e+62  -4.16169e+61  -1.67924e+68  4.71518e+135 -2.23224e+202   1.53243e+68  -1.15503e+67  -3.42246e+67  -1.22149e+68   1.01145e+67   3.41934e+67  -5.35653e+64
   3.78958e+59  -7.23434e+62   2.55771e+61   1.29642e+68  3.18018e+135  1.55705e+202   1.16734e+68   1.45757e+67   3.44445e+67   8.06218e+67   1.01148e+67   3.42241e+67   6.18074e+65
   3.33884e+50  -6.58516e+62   2.42826e+61   1.30358e+68  3.35729e+135  1.80486e+202   1.16773e+68   1.50054e+67    3.4549e+67   8.08033e+67  -1.00666e+67  -3.26147e+67   4.81762e+65
    4.1833e+50  -6.58633e+62  -3.94372e+61  -1.70028e+68  5.08356e+135 -2.77836e+202   1.54356e+68  -1.26202e+67  -3.47707e+67  -1.22637e+68   -1.0067e+67  -3.26454e+67   2.29972e+65
  -6.69014e+59  -6.58127e+62  -3.94488e+61  -1.70024e+68  5.06869e+135 -2.76732e+202     1.544e+68  -1.26193e+67  -3.47705e+67  -1.22634e+68   1.00864e+67  -3.28624e+67  -4.76905e+64
   3.78958e+59   -6.5801e+62   2.42583e+61   1.30303e+68   3.3384e+135  1.70298e+202   1.16793e+68   1.49928e+67   3.45357e+67   8.07746e+67   1.00867e+67  -3.28318e+67   6.07407e+65
   1.43007e+60  -7.24349e+62   9.27781e+61   2.98083e+68  1.03662e+136  5.21539e+202   2.80156e+68   1.09717e+67   3.35663e+67   2.53545e+68  -1.00865e+67   3.44001e+67   3.06557e+66
   3.78958e+59  -7.23434e+62   2.55771e+61   4.99609e+65 -3.32879e+135  3.91598e+202   5.76979e+67  -1.51807e+67  -3.51067e+67    5.0787e+67  -1.00739e+67   3.46952e+67   1.59684e+66
   7.56789e+59  -7.21937e+62   2.55045e+61   4.18323e+65  -3.2636e+135  4.04782e+202   5.71295e+67  -1.51995e+67  -3.51015e+67   5.07193e+67   1.01245e+67   3.37701e+67   1.72431e+66
   2.85822e+60  -7.22852e+62   9.26532e+61    2.9773e+68  1.03767e+136  5.63423e+202   2.79761e+68   1.08902e+67   3.35089e+67   2.53331e+68   1.01119e+67   3.34755e+67   3.60232e+66
   1.42716e+60  -6.58911e+62   8.79722e+61   3.03619e+68  1.17305e+136  8.22446e+202   2.83644e+68   1.33597e+67   3.54344e+67   2.54825e+68  -1.00588e+67  -3.26612e+67   2.98771e+66
   3.78958e+59   -6.5801e+62   2.42583e+61   3.27874e+66 -3.14372e+135  3.57382e+202   5.61647e+67  -1.42757e+67  -3.38748e+67   5.14292e+67  -1.00467e+67  -3.23662e+67    1.5693e+66
   7.56789e+59  -6.56492e+62   2.41858e+61   3.19841e+66  -3.2013e+135  3.44102e+202   5.66703e+67  -1.42942e+67  -3.38699e+67   5.13625e+67   1.00968e+67  -3.32685e+67   1.69456e+66
   2.85245e+60  -6.57392e+62   8.78486e+61   3.03271e+68  1.16181e+136  7.59473e+202    2.8347e+68   1.32796e+67   3.53777e+67   2.54614e+68   1.00847e+67  -3.35631e+67    3.5152e+66
   3.78958e+59  -7.23434e+62   2.55771e+61   1.29684e+68  3.16177e+135  1.37672e+202    1.1686e+68   1.46311e+67   3.44543e+67   8.05989e+67  -1.00785e+67   3.45606e+67   1.59684e+66
  -6.71919e+59  -7.23551e+62  -4.16169e+61  -1.67902e+68  4.68935e+135 -2.21379e+202   1.53303e+68  -1.15323e+67  -3.42195e+67   -1.2215e+68  -1.00776e+67   3.45299e+67   1.28741e+65
  -1.34415e+60  -7.22055e+62  -4.16372e+61  -1.67784e+68  4.74064e+135 -2.26423e+202   1.53006e+68  -1.15051e+67  -3.41906e+67  -1.22089e+68    1.0116e+67   3.36052e+67  -1.52869e+65
   7.56789e+59  -7.21937e+62   2.55045e+61    1.2953e+68  3.21223e+135  1.67695e+202   1.16473e+68   1.45956e+67   3.44205e+67   8.05144e+67   1.01151e+67   3.36359e+67   1.72431e+66
   3.78958e+59   -6.5801e+62   2.42583e+61   1.30345e+68  3.36502e+135  1.88681e+202   1.16725e+68   1.50472e+67   3.45453e+67   8.07521e+67  -1.00511e+67  -3.24961e+67    1.5693e+66
  -6.69014e+59  -6.58127e+62  -3.94488e+61  -1.69997e+68  5.08727e+135 -2.78954e+202   1.54311e+68  -1.25985e+67  -3.47644e+67  -1.22634e+68  -1.00502e+67  -3.25268e+67    1.5148e+65
   -1.3384e+60  -6.56608e+62  -3.94703e+61  -1.69881e+68  5.01606e+135 -2.69171e+202   1.54414e+68  -1.25716e+67  -3.47358e+67  -1.22574e+68   1.00886e+67  -3.34288e+67  -1.25275e+65
   7.56789e+59  -6.56492e+62   2.41858e+61   1.30194e+68  3.29316e+135  1.56003e+202   1.16864e+68   1.50124e+67   3.45122e+67   8.06692e+67   1.00877e+67  -3.33981e+67   1.69456e+66
   2.85822e+60  -7.22852e+62   9.26532e+61   2.98012e+68  1.04148e+136  4.99355e+202   2.79993e+68    1.1305e+67    3.3574e+67   2.53133e+68  -1.01051e+67   3.41494e+67   7.53789e+66
   7.56789e+59  -7.21937e+62   2.55045e+61   4.97009e+65 -3.30818e+135  3.79729e+202   5.75189e+67  -1.50921e+67  -3.50833e+67   5.06724e+67  -1.00757e+67   3.44434e+67    2.6982e+66
   1.13242e+60  -7.19443e+62   2.53837e+61   4.13605e+65 -3.06075e+135  3.80363e+202   5.53256e+67  -1.51114e+67  -3.50467e+67   5.05717e+67   9.99903e+66    3.0754e+67   2.82492e+66
   4.27774e+60  -7.20357e+62   9.23336e+61   2.97239e+68  1.05429e+136  6.13265e+202   2.78941e+68   1.11266e+67   3.34514e+67   2.52661e+68   9.96966e+66   3.04609e+67   8.07044e+66
   2.85245e+60  -6.57392e+62   8.78486e+61   3.03543e+68  1.17453e+136  8.57034e+202   2.83537e+68   1.36833e+67   3.54405e+67    2.5442e+68  -1.00764e+67  -3.28911e+67   7.36764e+66
   7.56789e+59  -6.56492e+62   2.41858e+61   3.27568e+66 -3.15552e+135  3.65187e+202   5.62695e+67  -1.41887e+67  -3.38521e+67   5.13165e+67   -1.0048e+67   -3.2597e+67   2.65169e+66
   1.13242e+60  -6.53961e+62    2.4065e+61   3.19419e+66 -3.40041e+135  3.64352e+202   5.84005e+67  -1.42075e+67  -3.38159e+67   5.12176e+67   9.97313e+66  -3.62497e+67   2.77622e+66
   4.26918e+60   -6.5486e+62    8.7531e+61   3.02784e+68  1.13808e+136  7.00762e+202   2.83368e+68   1.35081e+67   3.53203e+67   2.53956e+68   9.94468e+66  -3.65428e+67     7.891e+66
   7.56789e+59  -7.21937e+62   2.55045e+61   1.29609e+68  3.17455e+135  1.31353e+202   1.16722e+68    1.4703e+67   3.44386e+67   8.04675e+67  -1.00851e+67   3.43092e+67    2.6982e+66
  -1.34415e+60  -7.22055e+62  -4.16372e+61  -1.67899e+68   4.7199e+135 -2.10296e+202   1.53199e+68  -1.16994e+67   -3.4217e+67  -1.21982e+68  -1.00895e+67   3.42787e+67  -2.14067e+66
  -2.01224e+60  -7.19561e+62  -4.15592e+61  -1.67501e+68  4.92439e+135  -2.6526e+202   1.52093e+68  -1.16076e+67  -3.41334e+67   -1.2176e+68   9.98198e+66   3.05899e+67  -2.41967e+66
   1.13242e+60  -7.19443e+62   2.53837e+61   1.29318e+68  3.39315e+135  2.01157e+202   1.15455e+68   1.46357e+67   3.43631e+67   8.03188e+67   9.98632e+66   3.06202e+67   2.82492e+66
   7.56789e+59  -6.56492e+62   2.41858e+61   1.30271e+68  3.34559e+135  1.92434e+202   1.16726e+68   1.51179e+67   3.45301e+67   8.06231e+67  -1.00571e+67  -3.27266e+67   2.65169e+66
   -1.3384e+60  -6.56608e+62  -3.94703e+61  -1.69989e+68  5.08466e+135 -2.94401e+202    1.5431e+68  -1.27589e+67  -3.47606e+67  -1.22469e+68  -1.00612e+67  -3.27571e+67  -2.06347e+66
   -2.0037e+60  -6.54077e+62  -3.93943e+61  -1.69597e+68  4.79728e+135 -2.29104e+202   1.54809e+68  -1.26686e+67  -3.46784e+67   -1.2225e+68   9.95662e+66  -3.64092e+67  -2.33766e+66
   1.13242e+60  -6.53961e+62    2.4065e+61   1.29985e+68  3.07251e+135  1.15552e+202   1.17573e+68   1.50518e+67    3.4456e+67   8.04769e+67   9.96077e+66  -3.63789e+67   2.77622e+66
    2.8848e+50  -7.93797e+62   9.77074e+61   3.03131e+68  1.06697e+136  5.57002e+202   2.84989e+68   1.09069e+67   3.41102e+67   2.58114e+68  -1.01267e+67   3.49107e+67   7.70656e+65
    3.8612e+50  -7.92865e+62   2.69434e+61   5.18876e+65 -3.43934e+135  4.22115e+202   5.86482e+67  -1.54959e+67  -3.57234e+67   5.17382e+67  -1.01217e+67   3.52167e+67    4.9901e+65
    3.7896e+59  -7.92374e+62   2.69192e+61   4.94812e+65 -3.42284e+135  4.27489e+202   5.85072e+67  -1.55015e+67  -3.57197e+67    5.1716e+67   1.01472e+67   3.49891e+67   6.29175e+65
   1.43295e+60  -7.93305e+62     9.767e+61   3.03044e+68  1.06727e+136  5.70253e+202   2.84891e+68   1.08867e+67   3.40993e+67   2.58058e+68   1.01423e+67   3.46832e+67   1.31799e+66
   2.68572e+50  -7.24848e+62   9.28152e+61   3.08866e+68  1.20903e+136  8.42778e+202    2.8863e+68   1.33824e+67   3.60455e+67   2.59438e+68  -1.00992e+67  -3.33606e+67   7.51598e+65
   3.59792e+50  -7.23932e+62   2.56013e+61   3.39862e+66 -3.26124e+135  3.71788e+202   5.72083e+67  -1.45573e+67  -3.44468e+67   5.24028e+67  -1.00944e+67  -3.30546e+67   4.90224e+65
   3.78958e+59  -7.23434e+62   2.55771e+61   3.37499e+66 -3.27555e+135  3.66332e+202   5.73319e+67  -1.45628e+67  -3.44431e+67   5.23809e+67   1.01194e+67  -3.32774e+67   6.18106e+65
   1.43007e+60  -7.24349e+62   9.27781e+61    3.0878e+68  1.20625e+136  8.23545e+202   2.88587e+68   1.33625e+67   3.60348e+67   2.59382e+68   1.01146e+67  -3.35832e+67   1.28933e+66
    3.8612e+50  -7.92865e+62   2.69434e+61   1.31932e+68  3.27885e+135  1.56238e+202   1.18858e+68   1.48301e+67   3.50374e+67   8.20643e+67  -1.01217e+67   3.50772e+67    4.9901e+65
   4.83572e+50  -7.92984e+62  -4.38134e+61  -1.70682e+68  4.83747e+135 -2.32983e+202   1.55868e+68  -1.15831e+67  -3.47966e+67  -1.24302e+68  -1.01221e+67   3.50453e+67   2.27495e+65
  -6.74781e+59  -7.92493e+62  -4.38244e+61  -1.70675e+68  4.85241e+135  -2.3306e+202   1.55813e+68  -1.15814e+67  -3.47956e+67  -1.24298e+68   1.01422e+67   3.48178e+67  -5.92484e+64
    3.7896e+59  -7.92374e+62   2.69192e+61   1.31875e+68  3.28986e+135  1.65685e+202   1.18749e+68   1.48171e+67   3.50238e+67   8.20346e+67   1.01425e+67   3.48497e+67   6.29175e+65
   3.59792e+50  -7.23932e+62   2.56013e+61   1.32615e+68  3.47593e+135  1.92155e+202   1.18789e+68   1.52619e+67   3.51313e+67    8.2222e+67  -1.00944e+67  -3.31892e+67   4.90224e+65
   4.51015e+50   -7.2405e+62  -4.16056e+61  -1.72851e+68  5.23961e+135 -2.91156e+202   1.56965e+68  -1.26873e+67   -3.5361e+67  -1.24803e+68  -1.00947e+67  -3.32211e+67   2.28969e+65
  -6.71919e+59  -7.23551e+62  -4.16169e+61  -1.72845e+68  5.22383e+135  -2.8989e+202   1.57008e+68  -1.26858e+67  -3.53601e+67  -1.24799e+68   1.01145e+67  -3.34438e+67  -5.27435e+64
   3.78958e+59  -7.23434e+62   2.55771e+61    1.3256e+68  3.45626e+135  1.81517e+202    1.1881e+68   1.52491e+67   3.51178e+67   8.21928e+67   1.01148e+67  -3.34119e+67   6.18106e+65
   1.43295e+60  -7.93305e+62     9.767e+61   3.03111e+68   1.0672e+136   5.4247e+202   2.84963e+68   1.09835e+67   3.41147e+67   2.58012e+68  -1.01139e+67   3.50208e+67   3.14669e+66
    3.7896e+59  -7.92374e+62   2.69192e+61   5.37943e+65 -3.44542e+135  4.14458e+202   5.87002e+67   -1.5445e+67  -3.57097e+67   5.16927e+67  -1.01007e+67   3.53266e+67   1.62545e+66
   7.56792e+59    -7.909e+62   2.68466e+61   4.55498e+65 -3.37705e+135  4.27892e+202   5.81142e+67  -1.54641e+67  -3.57042e+67   5.16237e+67   1.01519e+67   3.43737e+67    1.7552e+66
   2.86391e+60  -7.91831e+62   9.75438e+61   3.02744e+68  1.06827e+136  5.86189e+202   2.84555e+68   1.08989e+67   3.40547e+67    2.5779e+68   1.01387e+67   3.40684e+67   3.69226e+66
   1.43007e+60  -7.24349e+62   9.27781e+61    3.0884e+68  1.21065e+136  8.62416e+202   2.88575e+68   1.34542e+67   3.60488e+67   2.59337e+68  -1.00866e+67  -3.32465e+67   3.06482e+66
   3.78958e+59  -7.23434e+62   2.55771e+61   3.41721e+66 -3.25204e+135   3.7731e+202   5.71289e+67  -1.45074e+67  -3.44334e+67    5.2358e+67  -1.00739e+67  -3.29408e+67   1.59687e+66
   7.56789e+59  -7.21937e+62   2.55045e+61   3.33569e+66 -3.31236e+135  3.63746e+202   5.76497e+67  -1.45262e+67  -3.44282e+67   5.22901e+67   1.01245e+67  -3.38698e+67   1.72435e+66
   2.85822e+60  -7.22852e+62   9.26532e+61   3.08479e+68  1.19883e+136  7.96256e+202   2.88394e+68    1.3371e+67   3.59895e+67   2.59119e+68   1.01119e+67   -3.4175e+67   3.60082e+66
    3.7896e+59  -7.92374e+62   2.69192e+61   1.31919e+68  3.27114e+135  1.46951e+202   1.18875e+68   1.48736e+67   3.50337e+67   8.20113e+67  -1.01055e+67   3.51872e+67   1.62545e+66
  -6.74781e+59  -7.92493e+62  -4.38244e+61  -1.70657e+68  4.82667e+135 -2.31076e+202   1.55876e+68  -1.15664e+67  -3.47915e+67  -1.24299e+68  -1.01046e+67   3.51552e+67   1.04877e+65
  -1.34983e+60  -7.91019e+62  -4.38434e+61   -1.7053e+68     4.88e+135 -2.36688e+202   1.55566e+68  -1.15372e+67  -3.47606e+67  -1.24233e+68   1.01431e+67   3.42027e+67  -1.80964e+65
   7.56792e+59    -7.909e+62   2.68466e+61   1.31762e+68  3.32419e+135  1.78376e+202   1.18477e+68   1.48373e+67   3.49991e+67   8.19251e+67   1.01422e+67   3.42346e+67    1.7552e+66
   3.78958e+59  -7.23434e+62   2.55771e+61   1.32602e+68  3.48349e+135   2.0061e+202   1.18742e+68   1.53044e+67   3.51276e+67   8.21699e+67  -1.00785e+67  -3.30754e+67   1.59687e+66
  -6.71919e+59  -7.23551e+62  -4.16169e+61  -1.72823e+68  5.24344e+135 -2.92478e+202   1.56921e+68  -1.26679e+67   -3.5355e+67    -1.248e+68  -1.00776e+67  -3.31073e+67   1.29567e+65
  -1.34415e+60  -7.22055e+62  -4.16372e+61  -1.72698e+68  5.16836e+135 -2.81787e+202   1.57023e+68   -1.2639e+67  -3.53245e+67  -1.24734e+68    1.0116e+67  -3.40359e+67  -1.51259e+65
   7.56789e+59  -7.21937e+62   2.55045e+61   1.32448e+68  3.40831e+135  1.66406e+202   1.18887e+68   1.52689e+67   3.50937e+67   8.20853e+67   1.01151e+67   -3.4004e+67   1.72435e+66
   2.86391e+60  -7.91831e+62   9.75438e+61   3.03037e+68  1.07238e+136  5.19574e+202   2.84794e+68    1.1325e+67   3.41223e+67   2.57589e+68  -1.01335e+67   3.47442e+67   7.71334e+66
   7.56792e+59    -7.909e+62   2.68466e+61   5.35799e+65 -3.42255e+135  4.01821e+202   5.85051e+67  -1.53546e+67  -3.56856e+67   5.15761e+67  -1.01032e+67   3.50488e+67   2.74642e+66
   1.13242e+60  -7.88443e+62   2.67258e+61   4.50447e+65 -3.16769e+135  4.02159e+202    5.6284e+67  -1.53743e+67  -3.56487e+67   5.14734e+67   1.00246e+67   3.13157e+67   2.87539e+66
   4.28618e+60  -7.89372e+62   9.72221e+61   3.02245e+68  1.08545e+136  6.37955e+202   2.83721e+68   1.11424e+67   3.39963e+67   2.57107e+68   9.99422e+66    3.1012e+67   8.25468e+66
   2.85822e+60  -7.22852e+62   9.26532e+61   3.08762e+68  1.21205e+136  8.98379e+202   2.88467e+68   1.37858e+67   3.60547e+67   2.58921e+68  -1.01051e+67  -3.35011e+67   7.53638e+66
   7.56789e+59  -7.21937e+62   2.55045e+61   3.41437e+66 -3.26563e+135   3.8562e+202   5.72476e+67  -1.44188e+67  -3.44101e+67   5.22433e+67  -1.00757e+67  -3.31964e+67   2.69825e+66
   1.13242e+60  -7.19443e+62   2.53837e+61   3.33095e+66 -3.51787e+135  3.85053e+202   5.94051e+67  -1.44381e+67  -3.43735e+67   5.21425e+67   9.99902e+66  -3.68922e+67   2.82495e+66
   4.27774e+60  -7.20357e+62   9.23336e+61   3.07985e+68  1.17437e+136  7.35178e+202   2.88289e+68   1.36065e+67   3.59312e+67   2.58447e+68   9.96965e+66  -3.71959e+67   8.06822e+66
   7.56792e+59    -7.909e+62   2.68466e+61   1.31842e+68  3.28585e+135  1.40622e+202   1.18728e+68   1.49468e+67   3.50176e+67   8.18775e+67  -1.01129e+67   3.49098e+67   2.74642e+66
  -1.34983e+60  -7.91019e+62  -4.38434e+61  -1.70651e+68  4.85971e+135 -2.19644e+202   1.55763e+68  -1.17383e+67  -3.47885e+67  -1.24125e+68  -1.01174e+67   3.48781e+67  -2.21964e+66
  -2.02067e+60  -7.88562e+62  -4.37633e+61  -1.70243e+68  5.06979e+135 -2.77043e+202   1.54638e+68   -1.1644e+67  -3.47026e+67  -1.23896e+68    1.0007e+67   3.11456e+67  -2.50291e+66
   1.13242e+60  -7.88443e+62   2.67258e+61   1.31545e+68  3.51084e+135  2.13385e+202   1.17444e+68   1.48782e+67   3.49406e+67    8.1726e+67   1.00115e+67   3.11771e+67   2.87539e+66
   7.56789e+59  -7.21937e+62   2.55045e+61   1.32527e+68  3.46193e+135  2.04239e+202   1.18749e+68   1.53763e+67   3.51119e+67   8.20384e+67  -1.00851e+67  -3.33306e+67   2.69825e+66
  -1.34415e+60  -7.22055e+62  -4.16372e+61  -1.72812e+68  5.23933e+135 -3.08471e+202   1.56922e+68  -1.28333e+67  -3.53509e+67  -1.24628e+68  -1.00895e+67  -3.33624e+67  -2.13906e+66
  -2.01224e+60  -7.19561e+62  -4.15592e+61   -1.7241e+68  4.94279e+135   -2.401e+202   1.57425e+68  -1.27406e+67  -3.52664e+67  -1.24403e+68   9.98198e+66  -3.70575e+67  -2.41735e+66
   1.13242e+60  -7.19443e+62   2.53837e+61   1.32235e+68   3.1805e+135  1.24005e+202   1.19606e+68    1.5309e+67   3.50363e+67   8.18896e+67   9.98631e+66   -3.7026e+67   2.82495e+66
   3.10466e+50  -8.66327e+62   1.02689e+62    3.0834e+68  1.09899e+136  5.79764e+202   2.89971e+68   1.09162e+67   3.46776e+67   2.62746e+68  -1.01539e+67    3.5559e+67   7.90931e+65
   4.12642e+50  -8.65378e+62   2.83096e+61   5.56493e+65 -3.56265e+135  4.47118e+202   5.96905e+67  -1.57713e+67  -3.63493e+67   5.26771e+67  -1.01487e+67   3.58763e+67   5.08164e+65
   3.78964e+59  -8.64895e+62   2.82854e+61   5.31731e+65 -3.54536e+135  4.52645e+202   5.95453e+67   -1.5777e+67  -3.63456e+67   5.26543e+67   1.01748e+67   3.56422e+67   6.40749e+65
   1.43578e+60  -8.65843e+62   1.02651e+62   3.08247e+68  1.09927e+136  5.93539e+202   2.89868e+68   1.08949e+67   3.46657e+67   2.62687e+68   1.01696e+67   3.53251e+67   1.34751e+66
    2.8848e+50  -7.93797e+62   9.77074e+61   3.14278e+68  1.24865e+136  8.84695e+202   2.93742e+68   1.34793e+67   3.66825e+67   2.64116e+68  -1.01267e+67  -3.39619e+67   7.70652e+65
    3.8612e+50  -7.92865e+62   2.69434e+61   3.54219e+66 -3.37525e+135  3.92929e+202   5.82048e+67  -1.47982e+67  -3.50257e+67   5.33661e+67  -1.01217e+67  -3.36446e+67   4.99009e+65
    3.7896e+59  -7.92374e+62   2.69192e+61   3.51782e+66 -3.39021e+135  3.87314e+202   5.83317e+67  -1.48038e+67  -3.50221e+67   5.33437e+67   1.01472e+67  -3.38735e+67   6.29226e+65
   1.43295e+60  -7.93305e+62     9.767e+61   3.14187e+68   1.2457e+136  8.64483e+202   2.93695e+68   1.34584e+67   3.66709e+67   2.64058e+68   1.01423e+67  -3.41906e+67    1.3173e+66
   4.12642e+50  -8.65378e+62   2.83096e+61   1.34247e+68   3.3939e+135  1.66568e+202   1.20948e+68   1.50804e+67   3.56381e+67   8.35289e+67  -1.01487e+67   3.57316e+67   5.08164e+65
   5.14912e+50    -8.655e+62  -4.60619e+61  -1.73537e+68  4.98155e+135 -2.43463e+202   1.58536e+68  -1.16182e+67  -3.53891e+67   -1.2653e+68   -1.0149e+67   3.56985e+67   2.25548e+65
    -6.776e+59  -8.65016e+62  -4.60727e+61  -1.73527e+68  4.99695e+135  -2.4361e+202   1.58476e+68  -1.16159e+67  -3.53875e+67  -1.26524e+68   1.01695e+67   3.54645e+67  -6.55764e+64
   3.78964e+59  -8.64895e+62   2.82854e+61    1.3419e+68  3.40548e+135  1.76444e+202   1.20836e+68   1.50671e+67   3.56242e+67   8.34985e+67   1.01699e+67   3.54977e+67   6.40749e+65
    3.8612e+50  -7.92865e+62   2.69434e+61   1.34955e+68  3.60113e+135  2.04751e+202   1.20879e+68   1.55279e+67   3.57351e+67   8.36922e+67  -1.01217e+67  -3.37842e+67   4.99009e+65
   4.83572e+50  -7.92984e+62  -4.38134e+61   -1.7578e+68  5.40425e+135 -3.05487e+202    1.5967e+68  -1.27596e+67  -3.59731e+67  -1.27048e+68  -1.01221e+67  -3.38173e+67   2.27496e+65
  -6.74781e+59  -7.92493e+62  -4.38244e+61  -1.75771e+68  5.38752e+135  -3.0404e+202   1.59712e+68  -1.27574e+67  -3.59715e+67  -1.27042e+68   1.01422e+67  -3.40461e+67  -5.84293e+64
    3.7896e+59  -7.92374e+62   2.69192e+61   1.34899e+68   3.5806e+135  1.93631e+202   1.20901e+68   1.55148e+67   3.57214e+67   8.36623e+67   1.01425e+67  -3.40129e+67   6.29226e+65
   1.43578e+60  -8.65843e+62   1.02651e+62   3.08321e+68  1.09936e+136  5.64771e+202   2.89945e+68   1.09972e+67   3.46826e+67   2.62641e+68  -1.01409e+67   3.56636e+67   3.23216e+66
   3.78964e+59  -8.64895e+62   2.82854e+61   5.76005e+65 -3.56841e+135  4.39069e+202   5.97389e+67  -1.57194e+67  -3.63353e+67   5.26307e+67  -1.01272e+67   3.59806e+67   1.65521e+66
   7.56798e+59  -8.63443e+62   2.82128e+61   4.92089e+65 -3.49666e+135  4.52753e+202   5.91346e+67  -1.57387e+67  -3.63294e+67   5.25603e+67   1.01789e+67   3.49988e+67   1.78735e+66
   2.86953e+60  -8.64391e+62   1.02523e+62    3.0794e+68  1.10045e+136  6.10442e+202   2.89521e+68   1.09094e+67   3.46201e+67   2.62411e+68   1.01651e+67   3.46824e+67   3.78691e+66
   1.43295e+60  -7.93305e+62     9.767e+61   3.14254e+68  1.25035e+136  9.05413e+202   2.93687e+68   1.35552e+67   3.66863e+67   2.64013e+68  -1.01139e+67   -3.3853e+67   3.14599e+66
    3.7896e+59  -7.92374e+62   2.69192e+61   3.56095e+66 -3.36619e+135  3.98709e+202   5.81281e+67  -1.47474e+67  -3.50121e+67   5.33205e+67  -1.01007e+67   -3.3536e+67   1.62549e+66
   7.56792e+59    -7.909e+62   2.68466e+61   3.47785e+66 -3.42944e+135   3.8486e+202   5.86646e+67  -1.47666e+67  -3.50067e+67   5.32511e+67   1.01519e+67  -3.44927e+67   1.75527e+66
   2.86391e+60  -7.91831e+62   9.75438e+61    3.1388e+68  1.23791e+136  8.35831e+202   2.93498e+68   1.34688e+67   3.66245e+67   2.63786e+68   1.01387e+67  -3.48091e+67   3.69083e+66
   3.78964e+59  -8.64895e+62   2.82854e+61   1.34234e+68  3.38646e+135  1.56972e+202   1.20964e+68   1.51248e+67   3.56344e+67   8.34749e+67  -1.01321e+67   3.58361e+67   1.65521e+66
    -6.776e+59  -8.65016e+62  -4.60727e+61  -1.73514e+68  4.97128e+135 -2.41461e+202   1.58542e+68  -1.16037e+67  -3.53843e+67  -1.26526e+68  -1.01312e+67   3.58029e+67   7.90251e+64
  -1.35542e+60  -8.63564e+62  -4.60903e+61  -1.73378e+68  5.02681e+135 -2.47702e+202   1.58219e+68  -1.15724e+67  -3.53514e+67  -1.26454e+68   1.01697e+67   3.48215e+67  -2.11216e+65
   7.56798e+59  -8.63443e+62   2.82128e+61   1.34073e+68  3.44224e+135  1.89888e+202   1.20555e+68   1.50877e+67   3.55989e+67   8.33867e+67   1.01688e+67   3.48547e+67   1.78735e+66
    3.7896e+59  -7.92374e+62   2.69192e+61   1.34942e+68  3.60848e+135  2.13475e+202   1.20834e+68   1.55712e+67   3.57313e+67   8.36391e+67  -1.01055e+67  -3.36754e+67   1.62549e+66
  -6.74781e+59  -7.92493e+62  -4.38244e+61  -1.75753e+68  5.40817e+135 -3.07026e+202   1.59627e+68  -1.27424e+67  -3.59674e+67  -1.27043e+68  -1.01046e+67  -3.37086e+67     1.057e+65
  -1.34983e+60  -7.91019e+62  -4.38434e+61   -1.7562e+68  5.32903e+135 -2.95349e+202   1.59729e+68  -1.27116e+67   -3.5935e+67  -1.26973e+68    1.0143e+67  -3.46649e+67  -1.79358e+65
   7.56792e+59    -7.909e+62   2.68466e+61   1.34784e+68  3.52975e+135  1.77639e+202   1.20983e+68   1.55348e+67   3.56966e+67   8.35525e+67   1.01422e+67  -3.46317e+67   1.75527e+66
   2.86953e+60  -8.64391e+62   1.02523e+62   3.08244e+68   1.1049e+136  5.41134e+202   2.89767e+68   1.13472e+67   3.46901e+67   2.62206e+68  -1.01616e+67     3.536e+67   7.89601e+66
   7.56798e+59  -8.63443e+62   2.82128e+61   5.74338e+65 -3.54312e+135    4.256e+202   5.95268e+67  -1.56271e+67  -3.63105e+67   5.25119e+67  -1.01302e+67   3.56758e+67   2.79648e+66
   1.13242e+60  -8.61024e+62    2.8092e+61   4.86757e+65  -3.2805e+135  4.25613e+202   5.72777e+67  -1.56473e+67  -3.62731e+67   5.24071e+67   1.00498e+67   3.18985e+67   2.92778e+66
   4.29452e+60   -8.6197e+62     1.022e+62   3.07433e+68  1.11822e+136  6.64226e+202   2.88674e+68   1.11601e+67   3.45607e+67   2.61712e+68   1.00184e+67   3.15836e+67   8.44646e+66
   2.86391e+60  -7.91831e+62   9.75438e+61   3.14172e+68  1.25165e+136  9.42805e+202   2.93577e+68   1.38948e+67    3.6692e+67   2.63585e+68  -1.01335e+67  -3.41334e+67   7.71191e+66
   7.56792e+59    -7.909e+62   2.68466e+61   3.55815e+66 -3.38172e+135  4.07564e+202   5.82613e+67  -1.46571e+67  -3.49882e+67   5.32035e+67  -1.01032e+67  -3.38175e+67   2.74649e+66
   1.13242e+60  -7.88443e+62   2.67258e+61   3.47244e+66 -3.64159e+135  4.07291e+202   6.04454e+67  -1.46769e+67  -3.49513e+67   5.31006e+67   1.00246e+67  -3.75569e+67   2.87545e+66
   4.28618e+60  -7.89372e+62   9.72221e+61   3.13377e+68  1.21268e+136  7.72233e+202   2.93391e+68   1.37112e+67   3.65651e+67     2.631e+68   9.99421e+66  -3.78717e+67   8.25253e+66
   7.56798e+59  -8.63443e+62   2.82128e+61   1.34156e+68  3.40325e+135  1.50646e+202   1.20808e+68   1.51994e+67   3.56179e+67   8.33383e+67  -1.01403e+67   3.55317e+67   2.79648e+66
  -1.35542e+60  -8.63564e+62  -4.60903e+61  -1.73505e+68  5.00697e+135 -2.29662e+202   1.58421e+68  -1.17805e+67  -3.53808e+67  -1.26344e+68   -1.0145e+67   3.54987e+67  -2.30212e+66
  -2.02897e+60  -8.61145e+62  -4.60081e+61  -1.73086e+68  5.22286e+135 -2.89644e+202   1.57276e+68  -1.16836e+67  -3.52925e+67  -1.26109e+68   1.00315e+67    3.1722e+67  -2.58982e+66
   1.13242e+60  -8.61024e+62    2.8092e+61   1.33853e+68  3.63486e+135   2.2654e+202   1.19506e+68   1.51295e+67   3.55394e+67   8.31839e+67   1.00362e+67   3.17548e+67   2.92778e+66
   7.56792e+59    -7.909e+62   2.68466e+61   1.34864e+68  3.58463e+135  2.16954e+202   1.20846e+68   1.56443e+67   3.57151e+67   8.35049e+67  -1.01129e+67  -3.39565e+67   2.74649e+66
  -1.34983e+60  -7.91019e+62  -4.38434e+61   -1.7574e+68  5.40242e+135 -3.23582e+202   1.59632e+68  -1.29128e+67  -3.59629e+67  -1.26865e+68  -1.01174e+67  -3.39896e+67  -2.21803e+66
  -2.02067e+60  -7.88562e+62  -4.37633e+61  -1.75328e+68  5.09634e+135 -2.51941e+202   1.60136e+68  -1.28177e+67  -3.58762e+67  -1.26634e+68    1.0007e+67  -3.77283e+67   -2.5006e+66
   1.13242e+60  -7.88443e+62   2.67258e+61   1.34567e+68  3.29446e+135  1.33164e+202   1.21712e+68   1.55756e+67    3.5638e+67   8.33532e+67   1.00115e+67  -3.76955e+67   2.87545e+66
   3.33713e+50  -9.42504e+62   1.07763e+62    3.1374e+68  1.13271e+136  6.04034e+202   2.95137e+68   1.09273e+67   3.52654e+67   2.67547e+68  -1.01807e+67   3.62311e+67   8.12557e+65
   4.38687e+50  -9.41539e+62    2.9701e+61   5.93912e+65 -3.69284e+135  4.74071e+202   6.07717e+67  -1.60574e+67  -3.69991e+67   5.36503e+67  -1.01753e+67   3.65603e+67   5.17756e+65
   3.78971e+59  -9.41063e+62   2.96768e+61   5.68257e+65 -3.67469e+135  4.79756e+202   6.06219e+67  -1.60633e+67  -3.69953e+67   5.36268e+67    1.0202e+67   3.63193e+67   6.52832e+65
   1.43859e+60  -9.42028e+62   1.07724e+62   3.13643e+68  1.13297e+136  6.18367e+202   2.95029e+68   1.09048e+67   3.52526e+67   2.67485e+68   1.01966e+67   3.59903e+67   1.37874e+66
   3.10466e+50  -8.66327e+62   1.02689e+62   3.19894e+68  1.29051e+136  9.29851e+202   2.99044e+68   1.35828e+67   3.73441e+67   2.68968e+68  -1.01539e+67  -3.45852e+67   7.90927e+65
   4.12642e+50  -8.65378e+62   2.83096e+61    3.6915e+66 -3.49552e+135  4.15661e+202    5.9238e+67  -1.50478e+67  -3.56258e+67   5.43652e+67  -1.01487e+67   -3.4256e+67   5.08163e+65
   3.78964e+59  -8.64895e+62   2.82854e+61   3.66616e+66 -3.51117e+135  4.09883e+202   5.93685e+67  -1.50537e+67  -3.56222e+67   5.43421e+67   1.01748e+67  -3.44913e+67   6.40783e+65
   1.43578e+60  -8.65843e+62   1.02651e+62   3.19799e+68  1.28738e+136  9.08578e+202   2.98994e+68   1.35607e+67   3.73314e+67   2.68907e+68   1.01696e+67  -3.48203e+67   1.34681e+66
   4.38687e+50  -9.41539e+62    2.9701e+61   1.36649e+68   3.5153e+135  1.77723e+202   1.23116e+68   1.53399e+67   3.62612e+67   8.50476e+67  -1.01753e+67   3.64101e+67   5.17756e+65
   5.44449e+50  -9.41662e+62  -4.83527e+61  -1.76499e+68  5.13339e+135 -2.54703e+202   1.61303e+68  -1.16566e+67  -3.60036e+67  -1.28839e+68  -1.01756e+67   3.63756e+67   2.23136e+65
  -6.80377e+59  -9.41186e+62  -4.83632e+61  -1.76486e+68  5.14932e+135 -2.54934e+202   1.61239e+68  -1.16537e+67  -3.60013e+67  -1.28831e+68   1.01965e+67   3.61348e+67  -7.25556e+64
   3.78971e+59  -9.41063e+62   2.96768e+61    1.3659e+68  3.52749e+135  1.88058e+202   1.23001e+68   1.53263e+67   3.62471e+67   8.50164e+67   1.01968e+67   3.61693e+67   6.52832e+65
   4.12642e+50  -8.65378e+62   2.83096e+61   1.37382e+68  3.73338e+135  2.18364e+202   1.23047e+68   1.58039e+67   3.63616e+67   8.52169e+67  -1.01487e+67  -3.44007e+67   5.08163e+65
   5.14912e+50    -8.655e+62  -4.60619e+61   -1.7882e+68   5.5781e+135  -3.2092e+202   1.62476e+68  -1.28373e+67  -3.66082e+67  -1.29374e+68   -1.0149e+67  -3.44351e+67   2.25549e+65
    -6.776e+59  -8.65016e+62  -4.60727e+61  -1.78808e+68  5.56035e+135 -3.19271e+202   1.62517e+68  -1.28345e+67   -3.6606e+67  -1.29367e+68   1.01695e+67  -3.46703e+67  -6.47657e+64
   3.78964e+59  -8.64895e+62   2.82854e+61   1.37324e+68  3.71191e+135  2.06726e+202   1.23069e+68   1.57905e+67   3.63475e+67   8.51862e+67   1.01699e+67  -3.46358e+67   6.40783e+65
   1.43859e+60  -9.42028e+62   1.07724e+62   3.13723e+68  1.13323e+136  5.88557e+202    2.9511e+68   1.10128e+67   3.52712e+67   2.67439e+68  -1.01677e+67   3.63297e+67   3.32232e+66
   3.78971e+59  -9.41063e+62   2.96768e+61   6.13886e+65 -3.69823e+135  4.65597e+202   6.08162e+67  -1.60043e+67  -3.69848e+67   5.36029e+67  -1.01532e+67   3.66585e+67   1.68631e+66
   7.56807e+59  -9.39634e+62   2.96041e+61    5.2798e+65 -3.62288e+135  4.79532e+202   6.01927e+67  -1.60241e+67  -3.69786e+67   5.35306e+67   1.02056e+67   3.56468e+67    1.8209e+66
   2.87508e+60  -9.40598e+62   1.07595e+62   3.13327e+68  1.13434e+136  6.36303e+202    2.9467e+68   1.09215e+67   3.52059e+67     2.672e+68   1.01911e+67   3.53186e+67    3.8866e+66
   1.43578e+60  -8.65843e+62   1.02651e+62   3.19872e+68   1.2923e+136  9.51727e+202    2.9899e+68    1.3663e+67   3.73484e+67   2.68861e+68   -1.0141e+67  -3.44818e+67   3.23145e+66
   3.78964e+59  -8.64895e+62   2.82854e+61   3.71044e+66 -3.48663e+135  4.21715e+202   5.91642e+67   -1.4996e+67   -3.5612e+67   5.43185e+67  -1.01272e+67  -3.41529e+67   1.65525e+66
   7.56798e+59  -8.63443e+62   2.82128e+61   3.62511e+66 -3.55297e+135  4.07582e+202   5.97169e+67  -1.50157e+67  -3.56064e+67   5.42473e+67   1.01789e+67  -3.51384e+67   1.78739e+66
   2.86953e+60  -8.64391e+62   1.02523e+62   3.19483e+68   1.2792e+136  8.78457e+202   2.98793e+68   1.35731e+67   3.72837e+67   2.68626e+68   1.01651e+67  -3.54667e+67   3.78547e+66
   3.78971e+59  -9.41063e+62   2.96768e+61   1.36635e+68  3.50818e+135  1.67806e+202    1.2313e+68   1.53853e+67   3.62576e+67   8.49925e+67  -1.01584e+67   3.65086e+67   1.68631e+66
  -6.80377e+59  -9.41186e+62  -4.83632e+61  -1.76477e+68   5.1237e+135 -2.52594e+202   1.61308e+68  -1.16443e+67  -3.59991e+67  -1.28833e+68  -1.01575e+67    3.6474e+67   5.11919e+64
  -1.36092e+60  -9.39757e+62  -4.83794e+61  -1.76333e+68  5.18162e+135 -2.59532e+202   1.60971e+68   -1.1611e+67  -3.59642e+67  -1.28757e+68    1.0196e+67   3.54628e+67  -2.43626e+65
   7.56807e+59  -9.39634e+62   2.96041e+61    1.3647e+68  3.56682e+135  2.02311e+202   1.22708e+68   1.53472e+67   3.62211e+67   8.49019e+67   1.01951e+67   3.54973e+67    1.8209e+66
   3.78964e+59  -8.64895e+62   2.82854e+61   1.37369e+68  3.74048e+135  2.27366e+202   1.23003e+68   1.58482e+67   3.63578e+67   8.51626e+67  -1.01321e+67  -3.42975e+67   1.65525e+66
    -6.776e+59  -8.65016e+62  -4.60727e+61  -1.78794e+68  5.58208e+135 -3.22692e+202   1.62435e+68  -1.28223e+67  -3.66029e+67  -1.29369e+68  -1.01312e+67   -3.4332e+67   7.98398e+64
  -1.35542e+60  -8.63564e+62  -4.60903e+61  -1.78653e+68  5.49869e+135 -3.09944e+202   1.62536e+68  -1.27897e+67  -3.65686e+67  -1.29294e+68   1.01697e+67  -3.53171e+67  -2.09618e+65
   7.56798e+59  -8.63443e+62   2.82128e+61   1.37206e+68  3.65794e+135   1.8978e+202   1.23157e+68   1.58107e+67   3.63219e+67   8.50737e+67   1.01688e+67  -3.52825e+67   1.78739e+66
   2.87508e+60  -9.40598e+62   1.07595e+62   3.13642e+68  1.13914e+136  5.64149e+202   2.94924e+68   1.13716e+67   3.52786e+67   2.66992e+68  -1.01895e+67   3.59979e+67   8.08637e+66
   7.56807e+59  -9.39634e+62   2.96041e+61   6.12605e+65 -3.67032e+135  4.51224e+202   6.05863e+67  -1.59099e+67   -3.6959e+67   5.34815e+67  -1.01569e+67   3.63256e+67   2.84856e+66
   1.13243e+60  -9.37252e+62   2.94833e+61   5.22209e+65 -3.39961e+135  4.50883e+202   5.83085e+67  -1.59308e+67  -3.69212e+67   5.33742e+67   1.00746e+67   3.25034e+67   2.98226e+66
   4.30274e+60  -9.38215e+62    1.0727e+62   3.12812e+68  1.15271e+136  6.92209e+202    2.9381e+68   1.11799e+67   3.51456e+67   2.66486e+68    1.0042e+67   3.21769e+67   8.64624e+66
   2.86953e+60  -8.64391e+62   1.02523e+62   3.19786e+68  1.29349e+136  9.90609e+202   2.98878e+68   1.40109e+67   3.73538e+67   2.68421e+68  -1.01616e+67  -3.47891e+67   7.89457e+66
   7.56798e+59  -8.63443e+62   2.82128e+61   3.70736e+66 -3.50422e+135  4.31157e+202   5.93124e+67   -1.4904e+67  -3.55875e+67   5.41989e+67  -1.01302e+67  -3.44614e+67   2.79652e+66
   1.13242e+60  -8.61024e+62    2.8092e+61   3.61854e+66 -3.77203e+135   4.3121e+202   6.15234e+67  -1.49245e+67  -3.55504e+67   5.40934e+67   1.00498e+67  -3.82449e+67   2.92778e+66
   4.29452e+60   -8.6197e+62     1.022e+62    3.1897e+68  1.25315e+136  8.12176e+202   2.98681e+68   1.38227e+67   3.72231e+67   2.67925e+68   1.00183e+67  -3.85715e+67   8.44426e+66
   7.56807e+59  -9.39634e+62   2.96041e+61   1.36555e+68  3.52719e+135  1.61499e+202   1.22964e+68   1.54614e+67   3.62406e+67   8.48528e+67  -1.01674e+67   3.61761e+67   2.84856e+66
  -1.36092e+60  -9.39757e+62  -4.83794e+61  -1.76466e+68  5.16219e+135 -2.40409e+202   1.61177e+68   -1.1826e+67  -3.59949e+67  -1.28645e+68  -1.01722e+67   3.61417e+67  -2.38815e+66
  -2.03716e+60  -9.37375e+62  -4.82951e+61  -1.76035e+68  5.38415e+135 -3.03135e+202   1.60013e+68  -1.17266e+67  -3.59043e+67  -1.28404e+68   1.00558e+67   3.23202e+67  -2.68048e+66
   1.13243e+60  -9.37252e+62   2.94833e+61   1.36245e+68  3.76566e+135  2.40706e+202   1.21644e+68     1.539e+67   3.61605e+67   8.46949e+67   1.00606e+67   3.23544e+67   2.98226e+66
   7.56798e+59  -8.63443e+62   2.82128e+61   1.37289e+68  3.71415e+135  2.30665e+202    1.2302e+68   1.59224e+67   3.63409e+67   8.50253e+67  -1.01403e+67  -3.46055e+67   2.79652e+66
  -1.35542e+60  -8.63564e+62  -4.60903e+61   -1.7878e+68  5.57454e+135  -3.3983e+202   1.62443e+68  -1.29978e+67   -3.6598e+67  -1.29184e+68   -1.0145e+67  -3.46399e+67  -2.30052e+66
  -2.02897e+60  -8.61145e+62  -4.60081e+61  -1.78357e+68  5.25858e+135 -2.64714e+202    1.6295e+68  -1.29003e+67  -3.65091e+67  -1.28948e+68   1.00315e+67  -3.84229e+67  -2.58753e+66
   1.13242e+60  -8.61024e+62    2.8092e+61   1.36985e+68   3.4148e+135  1.43097e+202   1.23895e+68   1.58522e+67   3.62621e+67   8.48702e+67   1.00362e+67  -3.83886e+67   2.92778e+66
   3.56441e+50   -1.0224e+63   1.12932e+62   3.19344e+68  1.16825e+136  6.29988e+202   3.00497e+68   1.09407e+67    3.5875e+67   2.72529e+68  -1.02071e+67   3.69281e+67   8.35661e+65
   4.64674e+50  -1.02141e+63   3.11184e+61   6.31833e+65 -3.83045e+135  5.03148e+202   6.18939e+67  -1.63541e+67   -3.7674e+67     5.466e+67  -1.02015e+67     3.727e+67    5.2785e+65
   3.78971e+59  -1.02095e+63   3.10941e+61   6.05176e+65 -3.81137e+135  5.08993e+202   6.17392e+67  -1.63603e+67  -3.76702e+67   5.46357e+67   1.02288e+67   3.70216e+67   6.65354e+65
   1.44135e+60  -1.02193e+63   1.12894e+62   3.19241e+68  1.16849e+136  6.44919e+202   3.00383e+68    1.0917e+67   3.58613e+67   2.72463e+68   1.02232e+67     3.668e+67   1.41165e+66
   3.33713e+50  -9.42504e+62   1.07763e+62   3.25726e+68  1.33479e+136  9.78562e+202   3.04548e+68   1.36934e+67   3.80315e+67   2.74001e+68  -1.01807e+67  -3.52316e+67   8.12553e+65
   4.38687e+50  -9.41539e+62    2.9701e+61   3.84694e+66 -3.62251e+135  4.40132e+202   6.03101e+67  -1.53066e+67  -3.62484e+67   5.54019e+67  -1.01753e+67  -3.48898e+67   5.17754e+65
   3.78971e+59  -9.41063e+62   2.96768e+61   3.82048e+66 -3.63891e+135  4.34189e+202   6.04442e+67  -1.53127e+67  -3.62448e+67    5.5378e+67    1.0202e+67   -3.5132e+67   6.52712e+65
   1.43859e+60  -9.42028e+62   1.07724e+62   3.25625e+68  1.33147e+136  9.56145e+202   3.04495e+68   1.36701e+67   3.80178e+67   2.73937e+68   1.01966e+67  -3.54736e+67   1.37787e+66
   4.64674e+50  -1.02141e+63   3.11184e+61   1.39141e+68  3.64361e+135  1.89794e+202   1.25366e+68   1.56096e+67   3.69081e+67   8.66238e+67  -1.02015e+67    3.7114e+67    5.2785e+65
   5.73194e+50  -1.02154e+63  -5.06874e+61  -1.79573e+68  5.29349e+135 -2.66755e+202   1.64174e+68  -1.16981e+67  -3.66414e+67  -1.31234e+68  -1.02017e+67   3.70781e+67   2.20257e+65
  -6.83119e+59  -1.02107e+63  -5.06975e+61  -1.79558e+68  5.30998e+135 -2.67086e+202   1.64107e+68  -1.16946e+67  -3.66383e+67  -1.31225e+68   1.02231e+67   3.68299e+67  -8.03113e+64
   3.78971e+59  -1.02095e+63   3.10941e+61   1.39081e+68  3.65647e+135  2.00622e+202   1.25248e+68   1.55956e+67   3.68937e+67   8.65916e+67   1.02233e+67   3.68658e+67   6.65354e+65
   4.38687e+50  -9.41539e+62    2.9701e+61   1.39902e+68   3.8732e+135  2.33092e+202   1.25297e+68   1.60906e+67   3.70119e+67   8.67992e+67  -1.01753e+67  -3.50399e+67   5.17754e+65
   5.44449e+50  -9.41662e+62  -4.83527e+61  -1.81977e+68  5.76186e+135  -3.3756e+202   1.65389e+68  -1.29207e+67  -3.72677e+67  -1.31788e+68  -1.01756e+67  -3.50757e+67   2.23137e+65
  -6.80377e+59  -9.41186e+62  -4.83632e+61  -1.81962e+68  5.74303e+135 -3.35685e+202    1.6543e+68  -1.29173e+67  -3.72649e+67   -1.3178e+68   1.01965e+67  -3.53178e+67  -7.18651e+64
   3.78971e+59  -9.41063e+62   2.96768e+61   1.39842e+68  3.85072e+135  2.20899e+202    1.2532e+68   1.60768e+67   3.69976e+67   8.67676e+67   1.01968e+67   -3.5282e+67   6.52712e+65
   1.44135e+60  -1.02193e+63   1.12894e+62   3.19329e+68  1.16894e+136  6.13974e+202   3.00469e+68   1.10308e+67   3.58814e+67   2.72416e+68  -1.01941e+67   3.70203e+67   3.41746e+66
   3.78971e+59  -1.02095e+63   3.10941e+61   6.51867e+65 -3.83541e+135  4.94221e+202   6.19341e+67     -1.63e+67  -3.76594e+67   5.46113e+67  -1.01788e+67   3.73617e+67   1.71883e+66
   7.56805e+59  -1.01954e+63   3.10215e+61   5.63431e+65 -3.75621e+135  5.08405e+202   6.12905e+67  -1.63204e+67  -3.76528e+67   5.45367e+67   1.02319e+67   3.63189e+67   1.85589e+66
   2.88054e+60  -1.02052e+63   1.12763e+62   3.18917e+68  1.17005e+136  6.63932e+202   3.00012e+68   1.09358e+67   3.58133e+67   2.72168e+68   1.02167e+67   3.59782e+67   3.99156e+66
   1.43859e+60  -9.42028e+62   1.07724e+62   3.25705e+68  1.33668e+136  1.00168e+203   3.04495e+68   1.37781e+67   3.80363e+67   2.73891e+68  -1.01677e+67  -3.51342e+67   3.32144e+66
   3.78971e+59  -9.41063e+62   2.96768e+61   3.86611e+66 -3.61383e+135  4.46478e+202   6.02393e+67  -1.52537e+67  -3.62343e+67   5.53541e+67  -1.01532e+67  -3.47928e+67   1.68618e+66
   7.56807e+59  -9.39634e+62   2.96041e+61   3.77781e+66 -3.68343e+135  4.32065e+202   6.08087e+67  -1.52741e+67  -3.62286e+67   5.52805e+67   1.02056e+67  -3.58082e+67    1.8207e+66
   2.87508e+60  -9.40598e+62   1.07595e+62     3.253e+68  1.32286e+136  9.24442e+202   3.04288e+68   1.36845e+67   3.79687e+67   2.73646e+68   1.01911e+67  -3.61489e+67   3.88491e+66
   3.78971e+59  -1.02095e+63   3.10941e+61   1.39128e+68  3.63682e+135  1.79537e+202   1.25378e+68   1.56559e+67   3.69044e+67   8.65673e+67  -1.01843e+67   3.72059e+67   1.71883e+66
  -6.83119e+59  -1.02107e+63  -5.06975e+61  -1.79552e+68   5.2845e+135 -2.64539e+202   1.64178e+68  -1.16883e+67  -3.66371e+67  -1.31227e+68  -1.01832e+67     3.717e+67   2.13065e+64
  -1.36635e+60  -1.01966e+63  -5.07123e+61    -1.794e+68  5.34498e+135 -2.72244e+202   1.63827e+68  -1.16531e+67  -3.66001e+67  -1.31147e+68   1.02219e+67   3.61277e+67  -2.78326e+65
   7.56805e+59  -1.01954e+63   3.10215e+61   1.38957e+68  3.69847e+135  2.15739e+202   1.24943e+68   1.56166e+67    3.6867e+67   8.64738e+67   1.02209e+67   3.61637e+67   1.85589e+66
   3.78971e+59  -9.41063e+62   2.96768e+61   1.39888e+68  3.88003e+135  2.42384e+202   1.25254e+68   1.61359e+67   3.70081e+67   8.67436e+67  -1.01584e+67  -3.49427e+67   1.68618e+66
  -6.80377e+59  -9.41186e+62  -4.83632e+61  -1.81952e+68  5.76585e+135 -3.39584e+202    1.6535e+68  -1.29079e+67  -3.72626e+67  -1.31782e+68  -1.01575e+67  -3.49786e+67   5.18863e+64
  -1.36092e+60  -9.39757e+62  -4.83794e+61  -1.81803e+68  5.67801e+135 -3.25672e+202   1.65452e+68  -1.28735e+67  -3.72266e+67  -1.31703e+68    1.0196e+67  -3.59936e+67  -2.42198e+65
   7.56807e+59  -9.39634e+62   2.96041e+61    1.3972e+68  3.79338e+135  2.02922e+202   1.25413e+68   1.60972e+67   3.69711e+67   8.66518e+67   1.01951e+67  -3.59576e+67    1.8207e+66
   2.88054e+60  -1.02052e+63   1.12763e+62   3.19244e+68  1.17523e+136  5.88749e+202   3.00274e+68   1.13986e+67   3.58888e+67   2.71957e+68  -1.02172e+67   3.66593e+67   8.28494e+66
   7.56805e+59  -1.01954e+63   3.10215e+61   6.50591e+65 -3.80467e+135  4.78869e+202   6.16854e+67  -1.62036e+67  -3.76327e+67   5.44869e+67  -1.01832e+67   3.69994e+67   2.90291e+66
   1.13242e+60   -1.0172e+63   3.09006e+61   5.56226e+65 -3.52547e+135  4.78143e+202   5.93783e+67  -1.62254e+67  -3.75944e+67    5.4376e+67   1.00992e+67   3.31318e+67   3.03904e+66
   4.31083e+60  -1.01818e+63   1.12435e+62   3.18391e+68  1.18904e+136  7.22044e+202   2.99136e+68   1.12018e+67   3.57521e+67   2.71437e+68   1.00652e+67    3.2793e+67   8.85456e+66
   2.87508e+60  -9.40598e+62   1.07595e+62   3.25615e+68  1.33774e+136  1.04213e+203   3.04381e+68   1.41346e+67   3.80415e+67   2.73439e+68  -1.01895e+67  -3.54696e+67   8.08467e+66
   7.56807e+59  -9.39634e+62   2.96041e+61   3.86244e+66 -3.63361e+135   4.5655e+202    6.0403e+67  -1.51599e+67  -3.62091e+67   5.52314e+67  -1.01569e+67  -3.51294e+67   2.84836e+66
   1.13243e+60  -9.37252e+62   2.94833e+61   3.76894e+66 -3.90967e+135  4.56971e+202   6.26409e+67  -1.51815e+67   -3.6172e+67   5.51224e+67   1.00746e+67  -3.89577e+67   2.98197e+66
   4.30274e+60  -9.38215e+62    1.0727e+62   3.24777e+68  1.29595e+136  8.55288e+202   3.04172e+68   1.39412e+67   3.79068e+67   2.72929e+68    1.0042e+67  -3.92966e+67   8.64374e+66
   7.56805e+59  -1.01954e+63   3.10215e+61   1.39045e+68   3.6582e+135  1.73263e+202   1.25201e+68   1.57335e+67   3.68871e+67    8.6424e+67  -1.01942e+67   3.68442e+67   2.90291e+66
  -1.36635e+60  -1.01966e+63  -5.07123e+61  -1.79539e+68  5.32597e+135 -2.51953e+202   1.64038e+68  -1.18749e+67  -3.66322e+67  -1.31032e+68   -1.0199e+67   3.68084e+67  -2.47779e+66
  -2.04523e+60  -1.01732e+63  -5.06259e+61  -1.79098e+68  5.55432e+135 -3.17598e+202   1.62856e+68  -1.17732e+67   -3.6539e+67  -1.30786e+68   1.00796e+67   3.29414e+67  -2.77495e+66
   1.13242e+60   -1.0172e+63   3.09006e+61   1.38727e+68  3.90373e+135   2.5598e+202   1.23861e+68   1.56603e+67   3.68054e+67   8.62617e+67   1.00845e+67   3.29772e+67   3.03904e+66
   7.56807e+59  -9.39634e+62   2.96041e+61   1.39805e+68  3.85101e+135  2.45469e+202   1.25277e+68   1.62114e+67   3.69906e+67   8.66027e+67  -1.01674e+67  -3.52789e+67   2.84836e+66
  -1.36092e+60  -9.39757e+62  -4.83794e+61  -1.81936e+68  5.75637e+135 -3.57322e+202   1.65362e+68  -1.30884e+67  -3.72573e+67  -1.31591e+68  -1.01722e+67  -3.53147e+67  -2.38672e+66
  -2.03716e+60  -9.37375e+62  -4.82951e+61  -1.81505e+68   5.4302e+135 -2.78514e+202   1.65873e+68  -1.29889e+67  -3.71665e+67   -1.3135e+68   1.00558e+67  -3.91425e+67  -2.67838e+66
   1.13243e+60  -9.37252e+62   2.94833e+61   1.39492e+68  3.54198e+135  1.53876e+202   1.26159e+68   1.61393e+67   3.69098e+67   8.64431e+67   1.00606e+67  -3.91067e+67   2.98197e+66
   3.78803e+50  -1.10608e+63   1.18201e+62   3.25166e+68  1.20584e+136  6.57949e+202   3.06063e+68   1.09586e+67   3.65078e+67     2.777e+68  -1.02332e+67   3.76516e+67    8.6024e+65
   4.89934e+50  -1.10508e+63   3.25627e+61   6.72163e+65 -3.97601e+135  5.34498e+202   6.30592e+67  -1.66606e+67  -3.83754e+67   5.57082e+67  -1.02272e+67   3.80069e+67   5.38396e+65
   3.78937e+59  -1.10462e+63   3.25385e+61   6.45042e+65 -3.95593e+135  5.40497e+202   6.28995e+67  -1.66669e+67  -3.83714e+67   5.56833e+67   1.02553e+67   3.77507e+67   6.77875e+65
   1.44403e+60  -1.10562e+63   1.18163e+62   3.25059e+68  1.20607e+136  6.73539e+202   3.05945e+68   1.09337e+67   3.64933e+67   2.77632e+68   1.02493e+67   3.73956e+67   1.44582e+66
   3.56441e+50   -1.0224e+63   1.12932e+62   3.31785e+68  1.38168e+136  1.03119e+203   3.10265e+68   1.38118e+67   3.87459e+67   2.79227e+68  -1.02071e+67  -3.59026e+67   8.35656e+65
   4.64674e+50  -1.02141e+63   3.11184e+61   4.00829e+66 -3.75671e+135  4.66503e+202    6.1423e+67  -1.55749e+67  -3.68948e+67   5.64781e+67  -1.02015e+67  -3.55473e+67   5.27849e+65
   3.78971e+59  -1.02095e+63   3.10941e+61   3.98128e+66 -3.77393e+135  4.60387e+202   6.15612e+67  -1.55812e+67  -3.68911e+67   5.64535e+67   1.02288e+67  -3.57969e+67   6.64696e+65
   1.44135e+60  -1.02193e+63   1.12894e+62   3.31679e+68  1.37817e+136  1.00757e+203   3.10208e+68   1.37873e+67   3.87314e+67    2.7916e+68   1.02232e+67   -3.6152e+67   1.41019e+66
   4.89934e+50  -1.10508e+63   3.25627e+61   1.41733e+68  3.77962e+135  2.02913e+202   1.27705e+68   1.58919e+67   3.75804e+67   8.82607e+67  -1.02272e+67   3.78446e+67   5.38396e+65
   6.00825e+50   -1.1052e+63  -5.30675e+61  -1.82764e+68  5.46215e+135 -2.79636e+202   1.67154e+68  -1.17413e+67  -3.73035e+67  -1.33719e+68  -1.02274e+67   3.78075e+67   2.16776e+65
   -6.8585e+59  -1.10474e+63  -5.30772e+61  -1.82745e+68   5.4792e+135 -2.80076e+202   1.67082e+68   -1.1737e+67  -3.72994e+67  -1.33708e+68   1.02492e+67   3.75514e+67  -8.93685e+64
   3.78937e+59  -1.10462e+63   3.25385e+61   1.41671e+68  3.79324e+135  2.14271e+202   1.27583e+68   1.58776e+67   3.75658e+67   8.82278e+67   1.02494e+67   3.75886e+67   6.77875e+65
   4.64674e+50  -1.02141e+63   3.11184e+61   1.42518e+68  4.02117e+135  2.49048e+202   1.27633e+68   1.63888e+67   3.76873e+67   8.84418e+67  -1.02015e+67  -3.57033e+67   5.27849e+65
   5.73194e+50  -1.02154e+63  -5.06874e+61  -1.85258e+68  5.95636e+135  -3.5553e+202   1.68416e+68    -1.301e+67  -3.79532e+67  -1.34294e+68  -1.02017e+67  -3.57404e+67   2.20259e+65
  -6.83119e+59  -1.02107e+63  -5.06975e+61   -1.8524e+68  5.93628e+135 -3.53387e+202   1.68456e+68  -1.30059e+67  -3.79495e+67  -1.34284e+68   1.02231e+67  -3.59899e+67  -8.01096e+64
   3.78971e+59  -1.02095e+63   3.10941e+61   1.42457e+68  3.99764e+135  2.36268e+202   1.27657e+68   1.63748e+67   3.76728e+67   8.84095e+67   1.02233e+67  -3.59527e+67   6.64696e+65
   1.44403e+60  -1.10562e+63   1.18163e+62    3.2515e+68  1.20664e+136  6.41238e+202   3.06033e+68   1.10521e+67   3.65144e+67   2.77584e+68  -1.02202e+67   3.77368e+67   3.51744e+66
   3.78937e+59  -1.10462e+63   3.25385e+61   6.90538e+65  -3.9805e+135  5.25125e+202    6.3095e+67  -1.66065e+67  -3.83609e+67    5.5658e+67  -1.02039e+67   3.80917e+67   1.75252e+66
   7.56751e+59  -1.10323e+63   3.24658e+61   5.99974e+65 -3.89721e+135   5.3954e+202   6.24305e+67  -1.66274e+67  -3.83536e+67    5.5581e+67    1.0258e+67   3.70165e+67   1.89185e+66
   2.88586e+60  -1.10423e+63    1.1803e+62   3.24722e+68  1.20778e+136  6.93583e+202    3.0556e+68   1.09534e+67   3.64439e+67   2.77325e+68   1.02418e+67   3.66625e+67   4.10146e+66
   1.44135e+60  -1.02193e+63   1.12894e+62   3.31766e+68  1.38367e+136  1.05565e+203   3.10213e+68   1.39012e+67   3.87516e+67   2.79113e+68  -1.01941e+67  -3.58117e+67   3.41599e+66
   3.78971e+59  -1.02095e+63   3.10941e+61   4.02797e+66 -3.74828e+135  4.73161e+202   6.13556e+67  -1.55209e+67  -3.68803e+67   5.64292e+67  -1.01788e+67  -3.54568e+67   1.71817e+66
   7.56805e+59  -1.01954e+63   3.10215e+61   3.93701e+66 -3.82135e+135  4.58468e+202   6.19423e+67  -1.55419e+67  -3.68743e+67   5.63532e+67   1.02319e+67  -3.65033e+67   1.85487e+66
   2.88054e+60  -1.02052e+63   1.12763e+62   3.31344e+68  1.36911e+136  9.74176e+202   3.09997e+68   1.38038e+67   3.86812e+67   2.78859e+68   1.02167e+67  -3.68574e+67   3.98898e+66
   3.78937e+59  -1.10462e+63   3.25385e+61   1.41717e+68  3.77302e+135  1.92275e+202   1.27713e+68    1.5938e+67   3.75763e+67   8.82025e+67  -1.02098e+67   3.79295e+67   1.75252e+66
   -6.8585e+59  -1.10474e+63  -5.30772e+61  -1.82746e+68  5.45419e+135 -2.77349e+202   1.67159e+68  -1.17351e+67  -3.72998e+67  -1.33711e+68  -1.02085e+67   3.78923e+67  -1.11377e+64
  -1.37175e+60  -1.10336e+63  -5.30905e+61  -1.82585e+68  5.51732e+135 -2.85887e+202   1.66793e+68  -1.16978e+67  -3.72603e+67  -1.33626e+68   1.02475e+67   3.68177e+67  -3.16007e+65
   7.56751e+59  -1.10323e+63   3.24658e+61   1.41542e+68   3.8379e+135  2.30295e+202   1.27264e+68   1.58976e+67   3.75381e+67    8.8106e+67   1.02462e+67   3.68551e+67   1.89185e+66
   3.78971e+59  -1.02095e+63   3.10941e+61   1.42504e+68  4.02768e+135  2.58636e+202   1.27592e+68    1.6435e+67   3.76835e+67   8.83851e+67  -1.01843e+67  -3.56126e+67   1.71817e+66
  -6.83119e+59  -1.02107e+63  -5.06975e+61  -1.85234e+68   5.9603e+135 -3.57827e+202   1.68379e+68  -1.29995e+67  -3.79483e+67  -1.34286e+68  -1.01832e+67  -3.56498e+67   2.15121e+64
  -1.36635e+60  -1.01966e+63  -5.07123e+61  -1.85077e+68  5.86765e+135 -3.42625e+202   1.68481e+68  -1.29632e+67  -3.79101e+67  -1.34203e+68   1.02219e+67  -3.66959e+67  -2.77605e+65
   7.56805e+59  -1.01954e+63   3.10215e+61   1.42331e+68  3.93672e+135  2.17177e+202   1.27755e+68   1.63952e+67   3.76455e+67   8.82903e+67   1.02209e+67  -3.66585e+67   1.85487e+66
   2.88586e+60  -1.10423e+63    1.1803e+62    3.2506e+68  1.21331e+136  6.15073e+202   3.05828e+68   1.14284e+67   3.65218e+67    2.7711e+68  -1.02447e+67   3.73454e+67   8.49214e+66
   7.56751e+59  -1.10323e+63   3.24658e+61   6.88192e+65 -3.94673e+135  5.08732e+202   6.28267e+67  -1.65086e+67  -3.83333e+67   5.55301e+67   -1.0209e+67   3.76988e+67   2.95964e+66
   1.13235e+60  -1.10093e+63   3.23448e+61    5.8795e+65 -3.65859e+135   5.0759e+202   6.04891e+67  -1.65318e+67  -3.82944e+67   5.54142e+67   1.01235e+67   3.37851e+67   3.09822e+66
   4.31875e+60  -1.10193e+63     1.177e+62   3.24183e+68  1.22735e+136  7.53883e+202   3.04665e+68   1.12259e+67   3.63812e+67   2.76575e+68   1.00878e+67   3.34332e+67   9.07185e+66
   2.88054e+60  -1.02052e+63   1.12763e+62   3.31672e+68  1.38461e+136  1.09777e+203   3.10097e+68   1.42667e+67   3.87567e+67   2.78648e+68  -1.02172e+67  -3.61763e+67   8.28235e+66
   7.56805e+59  -1.01954e+63   3.10215e+61   4.02418e+66 -3.77042e+135  4.83908e+202   6.15354e+67   -1.5425e+67  -3.68542e+67   5.63034e+67  -1.01832e+67  -3.58228e+67   2.90189e+66
   1.13242e+60   -1.0172e+63   3.09006e+61   3.92355e+66 -4.05503e+135   4.8475e+202   6.37999e+67  -1.54483e+67  -3.68174e+67   5.61892e+67   1.00992e+67  -3.96965e+67   3.03785e+66
   4.31083e+60  -1.01818e+63   1.12435e+62   3.30808e+68  1.34126e+136  9.01906e+202   3.09873e+68   1.40674e+67   3.86176e+67   2.78123e+68   1.00652e+67  -4.00485e+67   8.85111e+66
   7.56751e+59  -1.10323e+63   3.24658e+61    1.4163e+68  3.79681e+135  1.86031e+202   1.27523e+68   1.60164e+67   3.75584e+67   8.80551e+67  -1.02207e+67   3.75373e+67   2.95964e+66
  -1.37175e+60  -1.10336e+63  -5.30905e+61  -1.82731e+68  5.49895e+135 -2.64372e+202   1.67008e+68  -1.19274e+67  -3.72942e+67   -1.3351e+68  -1.02253e+67   3.75001e+67  -2.57122e+66
  -2.05324e+60  -1.10105e+63   -5.3002e+61  -1.82282e+68  5.73408e+135 -3.33128e+202   1.65809e+68  -1.18237e+67  -3.71983e+67   -1.3326e+68   1.01032e+67   3.35868e+67  -2.87343e+66
   1.13235e+60  -1.10093e+63   3.23448e+61   1.41303e+68  4.04957e+135  2.72466e+202   1.26162e+68   1.59408e+67    3.7475e+67   8.78868e+67   1.01078e+67   3.36243e+67   3.09822e+66
   7.56805e+59  -1.01954e+63   3.10215e+61   1.42418e+68  3.99584e+135  2.61478e+202   1.27621e+68    1.6512e+67   3.76656e+67   8.82405e+67  -1.01942e+67   -3.5978e+67   2.90189e+66
  -1.36635e+60  -1.01966e+63  -5.07123e+61  -1.85216e+68   5.9486e+135 -3.76171e+202   1.68393e+68   -1.3185e+67  -3.79422e+67  -1.34089e+68   -1.0199e+67  -3.60152e+67  -2.47706e+66
  -2.04523e+60  -1.01732e+63  -5.06259e+61  -1.84777e+68  5.61195e+135 -2.93442e+202    1.6891e+68  -1.30838e+67  -3.78496e+67  -1.33844e+68   1.00796e+67  -3.98886e+67  -2.77357e+66
   1.13242e+60   -1.0172e+63   3.09006e+61   1.42095e+68   3.6765e+135  1.65589e+202   1.28508e+68   1.64374e+67   3.75824e+67   8.80748e+67   1.00845e+67  -3.98511e+67   3.03785e+66
   4.02113e+50  -1.19362e+63   1.23574e+62   3.31223e+68  1.24579e+136  6.88587e+202   3.11851e+68   1.09858e+67   3.71661e+67   2.83071e+68  -1.02587e+67   3.84029e+67   8.85753e+65
   5.14487e+50   -1.1926e+63   3.40351e+61   7.18939e+65    -4.13e+135  5.68182e+202   6.42691e+67  -1.69731e+67  -3.91042e+67   5.67962e+67  -1.02525e+67   3.87727e+67   5.48864e+65
   3.78796e+59  -1.19215e+63   3.40109e+61   6.94102e+65 -4.10889e+135  5.74297e+202   6.41044e+67  -1.69789e+67  -3.90994e+67   5.67724e+67   1.02812e+67   3.85082e+67   6.88972e+65
   1.44655e+60  -1.19317e+63   1.23535e+62   3.31114e+68  1.24606e+136  7.04949e+202    3.1173e+68   1.09605e+67   3.71513e+67   2.83002e+68   1.02751e+67   3.81386e+67    1.4797e+66
   3.78803e+50  -1.10608e+63   1.18201e+62   3.38081e+68  1.43138e+136  1.08818e+203   3.16205e+68   1.39391e+67   3.94883e+67   2.84654e+68  -1.02332e+67  -3.65995e+67   8.60237e+65
   4.89934e+50  -1.10508e+63   3.25627e+61   4.17331e+66 -3.89858e+135  4.94932e+202   6.25779e+67  -1.58526e+67  -3.75675e+67   5.75934e+67  -1.02272e+67  -3.62297e+67   5.38396e+65
   3.78937e+59  -1.10462e+63   3.25385e+61   4.14892e+66 -3.91671e+135  4.88624e+202    6.2721e+67  -1.58583e+67  -3.75628e+67     5.757e+67   1.02553e+67  -3.64872e+67    6.7581e+65
   1.44403e+60  -1.10562e+63   1.18163e+62   3.37974e+68  1.42772e+136   1.0634e+203   3.16147e+68   1.39143e+67   3.94738e+67   2.84586e+68   1.02493e+67  -3.68568e+67   1.44276e+66
   5.14487e+50   -1.1926e+63   3.40351e+61   1.44433e+68  3.92451e+135  2.17281e+202    1.3014e+68   1.61916e+67   3.82802e+67    8.9961e+67  -1.02525e+67   3.86035e+67   5.48864e+65
   6.27224e+50  -1.19273e+63  -5.54949e+61  -1.86074e+68  5.63924e+135 -2.93247e+202   1.70247e+68  -1.17822e+67  -3.79905e+67  -1.36301e+68  -1.02527e+67   3.85651e+67   2.12036e+65
  -6.88642e+59  -1.19228e+63  -5.55042e+61  -1.86048e+68  5.65659e+135 -2.93797e+202   1.70168e+68  -1.17763e+67  -3.79849e+67  -1.36287e+68   1.02749e+67   3.83007e+67  -1.01315e+65
   3.78796e+59  -1.19215e+63   3.40109e+61   1.44373e+68  3.93919e+135  2.29219e+202   1.30017e+68   1.61778e+67    3.8266e+67    8.9929e+67   1.02752e+67   3.83391e+67   6.88972e+65
   4.89934e+50  -1.10508e+63   3.25627e+61   1.45234e+68  4.17778e+135  2.66343e+202   1.30058e+68   1.66998e+67   3.83883e+67   9.01459e+67  -1.02272e+67  -3.63921e+67   5.38396e+65
   6.00825e+50   -1.1052e+63  -5.30675e+61  -1.88673e+68  6.16262e+135 -3.74973e+202   1.71566e+68  -1.31052e+67  -3.86673e+67  -1.36901e+68  -1.02274e+67  -3.64305e+67   2.16781e+65
   -6.8585e+59  -1.10474e+63  -5.30772e+61  -1.88648e+68  6.14084e+135 -3.72464e+202   1.71602e+68  -1.30994e+67  -3.86618e+67  -1.36887e+68   1.02492e+67  -3.66878e+67  -9.05444e+64
   3.78937e+59  -1.10462e+63   3.25385e+61   1.45175e+68   4.1534e+135   2.5298e+202   1.30086e+68   1.66862e+67   3.83744e+67   9.01145e+67   1.02494e+67  -3.66494e+67    6.7581e+65
   1.44655e+60  -1.19317e+63   1.23535e+62   3.31201e+68  1.24654e+136  6.70724e+202   3.11815e+68   1.10788e+67   3.71714e+67   2.82951e+68  -1.02459e+67   3.84807e+67   3.62055e+66
   3.78796e+59  -1.19215e+63   3.40109e+61   7.30657e+65 -4.13406e+135  5.58477e+202   6.43008e+67  -1.69226e+67   -3.9091e+67   5.67442e+67  -1.02286e+67     3.885e+67   1.78575e+66
   7.56535e+59  -1.19079e+63   3.39381e+61    6.4241e+65 -4.04651e+135  5.73049e+202   6.36154e+67   -1.6943e+67   -3.9082e+67   5.66674e+67   1.02837e+67   3.77415e+67   1.92673e+66
   2.89093e+60  -1.19181e+63   1.23401e+62   3.30762e+68  1.24781e+136  7.25745e+202   3.11329e+68   1.09776e+67   3.70995e+67   2.82685e+68   1.02665e+67    3.7373e+67   4.21411e+66
   1.44403e+60  -1.10562e+63   1.18163e+62   3.38066e+68  1.43347e+136  1.11401e+203   3.16154e+68   1.40327e+67   3.94949e+67   2.84538e+68  -1.02202e+67  -3.65157e+67   3.51438e+66
   3.78937e+59  -1.10462e+63   3.25385e+61   4.19444e+66 -3.89051e+135  5.01938e+202   6.25148e+67  -1.57979e+67  -3.75523e+67   5.75446e+67  -1.02039e+67  -3.61463e+67   1.75045e+66
   7.56751e+59  -1.10323e+63   3.24658e+61   4.10597e+66 -3.96732e+135  4.86942e+202   6.31204e+67  -1.58183e+67  -3.75445e+67   5.74688e+67    1.0258e+67  -3.72252e+67   1.88873e+66
   2.88586e+60  -1.10423e+63    1.1803e+62   3.37634e+68  1.41823e+136  1.02824e+203   3.15934e+68   1.39331e+67   3.94234e+67   2.84277e+68   1.02418e+67  -3.75938e+67   4.09652e+66
   3.78796e+59  -1.19215e+63   3.40109e+61   1.44409e+68  3.91755e+135  2.06171e+202    1.3014e+68    1.6234e+67   3.82745e+67   8.99008e+67  -1.02347e+67   3.86809e+67   1.78575e+66
  -6.88642e+59  -1.19228e+63  -5.55042e+61  -1.86065e+68  5.63325e+135 -2.91033e+202   1.70255e+68  -1.17834e+67  -3.79888e+67  -1.36292e+68  -1.02333e+67   3.86425e+67  -4.81536e+64
  -1.37721e+60  -1.19092e+63  -5.55159e+61  -1.85889e+68  5.69869e+135 -3.00449e+202    1.6987e+68  -1.17428e+67  -3.79457e+67    -1.362e+68   1.02726e+67   3.75342e+67  -3.59115e+65
   7.56535e+59  -1.19079e+63   3.39381e+61   1.44234e+68  3.98626e+135  2.46152e+202   1.29681e+68   1.61935e+67   3.82363e+67   8.98038e+67   1.02712e+67   3.75728e+67   1.92673e+66
   3.78937e+59  -1.10462e+63   3.25385e+61   1.45221e+68  4.18396e+135   2.7623e+202   1.30019e+68   1.67466e+67   3.83849e+67   9.00891e+67  -1.02098e+67  -3.63084e+67   1.75045e+66
   -6.8585e+59  -1.10474e+63  -5.30772e+61   -1.8865e+68  6.16646e+135 -3.77585e+202   1.71529e+68  -1.30976e+67  -3.86621e+67   -1.3689e+68  -1.02085e+67  -3.63468e+67  -1.23083e+64
  -1.37175e+60  -1.10336e+63  -5.30905e+61  -1.88478e+68  6.06808e+135 -3.60854e+202   1.71627e+68  -1.30579e+67  -3.86202e+67    -1.368e+68   1.02475e+67  -3.74252e+67  -3.17289e+65
   7.56751e+59  -1.10323e+63   3.24658e+61   1.45048e+68  4.08884e+135   2.3271e+202   1.30192e+68   1.67067e+67   3.83471e+67   8.99938e+67   1.02462e+67  -3.73867e+67   1.88873e+66
   2.89093e+60  -1.19181e+63   1.23401e+62   3.31103e+68  1.25352e+136  6.43261e+202   3.11599e+68   1.14611e+67   3.71781e+67   2.82464e+68  -1.02722e+67   3.80576e+67   8.70758e+66
   7.56535e+59  -1.19079e+63   3.39381e+61   7.24838e+65 -4.09716e+135  5.41054e+202   6.40132e+67  -1.68257e+67   -3.9063e+67   5.66135e+67  -1.02344e+67   3.84254e+67   3.01821e+66
    1.1321e+60  -1.18852e+63    3.3817e+61   6.16751e+65 -3.79961e+135  5.39449e+202    6.1644e+67  -1.68506e+67  -3.90236e+67    5.6491e+67   1.01477e+67   3.44649e+67   3.15929e+66
   4.32637e+60  -1.18954e+63   1.23068e+62   3.30198e+68  1.26777e+136  7.87883e+202   3.10408e+68   1.12523e+67   3.70336e+67   2.81912e+68   1.01098e+67   3.40989e+67   9.29778e+66
   2.88586e+60  -1.10423e+63    1.1803e+62   3.37971e+68  1.43434e+136  1.15801e+203    3.1604e+68   1.44081e+67   3.95013e+67   2.84062e+68  -1.02447e+67  -3.69109e+67   8.48719e+66
   7.56751e+59  -1.10323e+63   3.24658e+61   4.19421e+66 -3.91523e+135  5.13402e+202   6.27122e+67  -1.56995e+67  -3.75242e+67   5.74179e+67   -1.0209e+67   -3.6543e+67   2.95651e+66
   1.13235e+60  -1.10093e+63   3.23448e+61   4.08456e+66 -4.20873e+135  5.14725e+202   6.50032e+67  -1.57248e+67  -3.74875e+67   5.72969e+67   1.01235e+67  -4.04629e+67   3.09487e+66
   4.31875e+60  -1.10193e+63     1.177e+62    3.3708e+68  1.38934e+136  9.52504e+202     3.158e+68   1.42025e+67   3.93577e+67    2.8352e+68   1.00878e+67   -4.0829e+67   9.06604e+66
   7.56535e+59  -1.19079e+63   3.39381e+61   1.44316e+68  3.94359e+135   1.9991e+202   1.29937e+68   1.63107e+67   3.82554e+67     8.975e+67  -1.02469e+67   3.82567e+67   3.01821e+66
  -1.37721e+60  -1.19092e+63  -5.55159e+61   -1.8605e+68  5.68196e+135 -2.77761e+202   1.70096e+68  -1.19838e+67  -3.79829e+67  -1.36083e+68   -1.0251e+67   3.82184e+67  -2.66945e+66
  -2.06127e+60  -1.18865e+63  -5.54254e+61  -1.85593e+68  5.92424e+135 -3.49841e+202    1.6888e+68  -1.18783e+67  -3.78843e+67   -1.3583e+68   1.01266e+67    3.4258e+67  -2.97687e+66
    1.1321e+60  -1.18852e+63    3.3817e+61   1.43977e+68  4.20376e+135  2.90271e+202   1.28552e+68   1.62324e+67   3.81701e+67   8.95741e+67   1.01306e+67   3.42969e+67   3.15929e+66
   7.56751e+59  -1.10323e+63   3.24658e+61   1.45136e+68  4.14935e+135  2.78823e+202   1.30058e+68   1.68255e+67   3.83675e+67   8.99429e+67  -1.02208e+67  -3.67044e+67   2.95651e+66
  -1.37175e+60  -1.10336e+63  -5.30905e+61  -1.88624e+68   6.1519e+135 -3.96494e+202   1.71544e+68  -1.32874e+67  -3.86541e+67  -1.36683e+68  -1.02253e+67  -3.67428e+67   -2.5725e+66
  -2.05324e+60  -1.10105e+63   -5.3002e+61   -1.8818e+68  5.80436e+135 -3.09565e+202   1.72067e+68  -1.31848e+67  -3.85594e+67  -1.36436e+68   1.01032e+67  -4.06625e+67  -2.87401e+66
   1.13235e+60  -1.10093e+63   3.23448e+61   1.44799e+68   3.8191e+135  1.78362e+202   1.30949e+68   1.67478e+67   3.82819e+67   8.97695e+67   1.01078e+67  -4.06237e+67   3.09487e+66
    4.2404e+50   -1.2851e+63   1.29054e+62   3.37537e+68  1.28868e+136  7.23242e+202   3.17875e+68   1.10332e+67   3.78531e+67   2.88651e+68  -1.02832e+67   3.91839e+67   9.10103e+65
   5.39265e+50  -1.28406e+63   3.55364e+61   7.78128e+65 -4.29262e+135  6.04075e+202   6.55227e+67  -1.72838e+67  -3.98605e+67   5.79224e+67  -1.02771e+67   3.95689e+67   5.57333e+65
   3.78395e+59  -1.28361e+63   3.55123e+61   7.64111e+65 -4.27063e+135   6.1019e+202   6.53545e+67   -1.7287e+67  -3.98537e+67   5.79048e+67   1.03064e+67   3.92958e+67    6.9516e+65
   1.44874e+60  -1.28465e+63   1.29014e+62   3.37435e+68  1.28914e+136  7.40622e+202    3.1776e+68   1.10097e+67   3.78397e+67   2.88586e+68   1.03003e+67   3.89107e+67    1.5093e+66
   4.02113e+50  -1.19362e+63   1.23574e+62   3.44622e+68  1.48406e+136  1.15005e+203   3.22372e+68   1.40779e+67    4.0258e+67   2.90286e+68  -1.02587e+67  -3.73236e+67   8.85756e+65
   5.14487e+50   -1.1926e+63   3.40351e+61    4.3346e+66 -4.04837e+135  5.25544e+202   6.37743e+67  -1.61387e+67  -3.82698e+67   5.87431e+67  -1.02525e+67  -3.69386e+67   5.48871e+65
   3.78796e+59  -1.19215e+63   3.40109e+61    4.3229e+66 -4.06765e+135  5.18991e+202   6.39245e+67  -1.61414e+67   -3.8262e+67   5.87263e+67   1.02812e+67  -3.72045e+67   6.83996e+65
   1.44655e+60  -1.19317e+63   1.23535e+62   3.44524e+68  1.48044e+136  1.12445e+203   3.22323e+68   1.40554e+67    4.0246e+67   2.90223e+68   1.02751e+67  -3.75896e+67    1.4732e+66
   5.39265e+50  -1.28406e+63   3.55364e+61   1.47254e+68  4.08009e+135   2.3323e+202   1.32679e+68   1.65184e+67   3.90111e+67   9.17245e+67  -1.02771e+67   3.93928e+67   5.57333e+65
   6.54241e+50  -1.28419e+63  -5.79716e+61  -1.89504e+68  5.82377e+135 -3.07275e+202   1.73459e+68  -1.18118e+67  -3.87023e+67   -1.3899e+68  -1.02778e+67   3.93529e+67   2.03877e+65
  -6.91653e+59  -1.28374e+63  -5.79804e+61  -1.89462e+68  5.84058e+135 -3.07901e+202   1.73365e+68  -1.18022e+67  -3.86937e+67  -1.38966e+68   1.03001e+67   3.90796e+67   -1.2003e+65
   3.78395e+59  -1.28361e+63   3.55123e+61   1.47204e+68   4.0966e+135  2.45812e+202   1.32561e+68   1.65068e+67   3.89985e+67   9.16986e+67   1.03007e+67   3.91191e+67    6.9516e+65
   5.14487e+50   -1.1926e+63   3.40351e+61   1.48049e+68  4.34333e+135   2.8508e+202   1.32571e+68    1.7026e+67   3.91146e+67   9.19079e+67  -1.02525e+67  -3.71078e+67   5.48871e+65
   6.27224e+50  -1.19273e+63  -5.54949e+61   -1.9224e+68   6.3821e+135 -3.96062e+202   1.74855e+68  -1.32054e+67  -3.94136e+67  -1.39621e+68  -1.02527e+67  -3.71477e+67   2.12047e+65
  -6.88642e+59  -1.19228e+63  -5.55042e+61  -1.92197e+68  6.35739e+135 -3.92945e+202   1.74878e+68  -1.31954e+67   -3.9404e+67  -1.39598e+68   1.02749e+67  -3.74132e+67  -1.05509e+65
   3.78796e+59  -1.19215e+63   3.40109e+61   1.48002e+68  4.31886e+135  2.71234e+202   1.32611e+68   1.70152e+67   3.91034e+67   9.18829e+67   1.02752e+67  -3.73736e+67   6.83996e+65
   1.44874e+60  -1.28465e+63   1.29014e+62   3.37495e+68  1.28893e+136  7.03109e+202   3.17826e+68   1.11152e+67   3.78533e+67   2.88526e+68  -1.02705e+67   3.92535e+67   3.72088e+66
   3.78395e+59  -1.28361e+63   3.55123e+61     7.719e+65 -4.29654e+135  5.94415e+202   6.55525e+67  -1.72455e+67  -3.98519e+67   5.78693e+67   -1.0253e+67   3.96384e+67   1.81333e+66
   7.55932e+59  -1.28228e+63   3.54397e+61   7.02301e+65 -4.20488e+135  6.08908e+202   6.48488e+67  -1.72616e+67  -3.98387e+67   5.78026e+67   1.03087e+67   3.84957e+67   1.95463e+66
   2.89548e+60  -1.28332e+63   1.28879e+62   3.37064e+68  1.29063e+136  7.61366e+202   3.17342e+68    1.1016e+67   3.77833e+67   2.88265e+68   1.02912e+67   3.81111e+67   4.32275e+66
   1.44655e+60  -1.19317e+63   1.23535e+62   3.44611e+68  1.48622e+136  1.17713e+203   3.22327e+68   1.41737e+67   4.02661e+67   2.90171e+68  -1.02459e+67  -3.72476e+67   3.61404e+66
   3.78796e+59  -1.19215e+63   3.40109e+61   4.35952e+66 -4.04092e+135  5.32981e+202   6.37175e+67  -1.60851e+67  -3.82535e+67   5.86982e+67  -1.02286e+67  -3.68626e+67   1.78077e+66
   7.56535e+59  -1.19079e+63   3.39381e+61   4.29345e+66 -4.12201e+135  5.17585e+202   6.43463e+67  -1.61004e+67  -3.82395e+67   5.86333e+67   1.02837e+67  -3.79752e+67    1.9193e+66
   2.89093e+60  -1.19181e+63   1.23401e+62   3.44192e+68  1.47067e+136  1.08762e+203    3.2212e+68   1.40769e+67   4.01986e+67   2.89916e+68   1.02665e+67  -3.83599e+67   4.20411e+66
   3.78395e+59  -1.28361e+63   3.55123e+61   1.47212e+68  4.07138e+135  2.21457e+202   1.32665e+68   1.65483e+67   3.90003e+67   9.16631e+67  -1.02586e+67   3.94618e+67   1.81333e+66
  -6.91653e+59  -1.28374e+63  -5.79804e+61  -1.89516e+68  5.82202e+135 -3.05508e+202   1.73477e+68    -1.183e+67   -3.8706e+67   -1.3898e+68  -1.02579e+67   3.94222e+67  -9.57452e+64
  -1.38297e+60  -1.28241e+63  -5.79903e+61  -1.89306e+68  5.88819e+135 -3.15783e+202   1.73057e+68  -1.17817e+67  -3.86564e+67  -1.38868e+68    1.0297e+67   3.82791e+67  -4.14441e+65
   7.55932e+59  -1.28228e+63   3.54397e+61   1.47051e+68  4.14546e+135  2.63576e+202   1.32207e+68   1.65112e+67   3.89645e+67   9.15754e+67   1.02962e+67   3.83181e+67   1.95463e+66
   3.78796e+59  -1.19215e+63   3.40109e+61   1.48038e+68  4.34914e+135  2.95243e+202   1.32537e+68   1.70715e+67   3.91119e+67   9.18548e+67  -1.02347e+67  -3.70318e+67   1.78077e+66
  -6.88642e+59  -1.19228e+63  -5.55042e+61  -1.92214e+68  6.38586e+135 -3.99096e+202   1.74815e+68  -1.32026e+67  -3.94078e+67  -1.39603e+68  -1.02333e+67  -3.70714e+67  -5.23345e+64
  -1.37721e+60  -1.19092e+63  -5.55159e+61  -1.92005e+68   6.2791e+135 -3.80279e+202   1.74891e+68  -1.31543e+67  -3.93571e+67  -1.39493e+68   1.02726e+67   -3.8183e+67  -3.64782e+65
   7.56535e+59  -1.19079e+63   3.39381e+61   1.47885e+68  4.25126e+135  2.49796e+202   1.32735e+68    1.7036e+67   3.90789e+67   9.17697e+67   1.02712e+67  -3.81439e+67    1.9193e+66
   2.89548e+60  -1.28332e+63   1.28879e+62   3.37385e+68  1.29595e+136  6.73427e+202   3.17599e+68    1.1496e+67   3.78572e+67   2.88032e+68  -1.02993e+67   3.87974e+67   8.92824e+66
   7.55932e+59  -1.28228e+63   3.54397e+61   7.58405e+65 -4.25682e+135  5.76169e+202   6.52487e+67  -1.71565e+67  -3.98258e+67   5.77407e+67  -1.02597e+67   3.91813e+67   3.07591e+66
   1.13147e+60  -1.28005e+63   3.53184e+61   6.44394e+65  -3.9495e+135  5.74003e+202   6.28484e+67  -1.71828e+67   -3.9786e+67   5.76132e+67   1.01712e+67   3.51733e+67   3.21981e+66
   4.33343e+60  -1.28109e+63   1.28544e+62   3.36455e+68  1.31045e+136  8.24211e+202   3.16382e+68   1.12815e+67   3.77088e+67   2.87465e+68   1.01316e+67   3.47909e+67   9.52959e+66
   2.89093e+60  -1.19181e+63   1.23401e+62   3.44532e+68   1.4872e+136  1.22342e+203   3.22228e+68   1.45604e+67   4.02772e+67   2.89695e+68  -1.02722e+67  -3.76753e+67   8.69756e+66
   7.56535e+59  -1.19079e+63   3.39381e+61   4.37595e+66 -4.06878e+135  5.45206e+202   6.39369e+67  -1.59831e+67  -3.82204e+67   5.85795e+67  -1.02344e+67  -3.72913e+67   3.01076e+66
    1.1321e+60  -1.18852e+63    3.3817e+61   4.26262e+66  -4.3716e+135  5.47037e+202   6.62554e+67  -1.60092e+67  -3.81823e+67   5.84541e+67   1.01477e+67  -4.12583e+67   3.15184e+66
   4.32637e+60  -1.18954e+63   1.23068e+62    3.4362e+68  1.44059e+136  1.00791e+203   3.21976e+68   1.43497e+67   4.01309e+67   2.89139e+68   1.01098e+67  -4.16407e+67   9.28712e+66
   7.55932e+59  -1.28228e+63   3.54397e+61   1.47107e+68  4.09897e+135  2.15018e+202   1.32445e+68   1.66163e+67   3.89775e+67   9.15135e+67  -1.02721e+67   3.90037e+67   3.07591e+66
  -1.38297e+60  -1.28241e+63  -5.79903e+61  -1.89503e+68  5.87615e+135 -2.92243e+202   1.73307e+68  -1.20456e+67  -3.87019e+67  -1.38756e+68  -1.02761e+67   3.89648e+67  -2.77607e+66
  -2.06955e+60  -1.28018e+63  -5.78977e+61  -1.89035e+68  6.12562e+135 -3.67879e+202   1.72071e+68  -1.19375e+67  -3.86004e+67  -1.38497e+68   1.01493e+67   3.49568e+67  -3.08857e+66
   1.13147e+60  -1.28005e+63   3.53184e+61   1.46757e+68    4.367e+135  3.09507e+202   1.31037e+68   1.65355e+67     3.889e+67   9.13315e+67   1.01533e+67   3.49957e+67   3.21981e+66
   7.56535e+59  -1.19079e+63   3.39381e+61   1.47967e+68  4.31248e+135  2.97666e+202   1.32596e+68   1.71533e+67   3.90979e+67   9.17159e+67  -1.02469e+67    -3.746e+67   3.01076e+66
  -1.37721e+60  -1.19092e+63  -5.55159e+61  -1.92166e+68  6.36692e+135 -4.18415e+202   1.74816e+68  -1.33953e+67  -3.93943e+67  -1.39376e+68   -1.0251e+67  -3.74988e+67  -2.67513e+66
  -2.06127e+60  -1.18865e+63  -5.54254e+61  -1.91708e+68  6.00721e+135 -3.26836e+202   1.75342e+68  -1.32896e+67  -3.92955e+67  -1.39123e+68   1.01265e+67  -4.14652e+67  -2.98151e+66
    1.1321e+60  -1.18852e+63    3.3817e+61   1.47622e+68  3.97126e+135  1.92421e+202   1.33496e+68   1.70738e+67   3.90115e+67   9.15372e+67   1.01306e+67  -4.14263e+67   3.15184e+66
   4.47971e+50   -1.3806e+63   1.34644e+62    3.4413e+68  1.33531e+136  7.64123e+202   3.24148e+68    1.1117e+67   3.85744e+67   2.94438e+68  -1.03054e+67   3.99965e+67   9.27794e+65
   5.62979e+50  -1.37954e+63   3.70673e+61   8.51376e+65 -4.46347e+135  6.41854e+202   6.68147e+67  -1.75816e+67  -4.06437e+67   5.90767e+67  -1.03008e+67   4.03965e+67   5.58682e+65
    3.7751e+59   -1.3791e+63   3.70436e+61   8.68639e+65  -4.4411e+135  6.47678e+202   6.66472e+67  -1.75776e+67  -4.06322e+67   5.90784e+67   1.03296e+67   4.01147e+67     6.898e+65
   1.45029e+60  -1.38016e+63   1.34605e+62   3.44059e+68  1.33633e+136  7.82993e+202   3.24057e+68   1.11005e+67   3.85654e+67   2.94393e+68    1.0325e+67   3.97135e+67   1.52681e+66
    4.2404e+50   -1.2851e+63   1.29054e+62   3.51403e+68   1.5399e+136  1.21754e+203   3.28762e+68   1.42329e+67   4.10528e+67   2.96117e+68  -1.02832e+67  -3.80754e+67   9.10126e+65
   5.39265e+50  -1.28406e+63   3.55364e+61   4.47447e+66  -4.2059e+135  5.58377e+202   6.50071e+67  -1.64308e+67  -3.90075e+67   5.99128e+67  -1.02771e+67  -3.76753e+67   5.57357e+65
   3.78395e+59  -1.28361e+63   3.55123e+61   4.50018e+66 -4.22682e+135  5.51449e+202   6.51696e+67  -1.64249e+67  -3.89915e+67   5.99165e+67   1.03064e+67    -3.795e+67   6.85853e+65
   1.44874e+60  -1.28465e+63   1.29014e+62   3.51341e+68  1.53678e+136  1.19208e+203   3.28745e+68   1.42188e+67   4.10488e+67   2.96074e+68   1.03003e+67  -3.83513e+67   1.49717e+66
   5.62979e+50  -1.37954e+63   3.70673e+61   1.50206e+68  4.24835e+135  2.51194e+202   1.35327e+68   1.68848e+67   3.97778e+67    9.3543e+67  -1.03008e+67   4.02152e+67   5.58682e+65
   6.77641e+50  -1.37967e+63  -6.05002e+61   -1.9306e+68  6.01419e+135 -3.21158e+202   1.76799e+68  -1.18172e+67  -3.94373e+67  -1.41805e+68  -1.03032e+67   4.01724e+67     1.868e+65
  -6.95133e+59  -1.37923e+63  -6.05081e+61   -1.9298e+68  6.02843e+135 -3.21778e+202   1.76672e+68  -1.17988e+67  -3.94229e+67  -1.41758e+68   1.03245e+67   3.98899e+67  -1.52901e+65
    3.7751e+59   -1.3791e+63   3.70436e+61   1.50186e+68  4.26846e+135  2.64512e+202    1.3523e+68   1.68802e+67   3.97692e+67   9.35362e+67    1.0327e+67   3.99311e+67     6.898e+65
   5.39265e+50  -1.28406e+63   3.55364e+61    1.5095e+68  4.51765e+135  3.05316e+202   1.35161e+68   1.73713e+67   3.98641e+67   9.37149e+67  -1.02771e+67  -3.78514e+67   5.57357e+65
   6.54241e+50  -1.28419e+63  -5.79716e+61  -1.95988e+68  6.61699e+135 -4.19014e+202   1.78309e+68  -1.33081e+67  -4.01985e+67  -1.42481e+68  -1.02777e+67  -3.78942e+67   2.03907e+65
  -6.91653e+59  -1.28374e+63  -5.79804e+61    -1.959e+68   6.5865e+135 -4.14742e+202   1.78299e+68   -1.3288e+67  -4.01794e+67  -1.42433e+68   1.03001e+67   -3.8168e+67     -1.29e+65
   3.78395e+59  -1.28361e+63   3.55123e+61    1.5094e+68  4.49512e+135  2.91302e+202   1.35232e+68   1.73689e+67   3.98606e+67   9.37103e+67   1.03007e+67  -3.81267e+67   6.85853e+65
   1.45029e+60  -1.38016e+63   1.34605e+62   3.44043e+68  1.33417e+136  7.39549e+202   3.24073e+68   1.11678e+67   3.85618e+67   2.94313e+68  -1.02923e+67   4.00571e+67   3.80383e+66
    3.7751e+59   -1.3791e+63   3.70436e+61   8.07737e+65 -4.46802e+135  6.33088e+202   6.68481e+67  -1.75726e+67  -4.06463e+67   5.90266e+67  -1.02776e+67   4.04582e+67   1.82267e+66
   7.54617e+59  -1.37779e+63   3.69718e+61   8.00182e+65 -4.37329e+135  6.46908e+202   6.61357e+67  -1.75744e+67   -4.0624e+67   5.89985e+67   1.03316e+67   3.92814e+67   1.96241e+66
   2.89907e+60  -1.37885e+63   1.34469e+62   3.43672e+68  1.33709e+136  8.02154e+202   3.23634e+68   1.10822e+67   3.85002e+67   2.94089e+68   1.03168e+67    3.8878e+67   4.41159e+66
   1.44874e+60  -1.28465e+63   1.29014e+62   3.51401e+68  1.54196e+136  1.24527e+203   3.28729e+68   1.43245e+67   4.10625e+67   2.96014e+68  -1.02706e+67  -3.80084e+67   3.70877e+66
   3.78395e+59  -1.28361e+63   3.55123e+61    4.5081e+66 -4.19971e+135  5.66452e+202   6.49618e+67  -1.63833e+67  -3.89897e+67   5.98811e+67   -1.0253e+67  -3.76074e+67   1.80405e+66
   7.55932e+59  -1.28228e+63   3.54397e+61   4.51907e+66 -4.28625e+135  5.50364e+202   6.56253e+67  -1.63808e+67  -3.89579e+67   5.98578e+67   1.03087e+67  -3.87547e+67   1.94099e+66
   2.89548e+60  -1.28332e+63   1.28879e+62   3.51056e+68  1.52713e+136   1.1541e+203   3.28586e+68   1.42448e+67    4.1012e+67   2.95799e+68   1.02911e+67   -3.9158e+67   4.30437e+66
    3.7751e+59   -1.3791e+63   3.70436e+61   1.50125e+68   4.2352e+135  2.38439e+202   1.35286e+68   1.68851e+67   3.97551e+67   9.34844e+67  -1.02802e+67   4.02746e+67   1.82267e+66
  -6.95133e+59  -1.37923e+63  -6.05081e+61  -1.93113e+68  6.02103e+135  -3.2056e+202   1.76837e+68  -1.18708e+67  -3.94535e+67  -1.41788e+68  -1.02834e+67   4.02333e+67  -1.68233e+65
  -1.38939e+60  -1.37792e+63  -6.05153e+61  -1.92821e+68  6.08351e+135 -3.31551e+202   1.76342e+68  -1.18034e+67  -3.93914e+67  -1.41626e+68   1.03197e+67   3.90542e+67  -4.97181e+65
   7.54617e+59  -1.37779e+63   3.69718e+61   1.50022e+68  4.31847e+135   2.8293e+202   1.34863e+68   1.68615e+67   3.97263e+67   9.34343e+67   1.03229e+67   3.90921e+67   1.96241e+66
   3.78395e+59  -1.28361e+63   3.55123e+61   1.50948e+68  4.52293e+135  3.15674e+202   1.35138e+68   1.74105e+67   3.98625e+67   9.36749e+67  -1.02586e+67   -3.7784e+67   1.80405e+66
  -6.91653e+59  -1.28374e+63  -5.79804e+61  -1.95953e+68  6.62109e+135 -4.22749e+202    1.7826e+68  -1.33157e+67  -4.01916e+67  -1.42446e+68  -1.02579e+67  -3.78254e+67  -1.04679e+65
  -1.38297e+60  -1.28241e+63  -5.79903e+61  -1.95647e+68   6.4993e+135 -4.00554e+202   1.78265e+68   -1.3245e+67  -4.01196e+67  -1.42282e+68    1.0297e+67  -3.89705e+67  -4.27048e+65
   7.55932e+59  -1.28228e+63   3.54397e+61   1.50868e+68  4.42665e+135  2.68914e+202   1.35405e+68    1.7392e+67   3.98453e+67   9.36306e+67   1.02962e+67  -3.89324e+67   1.94099e+66
   2.89907e+60  -1.37885e+63   1.34469e+62   3.43915e+68  1.34055e+136  7.05509e+202    3.2384e+68   1.15293e+67   3.85564e+67   2.93829e+68  -1.03245e+67    3.9566e+67   9.14431e+66
   7.54617e+59  -1.37779e+63   3.69718e+61   7.82994e+65  -4.4269e+135  6.14636e+202   6.65396e+67  -1.75061e+67  -4.06279e+67    5.8917e+67  -1.02861e+67   3.99686e+67   3.12438e+66
   1.13019e+60   -1.3756e+63   3.68505e+61    6.8265e+65 -4.11013e+135  6.11637e+202   6.41139e+67  -1.75292e+67  -4.05883e+67   5.88001e+67    1.0193e+67   3.59122e+67   3.27241e+66
   4.33956e+60  -1.37666e+63   1.34131e+62   3.42982e+68  1.35558e+136  8.62993e+202   3.22616e+68    1.1314e+67   3.84039e+67   2.93264e+68   1.01545e+67   3.55086e+67   9.75841e+66
   2.89548e+60  -1.28332e+63   1.28879e+62   3.51376e+68  1.54352e+136  1.29466e+203   3.28679e+68   1.47249e+67    4.1086e+67   2.95565e+68  -1.02993e+67  -3.84717e+67   8.90981e+66
   7.55932e+59  -1.28228e+63   3.54397e+61   4.57534e+66   -4.232e+135  5.79525e+202   6.52145e+67  -1.62756e+67  -3.89449e+67   5.97959e+67  -1.02597e+67  -3.80691e+67   3.06223e+66
   1.13147e+60  -1.28005e+63   3.53184e+61   4.49164e+66 -4.54517e+135  5.81703e+202   6.75673e+67  -1.62949e+67  -3.88982e+67   5.96848e+67   1.01712e+67  -4.20843e+67   3.20731e+66
   4.33343e+60  -1.28109e+63   1.28544e+62   3.50476e+68  1.49581e+136  1.06975e+203   3.28444e+68   1.45173e+67   4.09445e+67   2.95015e+68   1.01316e+67  -4.24878e+67   9.51163e+66
   7.54617e+59  -1.37779e+63   3.69718e+61   1.50005e+68  4.26297e+135  2.31485e+202    1.3505e+68   1.69297e+67   3.97223e+67   9.33528e+67  -1.02948e+67   3.97794e+67   3.12438e+66
  -1.38939e+60  -1.37792e+63  -6.05153e+61  -1.93105e+68  6.08352e+135 -3.08005e+202   1.76653e+68  -1.21172e+67   -3.9457e+67  -1.41531e+68  -1.03021e+67   3.97416e+67  -2.90126e+66
  -2.07837e+60  -1.37573e+63  -6.04203e+61  -1.92603e+68  6.33871e+135 -3.87443e+202   1.75377e+68  -1.20012e+67  -3.93529e+67  -1.41249e+68   1.01702e+67   3.56861e+67  -3.21782e+66
   1.13019e+60   -1.3756e+63   3.68505e+61   1.49662e+68  4.54049e+135  3.30284e+202   1.33634e+68   1.68506e+67   3.96313e+67   9.31799e+67   1.01775e+67   3.57212e+67   3.27241e+66
   7.55932e+59  -1.28228e+63   3.54397e+61   1.50924e+68  4.48638e+135  3.18197e+202   1.35247e+68   1.74972e+67   3.98583e+67   9.35687e+67  -1.02722e+67  -3.82467e+67   3.06223e+66
  -1.38297e+60  -1.28241e+63  -5.79903e+61  -1.95844e+68  6.59431e+135  -4.4208e+202   1.78215e+68  -1.35089e+67  -4.01651e+67   -1.4217e+68  -1.02761e+67  -3.82847e+67  -2.78871e+66
  -2.06955e+60  -1.28018e+63  -5.78977e+61  -1.95335e+68  6.21811e+135 -3.44883e+202   1.78711e+68  -1.33914e+67  -4.00543e+67  -1.41889e+68   1.01493e+67   -4.2297e+67  -3.09894e+66
   1.13147e+60  -1.28005e+63   3.53184e+61   1.50604e+68   4.1364e+135  2.08246e+202   1.36181e+68   1.74234e+67   3.97778e+67   9.34031e+67   1.01533e+67  -4.22618e+67   3.20731e+66
   4.69273e+50  -1.48019e+63   1.40349e+62   3.50998e+68  1.38624e+136   8.1309e+202   3.30662e+68   1.12462e+67   3.93356e+67   3.00416e+68  -1.03227e+67   4.08434e+67   9.27328e+65
   5.85986e+50  -1.47911e+63   3.86279e+61   9.07752e+65 -4.64127e+135  6.81639e+202   6.81329e+67  -1.78695e+67  -4.14545e+67   6.02318e+67  -1.03228e+67   4.12553e+67    5.4251e+65
   3.76065e+59  -1.47868e+63   3.86053e+61   9.93303e+65 -4.61966e+135   6.8664e+202   6.79753e+67  -1.78498e+67   -4.1435e+67   6.02781e+67   1.03486e+67   4.09654e+67   6.65389e+65
   1.45097e+60  -1.47977e+63   1.40311e+62      3.51e+68  1.38846e+136  8.34252e+202   3.30631e+68   1.12467e+67   3.93359e+67   3.00418e+68   1.03487e+67   4.05496e+67   1.52178e+66
   4.47971e+50   -1.3806e+63   1.34644e+62   3.58407e+68  1.59906e+136  1.29169e+203   3.35358e+68   1.44117e+67   4.18691e+67   3.02126e+68  -1.03054e+67  -3.88538e+67   9.27856e+65
   5.62979e+50  -1.37954e+63   3.70673e+61   4.56311e+66 -4.37026e+135  5.93326e+202   6.62653e+67  -1.67251e+67  -3.97872e+67   6.10753e+67  -1.03008e+67  -3.84419e+67   5.58741e+65
    3.7751e+59   -1.3791e+63   3.70436e+61   4.67195e+66 -4.39381e+135  5.85792e+202   6.64503e+67  -1.66999e+67  -3.97545e+67   6.11264e+67   1.03296e+67  -3.87258e+67   6.79113e+65
   1.45029e+60  -1.38016e+63   1.34605e+62   3.58434e+68  1.59733e+136  1.26834e+203   3.35413e+68    1.4418e+67   4.18829e+67   3.02133e+68    1.0325e+67  -3.91415e+67   1.51018e+66
   5.85986e+50  -1.47911e+63   3.86279e+61   1.53267e+68  4.42849e+135  2.71297e+202   1.38066e+68   1.72903e+67   4.05851e+67   9.53916e+67  -1.03228e+67   4.10757e+67    5.4251e+65
   7.03263e+50  -1.47925e+63  -6.30839e+61  -1.96778e+68  6.21216e+135 -3.34768e+202   1.80304e+68  -1.17978e+67  -4.01946e+67  -1.44786e+68  -1.03305e+67   4.10253e+67   1.49828e+65
  -6.99205e+59  -1.47882e+63  -6.30901e+61  -1.96622e+68  6.22022e+135 -3.35282e+202   1.80111e+68  -1.17617e+67  -4.01708e+67  -1.44689e+68   1.03478e+67   4.07333e+67  -2.08599e+65
   3.76065e+59  -1.47868e+63   3.86053e+61   1.53313e+68  4.45532e+135  2.85433e+202    1.3802e+68   1.73009e+67   4.05834e+67   9.54288e+67   1.03555e+67   4.07794e+67   6.65389e+65
   5.62979e+50  -1.37954e+63   3.70673e+61   1.53917e+68  4.70004e+135  3.27053e+202   1.37806e+68   1.77413e+67   4.06344e+67   9.55417e+67  -1.03008e+67  -3.86233e+67   5.58741e+65
   6.77641e+50  -1.37967e+63  -6.05002e+61  -1.99959e+68  6.87029e+135 -4.44087e+202    1.8197e+68  -1.34095e+67  -4.10294e+67   -1.4552e+68  -1.03032e+67  -3.86737e+67   1.86868e+65
  -6.95133e+59  -1.37923e+63  -6.05081e+61  -1.99779e+68   6.8288e+135 -4.37661e+202   1.81887e+68  -1.33681e+67  -4.09919e+67  -1.45419e+68   1.03246e+67  -3.89556e+67  -1.64244e+65
    3.7751e+59   -1.3791e+63   3.70436e+61   1.53989e+68  4.68331e+135  3.13501e+202   1.37947e+68   1.77578e+67   4.06469e+67   9.55842e+67    1.0327e+67  -3.89094e+67   6.79113e+65
   1.45097e+60  -1.47977e+63   1.40311e+62   3.50839e+68  1.38244e+136  7.81031e+202    3.3055e+68   1.12372e+67   3.92987e+67   3.00303e+68  -1.03069e+67   4.08939e+67   3.84219e+66
   3.76065e+59  -1.47868e+63   3.86053e+61   8.11851e+65 -4.64801e+135  6.74993e+202   6.81812e+67    -1.791e+67  -4.14768e+67   6.01987e+67  -1.03038e+67   4.13096e+67    1.7904e+66
   7.52515e+59  -1.47739e+63    3.8536e+61    9.5778e+65 -4.55308e+135  6.86918e+202   6.74833e+67  -1.78763e+67  -4.14382e+67   6.02723e+67   1.03491e+67   4.00997e+67   1.92856e+66
   2.90138e+60  -1.47848e+63   1.40175e+62    3.5063e+68  1.38809e+136  8.49825e+202   3.30243e+68   1.11889e+67   3.92553e+67   3.00186e+68    1.0346e+67   3.96745e+67   4.45435e+66
   1.45029e+60  -1.38016e+63   1.34605e+62   3.58418e+68  1.60062e+136   1.3186e+203   3.35347e+68   1.44854e+67   4.18792e+67   3.02054e+68  -1.02924e+67  -3.87979e+67   3.78727e+66
    3.7751e+59   -1.3791e+63   3.70436e+61   4.61123e+66 -4.36667e+135  6.02533e+202   6.62415e+67  -1.66949e+67  -3.97685e+67   6.10746e+67  -1.02776e+67  -3.83824e+67   1.81206e+66
   7.54617e+59  -1.37779e+63   3.69718e+61   4.81671e+66 -4.46117e+135  5.85086e+202   6.69654e+67  -1.66475e+67  -3.96971e+67   6.11612e+67   1.03316e+67   -3.9565e+67    1.9474e+66
   2.89907e+60  -1.37885e+63   1.34469e+62   3.58276e+68  1.58872e+136  1.23046e+203   3.35372e+68   1.44526e+67   4.18704e+67   3.01953e+68   1.03168e+67  -3.99899e+67   4.38693e+66
   3.76065e+59  -1.47868e+63   3.86053e+61   1.53132e+68  4.40809e+135  2.57336e+202    1.3799e+68   1.72407e+67   4.05415e+67   9.53494e+67  -1.02968e+67   4.11237e+67    1.7904e+66
  -6.99205e+59  -1.47882e+63  -6.30901e+61  -1.96889e+68  6.23263e+135   -3.361e+202   1.80369e+68  -1.19086e+67  -4.02326e+67  -1.44748e+68  -1.03134e+67   4.10777e+67  -2.91403e+65
  -1.39664e+60  -1.47753e+63  -6.30929e+61  -1.96419e+68  6.28266e+135 -3.47592e+202   1.79715e+68  -1.17999e+67  -4.01504e+67  -1.44468e+68   1.03382e+67   3.98624e+67  -6.31906e+65
   7.52515e+59  -1.47739e+63    3.8536e+61   1.53175e+68  4.50814e+135   3.0447e+202   1.37676e+68   1.72508e+67   4.05251e+67   9.53995e+67   1.03547e+67   3.98974e+67   1.92856e+66
    3.7751e+59   -1.3791e+63   3.70436e+61   1.53928e+68  4.70414e+135  3.37391e+202   1.37803e+68   1.77629e+67   4.06329e+67   9.55324e+67  -1.02802e+67   -3.8566e+67   1.81206e+66
  -6.95133e+59  -1.37923e+63  -6.05081e+61  -1.99912e+68  6.87616e+135 -4.49143e+202   1.81902e+68  -1.34399e+67  -4.10224e+67  -1.45449e+68  -1.02834e+67  -3.86121e+67  -1.79482e+65
  -1.38939e+60  -1.37792e+63  -6.05153e+61  -1.99383e+68  6.72581e+135 -4.21027e+202   1.81735e+68  -1.33178e+67  -4.09056e+67  -1.45159e+68   1.03197e+67  -3.97897e+67  -5.13036e+65
   7.54617e+59  -1.37779e+63   3.69718e+61   1.54039e+68  4.61923e+135  2.90791e+202   1.38234e+68   1.77884e+67   4.06532e+67   9.55971e+67   1.03228e+67  -3.97543e+67    1.9474e+66
   2.90138e+60  -1.47848e+63   1.40175e+62   3.50703e+68   1.3872e+136  7.39541e+202   3.30334e+68    1.1554e+67   3.92722e+67   2.99877e+68  -1.03426e+67   4.03641e+67   9.33314e+66
   7.52515e+59  -1.47739e+63    3.8536e+61   7.84536e+65 -4.60903e+135  6.57545e+202   6.78944e+67  -1.78885e+67  -4.14782e+67   6.01513e+67  -1.03166e+67   4.07886e+67   3.14416e+66
   1.12839e+60  -1.47525e+63    3.8416e+61   7.68203e+65 -4.28524e+135  6.52999e+202   6.54662e+67  -1.78923e+67  -4.14405e+67    6.0101e+67   1.02081e+67    3.6683e+67   3.30052e+66
   4.34454e+60  -1.47633e+63   1.39837e+62   3.49841e+68  1.40364e+136  9.04789e+202   3.29169e+68    1.1355e+67   3.91146e+67   2.99371e+68   1.01822e+67   3.62483e+67   9.96278e+66
   2.89907e+60  -1.37885e+63   1.34469e+62    3.5852e+68  1.60345e+136  1.37207e+203   3.35413e+68   1.48998e+67   4.19267e+67   3.01693e+68  -1.03246e+67  -3.93018e+67   9.11959e+66
   7.54617e+59  -1.37779e+63   3.69718e+61    4.7998e+66 -4.40632e+135    6.167e+202   6.65534e+67   -1.6579e+67   -3.9701e+67   6.10798e+67  -1.02861e+67  -3.88778e+67   3.10932e+66
   1.13019e+60   -1.3756e+63   3.68505e+61     4.856e+66  -4.7325e+135  6.18455e+202   6.89643e+67   -1.6566e+67  -3.96252e+67   6.10472e+67   1.01929e+67  -4.29426e+67   3.26249e+66
   4.33956e+60  -1.37666e+63   1.34131e+62   3.57747e+68  1.55645e+136  1.14106e+203   3.35289e+68   1.47215e+67   4.18112e+67   3.01214e+68   1.01544e+67  -4.33767e+67   9.73637e+66
   7.52515e+59  -1.47739e+63    3.8536e+61   1.53002e+68  4.43428e+135  2.49376e+202   1.37751e+68   1.72386e+67   4.04851e+67   9.52784e+67  -1.03111e+67   4.05863e+67   3.14416e+66
  -1.39664e+60  -1.47753e+63  -6.30929e+61  -1.96877e+68   6.3075e+135 -3.25318e+202   1.80147e+68  -1.22093e+67  -4.02562e+67  -1.44411e+68  -1.03331e+67   4.05514e+67  -3.06788e+66
  -2.08775e+60  -1.47538e+63  -6.29941e+61   -1.9626e+68  6.56206e+135 -4.08631e+202   1.78762e+68  -1.20671e+67  -4.01492e+67  -1.44044e+68   1.01858e+67   3.64507e+67  -3.38564e+66
   1.12839e+60  -1.47525e+63    3.8416e+61   1.52736e+68  4.72691e+135  3.52755e+202   1.36387e+68   1.71772e+67   4.03884e+67   9.51706e+67   1.02079e+67   3.64734e+67   3.30052e+66
   7.54617e+59  -1.37779e+63   3.69718e+61   1.54022e+68  4.67222e+135  3.40629e+202   1.38023e+68   1.78568e+67   4.06493e+67   9.55156e+67  -1.02948e+67   -3.9067e+67   3.10932e+66
  -1.38939e+60  -1.37792e+63  -6.05153e+61  -1.99667e+68  6.83573e+135 -4.67808e+202   1.81745e+68  -1.36314e+67  -4.09711e+67  -1.45064e+68   -1.0302e+67  -3.91023e+67  -2.91715e+66
  -2.07837e+60  -1.37573e+63  -6.04203e+61  -1.98989e+68   6.4305e+135 -3.62752e+202   1.82116e+68   -1.3475e+67  -4.08266e+67  -1.44687e+68   1.01702e+67  -4.31572e+67  -3.22843e+66
   1.13019e+60   -1.3756e+63   3.68505e+61   1.53835e+68  4.32211e+135  2.26832e+202    1.3908e+68   1.78137e+67   4.05943e+67    9.5427e+67   1.01774e+67  -4.31337e+67   3.26249e+66
   4.91726e+50  -1.58398e+63   1.46171e+62   3.58034e+68  1.43912e+136  8.64267e+202   3.37339e+68   1.13575e+67   4.01336e+67   3.06543e+68  -1.03314e+67   4.17291e+67   8.95504e+65
   6.08768e+50  -1.58287e+63   4.02179e+61   8.01685e+65 -4.82497e+135  7.27001e+202   6.94666e+67  -1.82305e+67  -4.23048e+67    6.1337e+67  -1.03424e+67   4.21419e+67   4.94606e+65
   3.75087e+59  -1.58245e+63   4.01977e+61   9.95278e+65 -4.80571e+135  7.30609e+202   6.93304e+67  -1.81859e+67  -4.22773e+67   6.14585e+67    1.0359e+67   4.18435e+67   6.29265e+65
   1.45156e+60  -1.58356e+63   1.46135e+62   3.58144e+68  1.44298e+136  8.87989e+202   3.37398e+68   1.13829e+67   4.01417e+67    3.0662e+68   1.03699e+67   4.14219e+67   1.50057e+66
   4.69273e+50  -1.48019e+63   1.40349e+62   3.65634e+68  1.66216e+136  1.37448e+203    3.4215e+68    1.4624e+67   4.27132e+67   3.08297e+68  -1.03227e+67   -3.9655e+67   9.27437e+65
   5.85986e+50  -1.47911e+63   3.86279e+61   4.57952e+66 -4.54062e+135  6.30355e+202   6.75396e+67  -1.70221e+67  -4.06072e+67   6.22088e+67  -1.03228e+67  -3.92421e+67   5.42621e+65
   3.76065e+59  -1.47868e+63   3.86053e+61   4.82339e+66 -4.56817e+135  6.21967e+202   6.77602e+67  -1.69658e+67  -4.05511e+67   6.23403e+67   1.03485e+67  -3.95346e+67   6.74474e+65
   1.45097e+60  -1.47977e+63   1.40311e+62   3.65796e+68  1.66258e+136  1.35501e+203   3.42317e+68   1.46614e+67   4.27504e+67   3.08385e+68   1.03486e+67  -3.99561e+67    1.5199e+66
   6.08768e+50  -1.58287e+63   4.02179e+61   1.56302e+68  4.60559e+135  2.91493e+202     1.408e+68   1.76542e+67   4.14262e+67   9.72217e+67  -1.03424e+67   4.19814e+67   4.94606e+65
   7.26091e+50  -1.58301e+63  -6.57269e+61  -2.00822e+68  6.43919e+135 -3.51926e+202   1.84094e+68  -1.18374e+67  -4.09871e+67  -1.47998e+68  -1.03616e+67    4.1911e+67   8.01413e+64
  -7.02842e+59  -1.58259e+63  -6.57302e+61  -2.00558e+68  6.43844e+135 -3.52536e+202   1.83807e+68  -1.17763e+67  -4.09563e+67  -1.47825e+68   1.03678e+67   4.16113e+67  -2.77339e+65
   3.75087e+59  -1.58245e+63   4.01977e+61   1.56453e+68  4.64236e+135  3.06417e+202   1.40838e+68   1.76891e+67   4.14309e+67   9.73334e+67    1.0387e+67   4.16723e+67   6.29265e+65
   5.85986e+50  -1.47911e+63   3.86279e+61   1.56939e+68  4.89083e+135  3.50381e+202   1.40495e+68   1.81378e+67   4.14324e+67   9.73686e+67  -1.03228e+67  -3.94217e+67   5.42621e+65
   7.03263e+50  -1.47925e+63  -6.30839e+61  -2.04184e+68  7.14325e+135 -4.71383e+202   1.85871e+68  -1.35069e+67  -4.19036e+67  -1.48774e+68  -1.03304e+67  -3.94921e+67   1.49942e+65
  -6.99205e+59  -1.47882e+63  -6.30901e+61  -2.03869e+68  7.08615e+135 -4.61892e+202   1.85678e+68  -1.34341e+67  -4.18432e+67  -1.48592e+68   1.03478e+67  -3.97818e+67  -2.00091e+65
   3.76065e+59  -1.47868e+63   3.86053e+61   1.57143e+68  4.88422e+135  3.37969e+202   1.40747e+68   1.81849e+67   4.14673e+67    9.7491e+67   1.03555e+67  -3.97206e+67   6.74474e+65
   1.45156e+60  -1.58356e+63   1.46135e+62    3.5785e+68  1.43328e+136  8.26761e+202   3.37229e+68    1.1301e+67   4.00736e+67   3.06475e+68  -1.03052e+67   4.17665e+67    3.8062e+66
   3.75087e+59  -1.58245e+63   4.01977e+61    7.0551e+65 -4.83563e+135  7.22371e+202   6.95423e+67  -1.83064e+67  -4.23442e+67   6.13561e+67  -1.03338e+67   4.21884e+67   1.69356e+66
   7.51271e+59  -1.58119e+63   4.01343e+61   1.12695e+66 -4.74589e+135  7.30956e+202   6.88997e+67  -1.82092e+67   -4.2292e+67   6.16281e+67   1.03519e+67   4.09495e+67   1.84236e+66
    2.9034e+60  -1.58229e+63   1.46004e+62   3.57949e+68  1.44361e+136  9.03696e+202   3.37181e+68   1.13239e+67   4.00515e+67   3.06573e+68   1.03806e+67   4.05022e+67   4.42791e+66
   1.45097e+60  -1.47977e+63   1.40311e+62   3.65635e+68  1.66196e+136   1.3969e+203   3.42154e+68   1.46518e+67   4.27131e+67    3.0827e+68   -1.0307e+67  -3.96118e+67   3.84051e+66
   3.76065e+59  -1.47868e+63   3.86053e+61   4.64189e+66 -4.54157e+135  6.41557e+202   6.75509e+67   -1.7026e+67   -4.0593e+67   6.22609e+67  -1.03038e+67  -3.91904e+67   1.79966e+66
   7.52515e+59  -1.47739e+63    3.8536e+61   5.21388e+66 -4.64829e+135  6.21704e+202   6.83774e+67   -1.6894e+67  -4.04561e+67    6.2564e+67   1.03491e+67  -4.04081e+67   1.94536e+66
   2.90138e+60  -1.47848e+63   1.40175e+62   3.65892e+68   1.6563e+136  1.31905e+203   3.42511e+68   1.47111e+67   4.27772e+67   3.08403e+68   1.03459e+67  -4.08544e+67   4.44926e+66
   3.75087e+59  -1.58245e+63   4.01977e+61   1.56164e+68  4.58226e+135    2.773e+202    1.4073e+68   1.75685e+67    4.1364e+67   9.72311e+67  -1.03057e+67   4.20172e+67   1.69356e+66
  -7.02842e+59  -1.58259e+63  -6.57302e+61  -2.00931e+68  6.46687e+135   -3.536e+202   1.84136e+68  -1.19841e+67  -4.10423e+67  -1.47904e+68  -1.03546e+67   4.19566e+67  -4.87619e+65
   -1.4032e+60  -1.58132e+63  -6.57248e+61  -2.00151e+68  6.49325e+135 -3.65623e+202   1.83214e+68  -1.18043e+67  -4.09392e+67  -1.47408e+68   1.03482e+67   4.07067e+67   -8.3046e+65
   7.51271e+59  -1.58119e+63   4.01343e+61   1.56482e+68   4.7099e+135  3.27294e+202    1.4063e+68    1.7642e+67   4.13608e+67   9.74793e+67    1.0397e+67   4.07414e+67   1.84236e+66
   3.76065e+59  -1.47868e+63   3.86053e+61   1.56962e+68  4.89193e+135  3.60337e+202   1.40517e+68   1.81247e+67   4.14254e+67   9.74116e+67  -1.02969e+67  -3.93764e+67   1.79966e+66
  -6.99205e+59  -1.47882e+63  -6.30901e+61  -2.04137e+68   7.1554e+135 -4.78919e+202   1.85786e+68  -1.35811e+67   -4.1905e+67  -1.48651e+68  -1.03133e+67  -3.94375e+67  -2.82686e+65
  -1.39664e+60  -1.47753e+63  -6.30929e+61  -2.03216e+68  6.95839e+135 -4.41611e+202   1.85306e+68  -1.33686e+67  -4.17191e+67  -1.48128e+68   1.03382e+67  -4.06462e+67  -6.18385e+65
   7.52515e+59  -1.47739e+63    3.8536e+61   1.57431e+68   4.8327e+135  3.15955e+202   1.41251e+68   1.82331e+67   4.15073e+67   9.76911e+67   1.03547e+67  -4.06104e+67   1.94536e+66
    2.9034e+60  -1.58229e+63   1.46004e+62   3.57725e+68  1.43487e+136  7.73558e+202   3.37073e+68   1.15387e+67   3.99998e+67   3.06186e+68  -1.03423e+67    4.1193e+67   9.45533e+66
   7.51271e+59  -1.58119e+63   4.01343e+61   7.41632e+65   -4.805e+135  7.06738e+202   6.93221e+67  -1.83327e+67  -4.23809e+67   6.14553e+67  -1.03578e+67   4.16399e+67   3.10187e+66
   1.12816e+60  -1.57908e+63   4.00195e+61   1.00729e+66 -4.48136e+135  6.98816e+202   6.69506e+67  -1.82714e+67  -4.23441e+67   6.16228e+67     1.021e+67   3.74804e+67   3.27566e+66
   4.34982e+60  -1.58019e+63   1.45669e+62   3.57125e+68  1.45513e+136  9.49079e+202   3.36136e+68   1.14003e+67    3.9837e+67   3.05888e+68   1.02255e+67   3.70003e+67   1.01098e+67
   2.90138e+60  -1.47848e+63   1.40175e+62   3.65965e+68  1.66676e+136  1.45525e+203   3.42437e+68   1.50764e+67   4.27943e+67   3.08095e+68  -1.03427e+67  -4.01648e+67   9.32805e+66
   7.52515e+59  -1.47739e+63    3.8536e+61   5.04083e+66 -4.59377e+135   6.5771e+202   6.79646e+67  -1.69061e+67   -4.0496e+67    6.2443e+67  -1.03167e+67  -3.97193e+67     3.161e+66
   1.12839e+60  -1.47525e+63    3.8416e+61   5.51349e+66 -4.93967e+135  6.56778e+202   7.04987e+67  -1.67971e+67  -4.03455e+67    6.2656e+67   1.02081e+67  -4.38376e+67   3.33116e+66
   4.34454e+60  -1.47633e+63   1.39837e+62   3.65591e+68   1.6249e+136  1.22675e+203   3.42648e+68     1.499e+67   4.27493e+67   3.07852e+68    1.0182e+67  -4.43156e+67   9.96884e+66
   7.51271e+59  -1.58119e+63   4.01343e+61   1.56097e+68  4.61115e+135  2.68861e+202   1.40553e+68   1.75185e+67   4.12719e+67   9.73065e+67  -1.03127e+67   4.14317e+67   3.10187e+66
   -1.4032e+60  -1.58132e+63  -6.57248e+61  -2.00852e+68  6.55341e+135 -3.44569e+202   1.83815e+68  -1.23474e+67  -4.11009e+67  -1.47404e+68  -1.03825e+67   4.13978e+67  -3.31243e+66
  -2.09579e+60  -1.57921e+63  -6.56181e+61  -1.99933e+68  6.79241e+135 -4.31759e+202   1.82156e+68  -1.21354e+67  -4.09985e+67  -1.46799e+68   1.01844e+67   3.72598e+67  -3.62414e+66
   1.12816e+60  -1.57908e+63   4.00195e+61   1.56086e+68  4.93271e+135  3.77351e+202   1.39392e+68   1.75159e+67   4.11598e+67   9.74101e+67   1.02542e+67   3.72555e+67   3.27566e+66
   7.52515e+59  -1.47739e+63    3.8536e+61   1.57258e+68  4.86933e+135  3.64967e+202   1.40929e+68    1.8221e+67   4.14673e+67   9.75701e+67  -1.03111e+67  -3.99216e+67     3.161e+66
  -1.39664e+60  -1.47753e+63  -6.30929e+61  -2.03674e+68  7.09672e+135 -4.96517e+202   1.85435e+68  -1.37779e+67  -4.18247e+67  -1.48071e+68   -1.0333e+67  -3.99572e+67  -3.05431e+66
  -2.08775e+60  -1.47538e+63  -6.29941e+61   -2.0254e+68  6.63258e+135 -3.78902e+202   1.85446e+68  -1.35164e+67  -4.15985e+67  -1.47426e+68   1.01859e+67  -4.40452e+67  -3.35953e+66
   1.12839e+60  -1.47525e+63    3.8416e+61   1.57482e+68  4.54224e+135  2.49863e+202   1.42331e+68   1.82725e+67   4.14835e+67   9.77256e+67   1.02078e+67  -4.40471e+67   3.33116e+66
   5.11979e+50  -1.69204e+63   1.52114e+62   3.64828e+68   1.4814e+136  8.82325e+202   3.43926e+68   1.11427e+67   4.09232e+67   3.12762e+68  -1.03282e+67   4.26483e+67   8.26141e+65
   6.31016e+50  -1.69091e+63   4.18385e+61   9.01991e+64 -5.01972e+135  7.94438e+202     7.085e+67   -1.9017e+67  -4.32471e+67   6.23543e+67  -1.03594e+67   4.30374e+67   4.23776e+65
   3.79532e+59   -1.6905e+63   4.18216e+61   2.95119e+65 -5.00338e+135  7.98596e+202   7.07352e+67  -1.89697e+67  -4.32478e+67   6.25126e+67   1.03462e+67   4.27423e+67   6.67906e+65
   1.45622e+60  -1.69162e+63   1.52081e+62   3.65026e+68  1.48612e+136  9.07561e+202   3.44068e+68   1.11884e+67   4.09208e+67   3.12916e+68   1.03775e+67   4.23373e+67   1.52466e+66
   4.91726e+50  -1.58398e+63   1.46171e+62   3.73153e+68  1.73017e+136  1.46621e+203   3.49201e+68   1.48473e+67   4.36224e+67   3.14683e+68  -1.03314e+67  -4.04704e+67   8.95637e+65
   6.08768e+50  -1.58287e+63   4.02179e+61    4.6448e+66 -4.72116e+135  6.70431e+202   6.88675e+67  -1.73426e+67  -4.14179e+67   6.34053e+67  -1.03424e+67  -4.00813e+67   4.94687e+65
   3.75087e+59  -1.58245e+63   4.01977e+61   4.94209e+66 -4.75254e+135   6.6189e+202   6.91156e+67   -1.7274e+67  -4.13665e+67   6.35827e+67    1.0359e+67  -4.03823e+67   7.33623e+65
   1.45156e+60  -1.58356e+63   1.46135e+62   3.73443e+68  1.73241e+136  1.44965e+203   3.49479e+68   1.49143e+67   4.36722e+67   3.14857e+68   1.03699e+67   -4.0787e+67   1.57929e+66
   6.31016e+50  -1.69091e+63   4.18385e+61   1.58866e+68  4.72039e+135  3.02078e+202   1.43241e+68   1.76234e+67   4.22473e+67   9.89947e+67  -1.03594e+67   4.29365e+67   4.23776e+65
   7.50579e+50  -1.69106e+63  -6.84315e+61   -2.0571e+68  6.78801e+135 -3.92599e+202    1.8849e+68  -1.23296e+67  -4.18854e+67  -1.51495e+68   -1.0393e+67   4.28217e+67  -4.75985e+63
  -7.00541e+59  -1.69064e+63  -6.84313e+61  -2.05445e+68  6.79026e+135 -3.94783e+202   1.88195e+68  -1.22684e+67  -4.18757e+67  -1.51301e+68   1.03777e+67   4.25177e+67  -2.53374e+65
   3.79532e+59   -1.6905e+63   4.18216e+61   1.59059e+68  4.76088e+135  3.17284e+202   1.43314e+68   1.76681e+67   4.22406e+67   9.91505e+67   1.04112e+67   4.26213e+67   6.67906e+65
   6.08768e+50  -1.58287e+63   4.02179e+61   1.60145e+68  5.10026e+135  3.76538e+202   1.43339e+68   1.85421e+67   4.23131e+67     9.929e+67  -1.03424e+67  -4.02419e+67   4.94687e+65
   7.26091e+50  -1.58301e+63  -6.57269e+61  -2.08519e+68  7.42328e+135 -4.99931e+202   1.89886e+68  -1.36126e+67  -4.27632e+67  -1.52143e+68  -1.03616e+67  -4.03567e+67    8.0195e+64
  -7.02842e+59  -1.58259e+63  -6.57302e+61  -2.08194e+68  7.36518e+135 -4.90178e+202   1.89683e+68  -1.35376e+67  -4.27185e+67  -1.51938e+68   1.03678e+67  -4.06574e+67  -1.63129e+65
   3.75087e+59  -1.58245e+63   4.01977e+61     1.604e+68  5.09579e+135  3.63701e+202    1.4364e+68   1.86009e+67   4.23417e+67   9.94576e+67    1.0387e+67  -4.05535e+67   7.33623e+65
   1.45622e+60  -1.69162e+63   1.52081e+62    3.6488e+68   1.4804e+136  8.57047e+202   3.43996e+68   1.11838e+67   4.08872e+67   3.12809e+68  -1.02878e+67   4.26817e+67   3.73812e+66
   3.79532e+59   -1.6905e+63   4.18216e+61   3.06569e+65 -5.03311e+135  7.82828e+202   7.09451e+67  -1.89332e+67  -4.32452e+67    6.2485e+67  -1.03747e+67   4.30876e+67   1.57771e+66
   7.58384e+59  -1.68926e+63   4.17685e+61   1.01801e+66 -4.95242e+135  7.88739e+202   7.03808e+67   -1.8769e+67  -4.32146e+67   6.30016e+67   1.03329e+67   4.18149e+67   1.78737e+66
   2.91187e+60  -1.69039e+63    1.5196e+62   3.65269e+68  1.49419e+136  9.39138e+202   3.44208e+68   1.12735e+67   4.08432e+67   3.13152e+68   1.04198e+67   4.13633e+67   4.41971e+66
   1.45156e+60  -1.58356e+63   1.46135e+62   3.73147e+68  1.72802e+136  1.48432e+203   3.49226e+68   1.48319e+67   4.36039e+67   3.14712e+68  -1.03053e+67  -4.04424e+67    3.8852e+66
   3.75087e+59  -1.58245e+63   4.01977e+61   4.65087e+66 -4.72674e+135  6.84814e+202   6.89084e+67  -1.73954e+67  -4.14337e+67     6.348e+67  -1.03338e+67  -4.00374e+67   1.79825e+66
   7.51271e+59  -1.58119e+63   4.01343e+61   5.62576e+66 -4.84974e+135  6.62314e+202   6.98669e+67  -1.71704e+67  -4.12538e+67     6.405e+67   1.03519e+67  -4.12897e+67   2.00346e+66
    2.9034e+60  -1.58229e+63   1.46004e+62   3.73806e+68  1.72797e+136  1.41475e+203    3.4993e+68   1.49839e+67   4.37109e+67   3.15111e+68   1.03804e+67  -4.17394e+67   4.55228e+66
   3.79532e+59   -1.6905e+63   4.18216e+61   1.59071e+68  4.73519e+135  2.94104e+202   1.43417e+68   1.77046e+67   4.22432e+67   9.91228e+67  -1.03097e+67   4.29666e+67   1.57771e+66
  -7.00541e+59  -1.69064e+63  -6.84313e+61  -2.05404e+68  6.75505e+135 -3.80658e+202   1.88244e+68  -1.22607e+67  -4.18664e+67  -1.51277e+68   -1.0423e+67   4.28644e+67  -6.77611e+65
  -1.40106e+60   -1.6894e+63  -6.84142e+61  -2.04452e+68  6.77638e+135 -3.97099e+202   1.87147e+68  -1.20409e+67  -4.18206e+67   -1.5059e+68   1.03341e+67   4.15986e+67  -9.73479e+65
   7.58384e+59  -1.68926e+63   4.17685e+61   1.59651e+68  4.88642e+135  3.45927e+202   1.43534e+68   1.78385e+67   4.22029e+67   9.96092e+67   1.04474e+67   4.16503e+67   1.78737e+66
   3.75087e+59  -1.58245e+63   4.01977e+61   1.60109e+68  5.09126e+135  3.85422e+202   1.43331e+68   1.84796e+67   4.22745e+67   9.93549e+67  -1.03058e+67  -4.02086e+67   1.79825e+66
  -7.02842e+59  -1.58259e+63  -6.57302e+61  -2.08569e+68  7.45278e+135 -5.11172e+202   1.89863e+68  -1.37464e+67  -4.28049e+67  -1.52017e+68  -1.03545e+67   -4.0312e+67  -3.73102e+65
   -1.4032e+60  -1.58132e+63  -6.57248e+61  -2.07332e+68  7.21935e+135   -4.671e+202   1.89122e+68   -1.3461e+67  -4.25962e+67  -1.51275e+68   1.03482e+67  -4.15517e+67  -6.62676e+65
   7.51271e+59  -1.58119e+63   4.01343e+61   1.60981e+68  5.05982e+135   3.4259e+202   1.44413e+68   1.86808e+67    4.2399e+67   9.99012e+67    1.0397e+67  -4.14978e+67   2.00346e+66
   2.91187e+60  -1.69039e+63    1.5196e+62   3.65089e+68  1.48684e+136  8.15052e+202   3.44124e+68   1.15149e+67   4.08018e+67   3.12772e+68  -1.03006e+67   4.20539e+67   9.48855e+66
   7.58384e+59  -1.68926e+63   4.17685e+61   6.33969e+65 -5.01415e+135   7.6484e+202   7.08135e+67  -1.88964e+67  -4.33032e+67   6.28335e+67  -1.04171e+67   4.25065e+67   2.98012e+66
   1.13801e+60  -1.68719e+63   4.16678e+61   1.53922e+66 -4.70549e+135  7.51095e+202   6.86138e+67  -1.86875e+67  -4.32736e+67   6.35003e+67   1.01671e+67   3.82892e+67    3.1913e+66
   4.36187e+60  -1.68833e+63   1.51636e+62   3.65119e+68  1.51551e+136   1.0068e+203   3.43739e+68   1.15218e+67   4.06293e+67   3.12967e+68   1.02836e+67   3.77573e+67   1.01636e+67
    2.9034e+60  -1.58229e+63   1.46004e+62   3.73581e+68  1.73035e+136  1.53682e+203   3.49656e+68   1.51981e+67   4.36589e+67   3.14724e+68  -1.03426e+67  -4.10486e+67   9.58009e+66
   7.51271e+59  -1.58119e+63   4.01343e+61   5.23968e+66 -4.79681e+135  7.05101e+202   6.94569e+67  -1.72943e+67  -4.13429e+67   6.38769e+67  -1.03579e+67  -4.05994e+67   3.26336e+66
   1.12816e+60  -1.57908e+63   4.00195e+61   6.61645e+66 -5.17531e+135  6.96685e+202   7.22433e+67  -1.69766e+67  -4.10496e+67   6.46427e+67   1.02099e+67  -4.47765e+67   3.47004e+66
   4.34982e+60  -1.58019e+63   1.45669e+62   3.74101e+68  1.70179e+136  1.32689e+203   3.50619e+68    1.5318e+67   4.37544e+67   3.15028e+68   1.02252e+67  -4.53034e+67   1.02408e+67
   7.58384e+59  -1.68926e+63   4.17685e+61   1.59267e+68  4.78714e+135  2.88901e+202   1.43453e+68   1.77112e+67   4.21143e+67   9.94411e+67  -1.03026e+67   4.23419e+67   2.98012e+66
  -1.40106e+60   -1.6894e+63  -6.84142e+61  -2.05053e+68  6.82031e+135 -3.65261e+202   1.87688e+68  -1.25433e+67  -4.19595e+67  -1.50551e+68  -1.04671e+67   4.22919e+67  -3.64207e+66
  -2.09433e+60  -1.68732e+63  -6.82904e+61  -2.03405e+68  7.00443e+135 -4.53154e+202    1.8539e+68   -1.2163e+67  -4.18319e+67   -1.4941e+68   1.01655e+67   3.81166e+67  -3.94508e+66
   1.13801e+60  -1.68719e+63   4.16678e+61   1.59933e+68  5.17388e+135  4.05845e+202   1.42845e+68   1.78649e+67   4.20154e+67   1.00053e+68     1.033e+67   3.80922e+67    3.1913e+66
   7.51271e+59  -1.58119e+63   4.01343e+61   1.60595e+68  5.07302e+135  3.90884e+202   1.43937e+68   1.85569e+67   4.23099e+67   9.97281e+67  -1.03128e+67  -4.08075e+67   3.26336e+66
   -1.4032e+60  -1.58132e+63  -6.57248e+61  -2.08033e+68  7.39809e+135 -5.31398e+202    1.8942e+68  -1.40047e+67  -4.27582e+67  -1.51271e+68  -1.03824e+67  -4.08606e+67  -3.14414e+66
  -2.09579e+60  -1.57921e+63  -6.56181e+61  -2.05973e+68  6.82566e+135  -3.9466e+202   1.88677e+68  -1.35291e+67  -4.23922e+67  -1.50051e+68   1.01845e+67  -4.49818e+67  -3.44071e+66
   1.12816e+60  -1.57908e+63   4.00195e+61   1.61695e+68  4.80913e+135  2.78353e+202   1.46069e+68   1.88107e+67   4.24542e+67    1.0043e+68   1.02541e+67  -4.50014e+67   3.47004e+66
   5.30611e+50  -1.80446e+63   1.58192e+62    3.7028e+68  1.46859e+136  7.34265e+202   3.49888e+68   9.54419e+66    4.1514e+67   3.19222e+68  -1.03303e+67   4.36089e+67   8.93602e+65
    6.5345e+50  -1.80332e+63   4.35011e+61  -2.31788e+66 -5.26089e+135  9.37998e+202    7.2569e+67  -2.12573e+67  -4.44702e+67   6.34097e+67  -1.03592e+67   4.39426e+67   4.31651e+65
   4.04209e+59  -1.80291e+63   4.34843e+61  -2.49916e+66 -5.23182e+135  9.48603e+202   7.23745e+67  -2.12992e+67  -4.45553e+67   6.33553e+67   1.03359e+67   4.35957e+67   1.07889e+66
   1.48036e+60  -1.80406e+63   1.58157e+62   3.69801e+68  1.46106e+136  7.41614e+202   3.49488e+68   9.43359e+66   4.13601e+67   3.19007e+68   1.03648e+67   4.32639e+67    1.9902e+66
   5.11979e+50  -1.69204e+63   1.52114e+62   3.81747e+68  1.81342e+136  1.57825e+203   3.57206e+68    1.5051e+67   4.48275e+67   3.21868e+68  -1.03282e+67  -4.13052e+67   8.25643e+65
   6.31016e+50  -1.69091e+63   4.18385e+61    5.3388e+66 -4.93786e+135  7.20287e+202   7.04725e+67  -1.78019e+67  -4.20358e+67   6.51766e+67  -1.03595e+67  -4.09715e+67    4.2349e+65
   3.79532e+59   -1.6905e+63   4.18216e+61   5.14288e+66 -4.96593e+135  7.15486e+202   7.06568e+67  -1.78472e+67  -4.21291e+67   6.51191e+67   1.03461e+67  -4.12802e+67   1.05666e+66
   1.45622e+60  -1.69162e+63   1.52081e+62   3.81259e+68  1.79967e+136  1.52319e+203   3.56878e+68   1.49385e+67    4.4667e+67   3.21654e+68   1.03775e+67  -4.16121e+67    1.8984e+66
    6.5345e+50  -1.80332e+63   4.35011e+61   1.59847e+68  4.61007e+135  2.74933e+202    1.4471e+68   1.61654e+67   4.28495e+67   1.00832e+68  -1.03592e+67   4.38832e+67   4.31651e+65
   7.74955e+50  -1.80347e+63  -7.11867e+61  -2.12633e+68  7.53669e+135 -5.24685e+202   1.94103e+68  -1.44898e+67  -4.31075e+67  -1.55036e+68   -1.0405e+67   4.36954e+67   8.88211e+64
  -6.74257e+59  -1.80307e+63  -7.11901e+61  -2.13326e+68  7.64784e+135 -5.40957e+202   1.94577e+68  -1.46498e+67  -4.33363e+67   -1.5534e+68   1.03347e+67   4.34477e+67    3.0613e+65
   4.04209e+59  -1.80291e+63   4.34843e+61   1.59583e+68  4.60287e+135  2.87392e+202   1.44443e+68   1.61044e+67   4.27197e+67   1.00759e+68   1.03806e+67   4.36261e+67   1.07889e+66
   6.31016e+50  -1.69091e+63   4.18385e+61   1.64114e+68  5.36716e+135  4.10033e+202   1.46855e+68   1.88385e+67   4.34586e+67   1.01817e+68  -1.03595e+67  -4.10724e+67    4.2349e+65
   7.50579e+50  -1.69106e+63  -6.84315e+61  -2.12011e+68  7.63408e+135 -5.23168e+202    1.9317e+68  -1.37794e+67  -4.33396e+67  -1.54892e+68   -1.0393e+67  -4.12602e+67  -5.40907e+63
  -7.00541e+59  -1.69064e+63  -6.84313e+61  -2.12638e+68  7.68609e+135 -5.34601e+202   1.93724e+68  -1.39241e+67  -4.35357e+67  -1.55178e+68   1.03776e+67  -4.15798e+67   2.07176e+65
   3.79532e+59   -1.6905e+63   4.18216e+61   1.63907e+68  5.31538e+135  3.87093e+202     1.468e+68   1.87907e+67   4.33593e+67   1.01757e+68   1.04112e+67  -4.14012e+67   1.05666e+66
   1.48036e+60  -1.80406e+63   1.58157e+62   3.71969e+68  1.52035e+136  8.45787e+202   3.50938e+68   1.06671e+67   4.18604e+67   3.19441e+68  -1.02513e+67   4.36075e+67   3.96761e+66
   4.04209e+59  -1.80291e+63   4.34843e+61  -5.83376e+65 -5.25396e+135  8.75814e+202   7.24866e+67  -2.02425e+67  -4.41132e+67   6.37724e+67  -1.04213e+67   4.39417e+67   1.82538e+66
   7.96393e+59   -1.8017e+63   4.34381e+61  -6.64238e+65 -5.17004e+135  8.99782e+202    7.1906e+67  -2.02612e+67  -4.43872e+67   6.39842e+67   1.02292e+67    4.2699e+67   2.24935e+66
   2.94636e+60  -1.80285e+63   1.58045e+62    3.7195e+68  1.52309e+136   9.1415e+202   3.50879e+68   1.06627e+67   4.16006e+67   3.19687e+68   1.03991e+67   4.23011e+67   4.79335e+66
   1.45622e+60  -1.69162e+63   1.52081e+62   3.81106e+68  1.79922e+136  1.57536e+203    3.5672e+68   1.49297e+67   4.46316e+67   3.21545e+68  -1.02879e+67  -4.12677e+67   4.11238e+66
   3.79532e+59   -1.6905e+63   4.18216e+61   5.14851e+66 -4.93831e+135  7.35244e+202   7.04615e+67  -1.78138e+67  -4.21278e+67   6.50901e+67  -1.03747e+67  -4.09349e+67   1.96649e+66
   7.58384e+59  -1.68926e+63   4.17685e+61   5.44713e+66  -5.0649e+135  7.17589e+202   7.13762e+67  -1.77449e+67  -4.21925e+67   6.53845e+67   1.03328e+67  -4.22159e+67   2.38124e+66
   2.91187e+60  -1.69039e+63    1.5196e+62   3.81465e+68  1.79022e+136  1.47768e+203    3.5723e+68   1.50126e+67   4.45808e+67   3.21871e+68   1.04197e+67   -4.2611e+67   4.92018e+66
   4.04209e+59  -1.80291e+63   4.34843e+61   1.61499e+68  4.79937e+135  2.90558e+202   1.45885e+68    1.7161e+67   4.31618e+67   1.01176e+68  -1.03767e+67    4.3972e+67   1.82538e+66
  -6.74257e+59  -1.80307e+63  -7.11901e+61  -2.10599e+68  7.18429e+135  -4.4581e+202    1.9279e+68  -1.32019e+67   -4.2707e+67   -1.5469e+68  -1.04895e+67   4.37948e+67  -3.15703e+65
  -1.36454e+60  -1.80185e+63  -7.11696e+61  -2.10669e+68  7.32278e+135 -4.75792e+202   1.92506e+68  -1.32179e+67  -4.28922e+67  -1.54559e+68   1.03271e+67   4.25399e+67  -4.13796e+65
   7.96393e+59   -1.8017e+63   4.34381e+61   1.61698e+68  4.91377e+135  3.44638e+202   1.45714e+68    1.7207e+67   4.30386e+67   1.01452e+68   1.04399e+67   4.27177e+67   2.24935e+66
   3.79532e+59   -1.6905e+63   4.18216e+61   1.63913e+68   5.3464e+135  4.19876e+202     1.467e+68   1.88241e+67   4.33606e+67   1.01728e+68  -1.03097e+67  -4.10559e+67   1.96649e+66
  -7.00541e+59  -1.69064e+63  -6.84313e+61  -2.12606e+68  7.71072e+135 -5.36774e+202   1.93625e+68  -1.39209e+67  -4.35283e+67  -1.55157e+68  -1.04232e+67  -4.12331e+67  -2.17122e+65
  -1.40106e+60   -1.6894e+63  -6.84142e+61  -2.12701e+68  7.63196e+135 -5.24269e+202   1.93933e+68  -1.39429e+67  -4.37245e+67  -1.55034e+68   1.03338e+67  -4.25583e+67  -3.13083e+65
   7.58384e+59  -1.68926e+63   4.17685e+61    1.6408e+68  5.23686e+135  3.57927e+202   1.47259e+68   1.88626e+67    4.3225e+67   1.01992e+68   1.04474e+67  -4.23805e+67   2.38124e+66
   2.94636e+60  -1.80285e+63   1.58045e+62    3.7229e+68  1.53018e+136  8.23933e+202   3.51138e+68   1.11624e+67   4.16792e+67   3.19449e+68  -1.02292e+67   4.29887e+67   9.53328e+66
   7.96393e+59   -1.8017e+63   4.34381e+61   5.74315e+65 -5.22695e+135  8.28416e+202      7.23e+67  -1.95498e+67  -4.41014e+67   6.42256e+67  -1.04871e+67   4.33895e+67   2.90897e+66
   1.18025e+60  -1.79968e+63   4.33661e+61    2.6903e+66 -4.94675e+135  8.03779e+202   7.03846e+67  -1.90615e+67  -4.40007e+67   6.57525e+67   1.01655e+67     3.906e+67   3.15433e+66
   4.40415e+60  -1.80084e+63   1.57748e+62   3.73476e+68  1.57598e+136  1.04387e+203   3.51745e+68    1.1436e+67   4.15651e+67   3.20475e+68   1.04234e+67   3.85507e+67   1.03059e+67
   2.91187e+60  -1.69039e+63    1.5196e+62   3.81283e+68  1.79388e+136  1.61673e+203   3.56985e+68   1.52532e+67    4.4539e+67   3.21491e+68   -1.0301e+67  -4.19204e+67   9.99036e+66
   7.58384e+59  -1.68926e+63   4.17685e+61   5.05719e+66 -5.01294e+135  7.66685e+202   7.09825e+67  -1.78753e+67  -4.22825e+67   6.52149e+67  -1.04174e+67  -4.15243e+67   3.57569e+66
   1.13801e+60  -1.68719e+63   4.16678e+61   7.77682e+66 -5.44478e+135  7.45759e+202   7.41975e+67  -1.72476e+67  -4.18341e+67   6.68586e+67   1.01668e+67  -4.58069e+67   3.81572e+66
   4.36187e+60  -1.68833e+63   1.51636e+62   3.83093e+68  1.78392e+136  1.43268e+203   3.59056e+68   1.56707e+67   4.47772e+67   3.22645e+68   1.02832e+67  -4.63091e+67   1.07462e+67
   7.96393e+59   -1.8017e+63   4.34381e+61   1.62937e+68  5.00597e+135   3.1481e+202   1.46773e+68   1.79184e+67   4.33244e+67   1.01694e+68  -1.02763e+67   4.34083e+67   2.90897e+66
  -1.36454e+60  -1.80185e+63  -7.11696e+61  -2.09461e+68   7.0833e+135 -3.83815e+202   1.91809e+68  -1.27981e+67  -4.26136e+67   -1.5405e+68  -1.06581e+67   4.32394e+67   -3.8705e+66
   -2.0576e+60  -1.79981e+63  -7.10142e+61   -2.0695e+68  7.21891e+135 -4.77365e+202   1.88704e+68  -1.22185e+67  -4.26079e+67  -1.52123e+68   1.00519e+67   3.90345e+67  -4.16274e+66
   1.18025e+60  -1.79968e+63   4.33661e+61   1.64447e+68  5.47031e+135  4.42377e+202   1.46876e+68    1.8267e+67   4.30991e+67   1.03081e+68   1.04337e+67   3.90364e+67   3.15433e+66
   7.58384e+59  -1.68926e+63   4.17685e+61    1.6369e+68   5.2506e+135    4.143e+202   1.46778e+68   1.87323e+67   4.31351e+67   1.01822e+68  -1.03029e+67  -4.16889e+67   3.57569e+66
  -1.40106e+60   -1.6894e+63  -6.84142e+61   -2.1331e+68  7.80102e+135 -5.81512e+202   1.94165e+68  -1.44486e+67  -4.38648e+67  -1.54996e+68  -1.04669e+67   -4.1865e+67  -2.97948e+66
  -2.09433e+60  -1.68732e+63  -6.82904e+61  -2.09849e+68  7.06921e+135 -4.21789e+202   1.92269e+68    -1.365e+67   -4.3319e+67   -1.5288e+68   1.01656e+67  -4.60167e+67  -3.26537e+66
   1.13801e+60  -1.68719e+63   4.16678e+61   1.66171e+68  5.09129e+135  3.06006e+202   1.50071e+68   1.93048e+67   4.34548e+67   1.03411e+68   1.03297e+67  -4.60039e+67   3.81572e+66
   5.50347e+50  -1.92134e+63   1.64447e+62   3.71697e+68  1.28874e+136  1.13408e+202   3.53936e+68   4.15963e+66   4.11668e+67    3.2637e+68  -1.03746e+67   4.43594e+67   1.26761e+66
   6.75093e+50  -1.92018e+63   4.52572e+61  -7.74517e+66 -5.68108e+135  1.28798e+203   7.57698e+67  -2.71048e+67  -4.63967e+67   6.57564e+67  -1.03039e+67   4.46965e+67   1.23122e+66
   4.83052e+59  -1.91979e+63   4.52102e+61  -1.13185e+67 -5.57407e+135  1.35821e+203   7.55128e+67  -2.79294e+67  -4.71171e+67    6.3728e+67   1.03406e+67   4.46294e+67   2.95841e+66
   1.55657e+60  -1.92095e+63   1.64399e+62   3.70207e+68  1.26328e+136  1.16233e+202   3.52733e+68    3.8158e+66   4.09272e+67   3.25464e+68   1.02699e+67   4.43673e+67   3.41338e+66
   5.30611e+50  -1.80446e+63   1.58192e+62   3.92484e+68  1.91052e+136  1.66016e+203    3.6734e+68   1.46788e+67    4.6638e+67   3.31167e+68  -1.03302e+67  -4.21658e+67   8.92464e+65
    6.5345e+50  -1.80332e+63   4.35011e+61   9.41451e+66 -5.28692e+135  7.93114e+202   7.33182e+67   -1.8539e+67  -4.17627e+67   6.97163e+67  -1.03594e+67  -4.18287e+67   4.28709e+65
   4.04209e+59  -1.80291e+63   4.34843e+61   5.44859e+66 -5.26695e+135  8.19938e+202    7.2778e+67  -1.94543e+67  -4.27212e+67   6.76241e+67   1.03357e+67   -4.2216e+67   2.11751e+66
   1.48036e+60  -1.80406e+63   1.58157e+62   3.90555e+68  1.86728e+136   1.5268e+203    3.6587e+68   1.42337e+67   4.61496e+67   3.30172e+68    1.0365e+67  -4.24798e+67   2.99055e+66
   6.75093e+50  -1.92018e+63   4.52572e+61   1.57662e+68  3.93361e+135  1.45316e+202    1.4465e+68   1.10661e+67   4.26687e+67   1.03927e+68  -1.03039e+67   4.48931e+67   1.23122e+66
   7.99737e+50  -1.92035e+63  -7.39432e+61  -2.23713e+68  9.25263e+135 -9.15292e+202   2.01978e+68  -2.07274e+67   -4.5341e+67  -1.57645e+68  -1.00434e+67   4.47314e+67   8.72148e+65
  -5.88871e+59  -1.91996e+63  -7.39765e+61  -2.26297e+68  9.56281e+135 -9.30507e+202   2.04077e+68  -2.13236e+67  -4.55534e+67   -1.5942e+68   1.05705e+67   4.41957e+67   2.25671e+66
   4.83052e+59  -1.91979e+63   4.52102e+61   1.54997e+68  3.74077e+135  1.60043e+202    1.4242e+68   1.04512e+67   4.24376e+67   1.02109e+68     1.031e+67   4.45882e+67   2.95841e+66
    6.5345e+50  -1.80332e+63   4.35011e+61    1.7158e+68  5.90228e+135  4.79023e+202   1.53419e+68   1.88837e+67    4.5557e+67   1.07139e+68  -1.03594e+67  -4.18882e+67   4.28709e+65
   7.74955e+50  -1.80347e+63  -7.11867e+61  -2.12765e+68  7.69145e+135 -5.45567e+202   1.93849e+68  -1.45087e+67   -4.3138e+67  -1.55119e+68  -1.04064e+67  -4.20499e+67   8.62594e+64
  -6.74257e+59  -1.80307e+63  -7.11901e+61  -2.16735e+68  8.11942e+135 -6.34144e+202   1.97116e+68  -1.54248e+67  -4.41229e+67  -1.57187e+68   1.03333e+67   -4.2573e+67   1.44005e+66
   4.04209e+59  -1.80291e+63   4.34843e+61   1.67531e+68  5.47239e+135  3.86772e+202   1.50313e+68   1.79493e+67   4.45538e+67   1.05028e+68   1.03804e+67  -4.21857e+67   2.11751e+66
   1.55657e+60  -1.92095e+63   1.64399e+62   3.77367e+68  1.46508e+136  5.05866e+202   3.57428e+68   7.76274e+66   4.25795e+67   3.27024e+68  -1.03042e+67   4.47102e+67   6.14251e+66
   4.83052e+59  -1.91979e+63   4.52102e+61  -2.18436e+66 -5.58042e+135  1.04941e+203   7.47342e+67  -2.29853e+67  -4.50092e+67   6.58101e+67  -1.02006e+67   4.49717e+67   3.70621e+66
   9.11866e+59  -1.91861e+63   4.51337e+61  -5.69782e+66 -5.35105e+135  1.11866e+203   7.33725e+67  -2.37961e+67  -4.56665e+67   6.37648e+67   1.06435e+67   4.32902e+67   4.59797e+66
   3.06927e+60  -1.91977e+63   1.64246e+62    3.7229e+68  1.38424e+136  4.50206e+202   3.53211e+68    6.5913e+66   4.15615e+67   3.24138e+68   1.05399e+67   4.32348e+67   7.70154e+66
   1.48036e+60  -1.80406e+63   1.58157e+62   3.92713e+68  1.93497e+136  1.79394e+203   3.67252e+68   1.54617e+67   4.66476e+67   3.30604e+68  -1.02512e+67  -4.21362e+67   4.96429e+66
   4.04209e+59  -1.80291e+63   4.34843e+61   7.34464e+66 -5.22083e+135  8.06844e+202   7.26276e+67  -1.84083e+67  -4.22837e+67   6.80366e+67  -1.04224e+67  -4.18701e+67   2.86339e+66
   7.96393e+59   -1.8017e+63   4.34381e+61   2.59165e+66 -5.29624e+135  8.30053e+202   7.28214e+67  -1.95051e+67  -4.36359e+67   6.57327e+67    1.0228e+67  -4.33402e+67   3.73533e+66
   2.94636e+60  -1.80285e+63   1.58045e+62   3.86432e+68  1.79019e+136  1.36664e+203    3.6253e+68   1.40122e+67   4.49427e+67   3.27477e+68   1.03993e+67  -4.34048e+67   6.48867e+66
   4.83052e+59  -1.91979e+63   4.52102e+61   1.64131e+68   4.7939e+135  2.54479e+202   1.48813e+68   1.53953e+67   4.45455e+67   1.04191e+68  -1.02312e+67   4.49305e+67   3.70621e+66
  -5.88871e+59  -1.91996e+63  -7.39765e+61  -2.16657e+68  7.94948e+135 -6.27457e+202   1.97461e+68  -1.61343e+67  -4.33288e+67  -1.57194e+68  -1.03832e+67    4.4545e+67   2.18741e+66
  -1.23442e+60  -1.91878e+63  -7.40083e+61  -2.24008e+68  8.95164e+135 -7.62648e+202   2.03047e+68  -1.78307e+67  -4.52482e+67  -1.60929e+68   1.02777e+67   4.35099e+67   2.76533e+66
   9.11866e+59  -1.91861e+63   4.51337e+61   1.59394e+68  4.42444e+135  2.76711e+202   1.44852e+68   1.43021e+67   4.32292e+67   1.01863e+68   1.04297e+67   4.38659e+67   4.59797e+66
   4.04209e+59  -1.80291e+63   4.34843e+61   1.69427e+68  5.73492e+135  4.76211e+202    1.5156e+68   1.89953e+67   4.49913e+67    1.0544e+68  -1.03778e+67  -4.18397e+67   2.86339e+66
  -6.74257e+59  -1.80307e+63  -7.11901e+61  -2.14024e+68    7.713e+135 -5.23136e+202   1.95175e+68  -1.39855e+67  -4.34973e+67  -1.56541e+68  -1.04905e+67  -4.22259e+67   8.15427e+65
  -1.36454e+60  -1.80185e+63  -7.11696e+61  -2.21052e+68  8.44332e+135 -6.75095e+202   2.01049e+68  -1.56075e+67  -4.52884e+67  -1.60156e+68   1.03261e+67  -4.36788e+67    1.3805e+66
   7.96393e+59   -1.8017e+63   4.34381e+61   1.64954e+68   5.1599e+135  3.22309e+202   1.48492e+68   1.79631e+67   4.37899e+67   1.03201e+68   1.04388e+67  -4.33215e+67   3.73533e+66
   3.06927e+60  -1.91977e+63   1.64246e+62   3.83158e+68  1.69283e+136  1.10623e+203   3.60391e+68   1.26337e+67   4.40693e+67   3.26455e+68  -1.00034e+67   4.39196e+67    1.0506e+67
   9.11866e+59  -1.91861e+63   4.51337e+61    8.8392e+65 -5.37463e+135  8.80709e+202   7.33172e+67  -2.03244e+67  -4.41477e+67    6.5356e+67  -1.05143e+67   4.39954e+67   3.48155e+66
   1.30333e+60  -1.91663e+63   4.50988e+61   2.98789e+66 -5.12885e+135  8.77914e+202   7.16783e+67  -1.98388e+67   -4.4413e+67   6.72397e+67   9.74753e+66   3.97521e+67   3.79908e+66
   4.51436e+60   -1.9178e+63   1.63983e+62   3.84353e+68  1.73045e+136  1.33531e+203   3.61141e+68   1.29096e+67   4.35944e+67   3.27849e+68   1.02585e+67   3.94861e+67   1.08933e+67
   2.94636e+60  -1.80285e+63   1.58045e+62   3.86735e+68  1.80686e+136  1.56918e+203   3.62623e+68   1.44923e+67   4.50127e+67   3.27231e+68   -1.0229e+67  -4.27172e+67   1.12346e+67
   7.96393e+59   -1.8017e+63   4.34381e+61   3.81639e+66 -5.23358e+135  8.54901e+202   7.24441e+67  -1.88009e+67  -4.33533e+67   6.59705e+67  -1.04864e+67  -4.26497e+67   4.39957e+66
   1.18025e+60  -1.79968e+63   4.33661e+61   6.99985e+66 -5.70135e+135  8.19844e+202   7.58311e+67  -1.80662e+67  -4.30062e+67   6.80723e+67   1.01661e+67  -4.68555e+67   4.71004e+66
   4.40415e+60  -1.80084e+63   1.57748e+62   3.89031e+68  1.80049e+136  1.36503e+203   3.65157e+68    1.5022e+67   4.51548e+67   3.28854e+68   1.04236e+67  -4.71088e+67   1.16133e+67
   9.11866e+59  -1.91861e+63   4.51337e+61   1.65976e+68  5.14969e+135  3.11935e+202   1.49661e+68   1.77738e+67   4.47481e+67   1.03454e+68  -1.07282e+67   4.45712e+67   3.48155e+66
  -1.23442e+60  -1.91878e+63  -7.40083e+61  -2.13517e+68  7.21575e+135 -3.93714e+202   1.95893e+68  -1.25351e+67  -4.28273e+67  -1.58155e+68  -1.07546e+67    4.4211e+67  -2.58099e+66
  -1.93498e+60   -1.9168e+63  -7.38377e+61  -2.11253e+68  7.31301e+135 -4.61008e+202   1.93171e+68  -1.20127e+67  -4.23416e+67  -1.56899e+68    1.0246e+67   4.01199e+67  -3.03123e+66
   1.30333e+60  -1.91663e+63   4.50988e+61   1.70401e+68  5.91089e+135  5.11431e+202   1.52071e+68   1.87949e+67   4.57324e+67   1.05873e+68   1.02724e+67   4.07482e+67   3.79908e+66
   7.96393e+59   -1.8017e+63   4.34381e+61   1.66179e+68  5.37011e+135  4.32543e+202   1.49148e+68   1.86673e+67   4.40726e+67   1.03439e+68  -1.02757e+67   -4.2631e+67   4.39957e+66
  -1.36454e+60  -1.80185e+63  -7.11696e+61  -2.19873e+68  8.33335e+135 -6.47418e+202   2.00027e+68  -1.52023e+67  -4.50162e+67  -1.59654e+68  -1.06596e+67  -4.29793e+67  -2.07211e+66
   -2.0576e+60  -1.79981e+63  -7.10142e+61  -2.19408e+68  7.94553e+135 -5.62746e+202   2.00485e+68   -1.5095e+67  -4.54827e+67   -1.5883e+68   1.00504e+67  -4.74896e+67  -2.51234e+66
   1.18025e+60  -1.79968e+63   4.33661e+61   1.68757e+68  5.19839e+135  3.01281e+202   1.52579e+68   1.92622e+67   4.40936e+67   1.05401e+68   1.04343e+67  -4.68791e+67   4.71004e+66
   5.65134e+50  -2.04277e+63    1.7111e+62   3.67988e+68  6.31827e+135 -1.63041e+203     3.593e+68  -1.15128e+67   3.83447e+67   3.41156e+68  -9.57245e+66   4.75719e+67   6.27909e+66
   6.96536e+50  -2.04156e+63   4.72069e+61  -1.84711e+67 -6.80045e+135  2.20979e+203   8.45082e+67  -3.83593e+67   -5.0838e+67   7.07262e+67  -8.78911e+66    4.8555e+67   2.67078e+66
    6.3597e+59  -2.04123e+63   4.71072e+61  -2.16826e+67 -6.33479e+135  2.08968e+203    8.2492e+67  -3.91004e+67  -5.04524e+67   6.78702e+67   1.35565e+67   4.48441e+67   5.89566e+66
   1.79794e+60  -2.04241e+63   1.70875e+62   3.47677e+68  3.28194e+135 -1.98709e+203   3.42925e+68  -1.61997e+67   3.47845e+67   3.29093e+68   1.27731e+67   4.43854e+67   1.17245e+67
   5.50347e+50  -1.92134e+63   1.64447e+62   4.22643e+68  2.32472e+136  2.32017e+203   3.94183e+68   1.59511e+67   5.29237e+67   3.53768e+68  -1.03779e+67  -4.30514e+67   1.24998e+66
   6.75093e+50  -1.92018e+63   4.52572e+61   1.65029e+67  -5.9092e+135  9.98908e+202   7.86228e+67  -2.14932e+67   -4.0801e+67   7.87972e+67  -1.03095e+67  -4.20683e+67    1.2288e+66
   4.83052e+59  -1.91979e+63   4.52102e+61   1.01246e+67 -5.92427e+135  1.04567e+203   7.76323e+67  -2.29651e+67  -4.21687e+67   7.52584e+67   1.03351e+67  -4.31834e+67   4.38038e+66
   1.55657e+60  -1.92095e+63   1.64399e+62   3.99555e+68  1.83541e+136  1.08746e+203   3.75886e+68    1.0623e+67   4.76999e+67   3.41232e+68   1.02667e+67  -4.36541e+67   6.57159e+66
   6.96536e+50  -2.04156e+63   4.72069e+61   1.56586e+68  2.89942e+135 -5.63402e+201   1.47036e+68   2.03842e+66   4.34232e+67   1.11124e+68  -8.78911e+66   4.64391e+67   2.67078e+66
   8.28178e+50  -2.04175e+63  -7.65856e+61    -2.358e+68   1.1762e+136 -1.58272e+203   2.09379e+68  -3.26247e+67  -4.71274e+67  -1.56048e+68  -9.93001e+66   4.59376e+67   3.43794e+66
  -4.05374e+59  -2.04138e+63  -7.67141e+61  -2.53403e+68  1.43074e+136 -2.13142e+203   2.23396e+68  -3.66869e+67  -5.28326e+67  -1.63883e+68   1.00958e+67   4.64081e+67   6.78512e+66
    6.3597e+59  -2.04123e+63   4.71072e+61   1.44372e+68  1.75838e+135 -1.02695e+202   1.38148e+68  -7.80098e+65   3.89616e+67    1.0619e+68   1.12368e+67   4.58771e+67   5.89566e+66
   6.75093e+50  -1.92018e+63   4.52572e+61    1.8191e+68  6.54006e+135  5.34682e+202   1.62946e+68   1.66777e+67   4.82644e+67   1.16968e+68  -1.03095e+67  -4.18717e+67    1.2288e+66
   7.99737e+50  -1.92035e+63  -7.39432e+61  -2.09392e+68  7.74733e+135 -6.25557e+202   1.89993e+68  -1.74017e+67   -4.2036e+67  -1.49954e+68  -1.00424e+67  -4.23731e+67    8.6538e+65
  -5.88871e+59  -1.91996e+63  -7.39765e+61  -2.20128e+68  8.91667e+135 -8.62171e+202   1.98846e+68  -1.98793e+67  -4.41297e+67  -1.56119e+68   1.05715e+67  -4.27171e+67   4.13649e+66
   4.83052e+59  -1.91979e+63   4.52102e+61    1.7644e+68  5.87344e+135  3.73313e+202   1.58927e+68   1.54155e+67    4.7386e+67   1.13639e+68   1.03044e+67  -4.32246e+67   4.38038e+66
   1.79794e+60  -2.04241e+63   1.70875e+62   3.88445e+68   1.4882e+136  2.44615e+202   3.68792e+68    5.8693e+66   4.41924e+67   3.38383e+68  -9.24167e+66   4.47523e+67   1.51395e+67
    6.3597e+59  -2.04123e+63   4.71072e+61  -5.18693e+66 -6.29693e+135   1.5517e+203   7.95225e+67  -3.00645e+67  -4.66457e+67   7.15233e+67  -7.76686e+66   4.51995e+67   1.04604e+67
   1.17433e+60  -2.04011e+63   4.68352e+61  -2.35237e+67 -5.41393e+135  1.75149e+203   7.72483e+67   -3.4296e+67  -4.87557e+67   5.95281e+67   1.19045e+67   4.28531e+67   1.28076e+67
   3.35921e+60  -2.04124e+63   1.70509e+62   3.67686e+68  1.16193e+136 -1.93237e+202   3.51531e+68   1.07888e+66   4.15235e+67   3.25084e+68   1.04297e+67   4.34145e+67   1.67716e+67
   1.55657e+60  -1.92095e+63   1.64399e+62   4.06606e+68   2.0529e+136  1.85789e+203   3.80525e+68   1.45114e+67   4.93271e+67   3.42768e+68  -1.03017e+67  -4.33113e+67   9.30098e+66
   4.83052e+59  -1.91979e+63   4.52102e+61   1.92583e+67  -5.7358e+135  8.63817e+202   7.81453e+67  -1.80218e+67  -4.00609e+67   7.73409e+67  -1.02023e+67  -4.28411e+67   5.11368e+66
   9.11866e+59  -1.91861e+63   4.51337e+61   -4.9013e+66 -5.53934e+135  1.04493e+203    7.4588e+67  -2.35971e+67  -4.54827e+67   6.41785e+67   1.06417e+67  -4.48447e+67   7.40756e+66
   3.06927e+60  -1.91977e+63   1.64246e+62    3.8008e+68  1.51596e+136  5.11306e+202   3.59584e+68   8.38992e+66    4.3359e+67   3.28331e+68   1.05423e+67  -4.43292e+67   1.08959e+67
    6.3597e+59  -2.04123e+63   4.71072e+61   1.60868e+68  3.60914e+135 -4.47311e+201   1.49229e+68   8.25578e+66   4.27682e+67   1.09844e+68  -1.00866e+67   4.62325e+67   1.04604e+67
  -4.05374e+59  -2.04138e+63  -7.67141e+61  -2.23454e+68  9.02422e+135 -9.63566e+202   2.02256e+68  -2.04478e+67  -4.59214e+67  -1.57085e+68  -7.57128e+66   4.67026e+67   1.00957e+67
   -9.8502e+59  -2.04035e+63  -7.69694e+61  -2.40367e+68  1.08636e+136 -9.19595e+202   2.16593e+68  -2.43507e+67  -4.62042e+67  -1.69812e+68   1.39288e+67    4.3878e+67   1.11039e+67
   1.17433e+60  -2.04011e+63   4.68352e+61   1.47401e+68  2.66307e+135  4.72706e+201   1.38073e+68   5.14816e+66   4.32807e+67   9.89723e+67   1.14135e+67   4.53714e+67   1.28076e+67
   4.83052e+59  -1.91979e+63   4.52102e+61   1.85574e+68  7.12133e+135  7.02434e+202   1.65277e+68   2.03588e+67   4.94938e+67   1.15722e+68   -1.0233e+67  -4.28823e+67   5.11368e+66
  -5.88871e+59  -1.91996e+63  -7.39765e+61  -2.10539e+68   7.4137e+135 -4.76347e+202   1.92127e+68  -1.47178e+67  -4.19169e+67  -1.53904e+68  -1.03952e+67  -4.23676e+67   4.05645e+66
  -1.23442e+60  -1.91878e+63  -7.40083e+61   -2.3929e+68  1.06876e+136 -1.17297e+203   2.15806e+68  -2.13527e+67  -4.87749e+67  -1.69162e+68   1.02657e+67  -4.56731e+67   5.04166e+66
   9.11866e+59  -1.91861e+63   4.51337e+61   1.60191e+68  4.42945e+135  1.56256e+202   1.45711e+68   1.45011e+67    4.3413e+67   1.02277e+68   1.04279e+67   -4.4269e+67   7.40756e+66
   3.35921e+60  -2.04124e+63   1.70509e+62   3.76987e+68  1.42201e+136  9.33304e+201    3.5763e+68   5.88911e+66   4.36698e+67   3.27428e+68  -1.12531e+67   4.41373e+67   1.37607e+67
   1.17433e+60  -2.04011e+63   4.68352e+61   7.30141e+66 -5.29645e+135  7.46425e+202   7.31421e+67  -1.79696e+67  -4.16423e+67   6.69132e+67  -9.22346e+66   4.35574e+67   8.57964e+66
    1.5405e+60   -2.0382e+63   4.67154e+61   5.84765e+66  -4.7751e+135  7.59065e+202   6.93491e+67   -1.8305e+67  -3.90545e+67   6.32072e+67    1.2806e+67   4.04016e+67   8.25683e+66
   4.87091e+60  -2.03925e+63   1.70254e+62   3.86694e+68  1.69798e+136  8.01286e+202   3.64078e+68   8.12924e+66   4.88331e+67   3.29732e+68   1.07764e+67   4.28523e+67   1.57176e+67
   3.06927e+60  -1.91977e+63   1.64246e+62   3.90993e+68  1.84208e+136  1.62081e+203    3.6668e+68   1.44581e+67   4.58775e+67   3.30657e+68  -9.99631e+66  -4.36446e+67   1.37151e+67
   9.11866e+59  -1.91861e+63   4.51337e+61   1.60862e+66  -5.4294e+135  9.79101e+202    7.3702e+67  -2.01637e+67  -4.39804e+67   6.57527e+67  -1.05179e+67  -4.41394e+67    6.2962e+66
   1.30333e+60  -1.91663e+63   4.50988e+61  -1.15369e+67 -5.64652e+135  1.12025e+203   7.60238e+67  -2.31972e+67  -4.77648e+67   5.94252e+67   9.74398e+66    -4.906e+67   5.98073e+66
   4.51436e+60   -1.9178e+63   1.63983e+62   3.88755e+68   1.7422e+136  1.14225e+203   3.65661e+68   1.39416e+67   4.46101e+67   3.30203e+68   1.02656e+67  -4.67368e+67   1.56275e+67
   1.17433e+60  -2.04011e+63   4.68352e+61   1.78226e+68  6.43504e+135  4.80831e+202   1.59153e+68   2.14746e+67   5.03942e+67   1.06357e+68   -9.7144e+66   4.60756e+67   8.57964e+66
   -9.8502e+59  -2.04035e+63  -7.69694e+61  -2.17212e+68  7.17721e+135 -4.67336e+202   2.00009e+68  -1.25019e+67  -4.08607e+67  -1.63849e+68  -9.01012e+66   4.46426e+67   1.70202e+66
  -1.68614e+60  -2.03847e+63  -7.68777e+61  -2.23514e+68  8.18085e+135 -5.15947e+202   2.04396e+68  -1.39563e+67  -4.13015e+67  -1.68256e+68   1.15146e+67   3.94783e+67   1.37771e+66
    1.5405e+60   -2.0382e+63   4.67154e+61   1.70566e+68  6.09448e+135  5.73482e+202   1.51652e+68   1.97069e+67     4.964e+67   1.01219e+68   1.08103e+67   4.14482e+67   8.25683e+66
   9.11866e+59  -1.91861e+63   4.51337e+61   1.66701e+68  5.27995e+135  4.17657e+202   1.50031e+68   1.79345e+67   4.49153e+67   1.03851e+68  -1.07317e+67  -4.35636e+67    6.2962e+66
  -1.23442e+60  -1.91878e+63  -7.40083e+61  -2.28812e+68  8.99253e+135 -7.24357e+202   2.08237e+68  -1.60635e+67  -4.63569e+67  -1.66392e+68  -1.07595e+67  -4.49723e+67  -2.96439e+65
  -1.93498e+60   -1.9168e+63  -7.38377e+61   -2.3831e+68  9.74307e+135 -8.78197e+202   2.16907e+68  -1.82552e+67  -4.85854e+67  -1.71469e+68    1.0241e+67  -4.99972e+67  -6.13378e+65
   1.30333e+60  -1.91663e+63   4.50988e+61   1.55876e+68  3.87233e+135  1.07306e+202   1.42916e+68   1.54365e+67   4.23805e+67   9.80589e+67   1.02688e+67  -4.80639e+67   5.98073e+66
   5.78114e+50  -2.16898e+63   1.78303e+62   3.68642e+68 -4.16044e+134 -3.11932e+203   3.69206e+68  -2.38717e+67   3.07786e+67   3.61735e+68  -1.51881e+67   4.37872e+67   5.63792e+66
   7.17382e+50  -2.16757e+63   4.98122e+61  -2.40774e+67  -1.0304e+136  4.51109e+203   1.04325e+68  -5.88758e+67   -5.9849e+67   9.46474e+67  -1.14406e+67   4.76458e+67   1.37712e+67
   9.71805e+59  -2.16716e+63   4.93094e+61  -5.88571e+67 -8.51018e+135  5.40991e+203   1.09427e+68  -6.69018e+67  -6.26121e+67   7.06568e+67   8.01827e+66   5.52838e+67   2.06739e+67
   1.98367e+60  -2.16843e+63   1.78098e+62   3.88837e+68  4.12368e+135 -2.38379e+203   3.83498e+68  -1.92114e+67   4.07019e+67   3.67346e+68   4.27076e+66   5.35558e+67   1.01174e+67
   5.65134e+50  -2.04277e+63    1.7111e+62   4.34351e+68  1.97512e+136  3.80761e+202   4.10986e+68   3.79281e+66   5.36594e+67   3.76899e+68  -9.54746e+66   -4.4443e+67   6.30115e+66
   6.96536e+50  -2.04156e+63   4.72069e+61   6.36093e+67 -7.00337e+135  9.61746e+202   1.05117e+68  -1.93771e+67  -3.18964e+67   1.14883e+68  -8.77288e+66  -4.05844e+67    2.6332e+66
    6.3597e+59  -2.04123e+63   4.71072e+61   1.65933e+67 -7.07492e+135  1.39702e+203   8.57336e+67  -3.02269e+67  -4.16195e+67   8.84397e+67   1.35727e+67  -4.13129e+67   9.37536e+66
   1.79794e+60  -2.04241e+63   1.70875e+62   4.41031e+68  2.15585e+136  2.37496e+202   4.15872e+68   5.33428e+66   5.63276e+67   3.79369e+68   1.27981e+67  -4.30905e+67   1.06765e+67
   7.17382e+50  -2.16757e+63   4.98122e+61   1.47613e+68  -2.4099e+135 -6.33652e+202   1.55562e+68  -1.92548e+67   3.25999e+67   1.34268e+68  -1.14406e+67   5.70393e+67   1.37712e+67
   8.56397e+50  -2.16753e+63  -7.91668e+61  -2.53179e+68  1.33365e+136 -1.96133e+203   2.25307e+68   -3.5587e+67  -5.98907e+67  -1.57701e+68   8.23905e+65   6.14157e+67   8.89847e+66
  -4.15748e+59  -2.16757e+63  -7.94915e+61  -2.22622e+68  7.82533e+135  5.71085e+202   2.04292e+68  -2.85353e+67   -3.5594e+67  -1.58493e+68   2.75076e+67   5.02524e+67   8.50866e+66
   9.71805e+59  -2.16716e+63   4.93094e+61   1.51775e+68 -7.94786e+134 -6.88802e+202   1.54371e+68  -1.82944e+67   5.08054e+67   1.19264e+68   1.52431e+67   5.55245e+67   2.06739e+67
   6.96536e+50  -2.04156e+63   4.72069e+61   2.38666e+68  1.23519e+136  1.54827e+203    2.1121e+68   2.10206e+67   6.23648e+67    1.5528e+68  -8.77288e+66  -4.27003e+67    2.6332e+66
   8.28178e+50  -2.04175e+63  -7.65856e+61  -2.28268e+68  1.14201e+136 -1.49615e+203   2.01708e+68  -3.09261e+67  -4.53891e+67  -1.51953e+68  -9.97142e+66  -3.83238e+67   3.42671e+66
  -4.05374e+59  -2.04138e+63  -7.67141e+61  -2.58504e+68  1.51942e+136 -2.48599e+203   2.27223e+68  -3.79038e+67  -5.40099e+67  -1.66591e+68   1.00544e+67  -4.53276e+67   3.04596e+66
    6.3597e+59  -2.04123e+63   4.71072e+61   1.82648e+68  5.63415e+135  7.15001e+201   1.66511e+68   8.09336e+66   4.77944e+67    1.2676e+68    1.1253e+67  -4.02799e+67   9.37536e+66
   1.98367e+60  -2.16843e+63   1.78098e+62   3.39946e+68 -1.11402e+136 -4.53457e+203   3.55954e+68  -4.46122e+67   2.94194e+67   3.55139e+68  -9.78343e+66     5.379e+67   3.79882e+67
   9.71805e+59  -2.16716e+63   4.93094e+61   2.59598e+67 -8.98892e+135  1.92078e+203   9.82997e+67  -2.08181e+67  -4.30389e+67   8.98168e+67   3.45777e+65   5.54116e+67   3.28466e+67
   1.45957e+60  -2.16646e+63   4.83542e+61  -1.60181e+67 -6.47434e+135  1.88073e+203   8.20422e+67  -3.05053e+67   -3.8497e+67   5.29842e+67   3.40918e+67   4.24287e+67   3.20971e+67
   4.22623e+60  -2.16737e+63   1.76879e+62   2.75971e+68 -1.65612e+136  -5.3124e+203   3.04502e+68  -5.93755e+67   2.88852e+67   3.06462e+68   2.39626e+67   4.70297e+67   5.21155e+67
   1.79794e+60  -2.04241e+63   1.70875e+62   4.82278e+68  3.60666e+136  6.22436e+203   4.43312e+68   2.76587e+67   6.58463e+67   3.88773e+68  -9.25329e+66  -4.27229e+67    1.3999e+67
    6.3597e+59  -2.04123e+63   4.71072e+61   3.28517e+67 -6.57247e+135  1.20704e+203    8.7474e+67  -2.13193e+67  -3.78676e+67   9.20386e+67   -7.8068e+66  -4.09566e+67   1.39254e+67
   1.17433e+60  -2.04011e+63   4.68352e+61  -4.64241e+67 -5.14681e+135   1.8905e+203   8.54518e+67  -3.96137e+67  -5.40405e+67     4.723e+67   1.18645e+67  -5.04919e+67   1.31933e+67
   3.35921e+60  -2.04124e+63   1.70509e+62   3.81518e+68   1.3511e+136 -4.12824e+202    3.6338e+68   4.40626e+66   4.47153e+67   3.32396e+68   1.04181e+67  -4.61803e+67   2.77978e+67
   9.71805e+59  -2.16716e+63   4.93094e+61   2.36592e+68  1.13112e+136  1.28471e+203    2.1134e+68   2.77894e+67   7.03785e+67   1.38424e+68   7.57063e+66   5.56524e+67   3.28466e+67
  -4.15748e+59  -2.16757e+63  -7.94915e+61  -2.15384e+68  7.30725e+135 -5.81163e+202   1.97694e+68  -2.45498e+67  -3.39237e+67   -1.5691e+68   3.26807e+66   5.06564e+67   1.11318e+67
  -8.73121e+59  -2.16671e+63  -7.99122e+61  -2.57023e+68  1.41726e+136 -1.36107e+203    2.2779e+68  -3.41588e+67  -4.95943e+67   -1.7327e+68   2.14439e+67   3.73812e+67   1.32735e+67
   1.45957e+60  -2.16646e+63   4.83542e+61   1.28669e+68  6.70195e+134 -3.01679e+202   1.26038e+68    2.8841e+66   3.94115e+67   8.63736e+67   2.57464e+67   3.74646e+67   3.20971e+67
    6.3597e+59  -2.04123e+63   4.71072e+61   1.98906e+68  7.92174e+135  7.50371e+202   1.77882e+68    1.7001e+67   5.15464e+67   1.30359e+68  -1.01265e+67  -3.99236e+67   1.39254e+67
  -4.05374e+59  -2.04138e+63  -7.67141e+61  -2.28388e+68  9.85381e+135 -1.03017e+203   2.05688e+68  -2.15739e+67    -4.706e+67  -1.59754e+68  -7.57427e+66  -4.50338e+67   6.37244e+66
   -9.8502e+59  -2.04035e+63  -7.69694e+61  -2.38051e+68  1.02017e+136 -1.03184e+203   2.15561e+68  -2.38038e+67  -4.56698e+67  -1.68578e+68   1.39258e+67  -4.82855e+67   8.46439e+66
   1.17433e+60  -2.04011e+63   4.68352e+61   1.24501e+68  6.67255e+134 -3.23913e+202   1.21792e+68   -1.6948e+65    3.7996e+67   8.66742e+67   1.13736e+67  -4.79736e+67   1.31933e+67
   4.22623e+60  -2.16737e+63   1.76879e+62   4.82927e+68  4.45786e+136  1.06824e+204   4.34326e+68   5.21329e+67    7.6644e+67    3.5415e+68  -3.09615e+66   4.79316e+67   5.21188e+67
   1.45957e+60  -2.16646e+63   4.83542e+61   2.64889e+67 -4.43531e+135  4.67541e+202   7.16726e+67  -8.36977e+66  -2.86877e+67   6.35464e+67   2.10456e+66    4.3495e+67   2.05987e+67
   1.72278e+60   -2.1646e+63   4.78112e+61  -4.30994e+66 -2.84877e+135  4.83163e+202   5.35476e+67  -1.54772e+67  -2.84965e+67   3.96638e+67   1.77715e+67   2.96423e+67   1.87394e+67
   5.30412e+60  -2.16532e+63   1.75621e+62   3.77465e+68  2.35692e+136  3.21641e+203   3.44835e+68   2.77957e+67   5.96055e+67   2.90064e+68   1.25708e+67   3.63533e+67   4.42707e+67
   3.35921e+60  -2.04124e+63   1.70509e+62   3.90043e+68  1.61663e+136  7.35897e+202   3.68737e+68   8.79643e+66   4.66827e+67   3.34564e+68  -1.12482e+67  -4.54581e+67   2.47525e+67
   1.17433e+60  -2.04011e+63   4.68352e+61  -1.55499e+67 -5.38675e+135  1.24656e+203   7.50237e+67  -2.32596e+67  -4.69156e+67   5.46254e+67  -9.22102e+66   -4.9789e+67   8.98151e+66
    1.5405e+60   -2.0382e+63   4.67154e+61  -5.93008e+67 -3.62633e+135  1.31169e+203   8.45158e+67   -3.3356e+67  -5.40888e+67   2.81439e+67   1.28084e+67  -5.24793e+67    7.1655e+66
   4.87091e+60  -2.03925e+63   1.70254e+62   2.73366e+68 -1.70517e+135 -1.27079e+203   2.76467e+68   -1.8129e+67   2.26805e+67   2.68814e+68   1.07812e+67  -4.59269e+67   1.70869e+67
   1.45957e+60  -2.16646e+63   4.83542e+61   1.71176e+68  6.48017e+135  4.76639e+202   1.51067e+68   2.50196e+67   4.92208e+67   9.69358e+67  -6.24079e+66   3.85308e+67   2.05987e+67
  -8.73121e+59  -2.16671e+63  -7.99122e+61  -2.17658e+68  7.83807e+135 -6.71019e+202   1.98839e+68  -1.33193e+67  -4.05101e+67  -1.63828e+68  -2.03958e+66    3.8164e+67   7.72208e+66
  -1.54482e+60  -2.16501e+63  -8.01386e+61  -2.38905e+68  9.99407e+135 -5.85868e+202   2.16983e+68  -1.82226e+67  -3.95122e+67  -1.81171e+68   1.59394e+67   2.94626e+67    7.9803e+66
   1.72278e+60   -2.1646e+63   4.78112e+61   1.35836e+68  3.85314e+135  2.72048e+202   1.20823e+68   1.68641e+67   4.69665e+67   7.20051e+67   1.17382e+67   3.23432e+67   1.87394e+67
   1.17433e+60  -2.04011e+63   4.68352e+61   1.55375e+68  4.08772e+135  2.82646e+202   1.41611e+68   1.61846e+67   4.51208e+67   9.40696e+67  -9.71196e+66  -4.72708e+67   8.98151e+66
   -9.8502e+59  -2.04035e+63  -7.69694e+61  -2.14909e+68  6.64584e+135 -3.90132e+202   1.98847e+68  -1.19645e+67  -4.03294e+67  -1.62616e+68  -9.01844e+66  -4.75207e+67  -9.68242e+65
  -1.68614e+60  -2.03847e+63  -7.68777e+61  -2.51102e+68  1.03538e+136 -9.26332e+202   2.29561e+68  -2.03165e+67   -4.7668e+67  -1.83117e+68   1.15063e+67   -5.4138e+67  -7.16023e+65
    1.5405e+60   -2.0382e+63   4.67154e+61   1.05417e+68 -5.50726e+133 -1.91387e+202   1.05678e+68   4.65592e+66   3.46057e+67   6.61559e+67   1.08128e+67  -5.14327e+67    7.1655e+66
   5.90974e+50  -2.29852e+63   1.90239e+62   3.46669e+68 -1.42478e+137  1.17819e+204   5.12501e+68  -2.28789e+68   3.63777e+67    5.3908e+68   2.84516e+67    1.5719e+68   7.00845e+67
   7.36941e+50  -2.29738e+63   5.25321e+61   1.17234e+68 -2.79391e+136  2.66863e+203   2.04164e+68   2.13696e+66  -1.65689e+67   1.31665e+68   3.25572e+67   1.51855e+68   4.34018e+67
   4.40626e+59  -2.29855e+63   5.09856e+61   3.21014e+65 -3.15249e+136  1.88959e+203   1.77553e+68  -2.48429e+67  -3.79358e+67   6.30997e+67   1.29865e+68   1.02596e+68   3.33944e+67
   5.50064e+60  -2.29953e+63   1.87739e+62   7.04982e+67 -1.61754e+137   4.0297e+204   4.08319e+68   -2.9252e+68  -2.17411e+67    3.8476e+68    1.2576e+68   1.08174e+68   1.40292e+68
   5.78114e+50  -2.16898e+63   1.78303e+62   9.63917e+68  2.11002e+137  1.28836e+205   8.47428e+68   1.14246e+68    1.6815e+68   6.81522e+68  -1.53844e+67  -2.00442e+67   5.37852e+66
   7.17382e+50  -2.16757e+63   4.98122e+61  -1.03691e+67 -9.30663e+135  3.64824e+203   9.70265e+67  -5.59022e+67  -5.66856e+67   1.02219e+68  -1.16265e+67  -2.53792e+67   1.36975e+67
   9.71805e+59  -2.16716e+63   4.93094e+61  -1.25201e+68 -1.77152e+135  4.26236e+203   1.32086e+68  -8.24018e+67  -7.79221e+67   3.51233e+67   7.83236e+66  -4.98453e+67   3.92847e+66
   1.98367e+60  -2.16843e+63   1.78098e+62    6.9362e+68  8.47757e+136  2.31282e+204   6.29549e+68   5.18694e+67   1.11036e+68   5.30714e+68   4.07442e+66  -4.42728e+67   7.39143e+67
   7.36941e+50  -2.29738e+63   5.25321e+61   5.66218e+68  8.78558e+136  4.07376e+204   4.82439e+68   1.05749e+68   2.25192e+68   2.35277e+68   3.25572e+67   1.04294e+68   4.34018e+67
   8.84598e+50  -2.29984e+63  -8.27014e+61   2.07895e+67 -1.91008e+136  -6.9386e+203    1.3976e+68   5.26153e+67    9.9324e+67   -1.3115e+68  -3.11818e+67   5.62982e+67  -1.60672e+67
  -8.51373e+59  -2.29873e+63  -8.21269e+61  -1.49551e+68 -5.46342e+134  6.46998e+202   1.51366e+68   1.33061e+67  -2.75194e+67  -1.35337e+68  -6.33563e+66   3.80321e+67  -2.48431e+67
   4.40626e+59  -2.29855e+63   5.09856e+61   1.46578e+68 -2.91762e+134 -2.14001e+203    1.4757e+68    8.9088e+66    4.0818e+67   9.68514e+67   5.74033e+67   3.25758e+67   3.33944e+67
   7.17382e+50  -2.16757e+63   4.98122e+61   1.61322e+68  1.60271e+135 -9.92203e+202   1.56275e+68  -1.62813e+67   3.57633e+67    1.4184e+68  -1.16265e+67  -1.59857e+67   1.36975e+67
   8.56397e+50  -2.16753e+63  -7.91668e+61  -3.72672e+68  3.48098e+136 -9.62877e+203   3.22606e+68  -6.32575e+67  -8.74661e+67  -2.21949e+68   9.94426e+65  -6.39813e+67   9.01974e+66
  -4.15748e+59  -2.16757e+63  -7.94915e+61  -2.05198e+68  6.31971e+135  4.80119e+202   1.89173e+68  -2.46095e+67   -3.1573e+67  -1.49015e+68   2.76781e+67  -4.54209e+67   4.52799e+65
   9.71805e+59  -2.16716e+63   4.93094e+61   8.54318e+67 -3.75988e+135 -4.26834e+202   1.05159e+68  -3.37943e+67   3.54953e+67   8.37308e+67   1.50572e+67  -4.96046e+67   3.92847e+66
   5.50064e+60  -2.29953e+63   1.87739e+62   1.22398e+69  3.72995e+137  3.35249e+205   1.06072e+69   3.32554e+68   2.44447e+68    6.4698e+68   6.29718e+67    1.0922e+68   2.56341e+68
   4.40626e+59  -2.29855e+63   5.09856e+61  -3.70381e+66 -1.96931e+136  5.58632e+203   1.40381e+68  -2.70501e+67  -3.88646e+67   6.22109e+67   6.98171e+67   1.03596e+68   3.22045e+67
   9.05986e+59  -2.29757e+63   4.94838e+61  -4.62722e+67 -3.82488e+135  5.41411e+202   7.72399e+67  -3.68736e+67  -3.93514e+67   2.99528e+67   4.35098e+67   8.72807e+66   3.19919e+67
   4.59802e+60  -2.29831e+63   1.80996e+62   5.43345e+68  5.10921e+136  6.90111e+203   4.94097e+68   1.75484e+68   9.67141e+67   2.71147e+68   3.66645e+67   1.20199e+67   1.95439e+68
   1.98367e+60  -2.16843e+63   1.78098e+62   6.39579e+68  5.32357e+136  1.83802e+203   5.96511e+68    2.3687e+67   9.85655e+67   5.17327e+68  -9.75374e+66  -4.40423e+67   1.01532e+68
   9.71805e+59  -2.16716e+63   4.93094e+61  -3.97565e+67  -5.7662e+135   2.1747e+203   8.57134e+67  -3.59775e+67  -5.82043e+67   5.44252e+67   4.23136e+65  -4.97218e+67   1.61848e+67
   1.45957e+60  -2.16646e+63   4.83542e+61  -6.46886e+67 -4.19858e+135  8.37363e+202   9.15598e+67   -4.1731e+67  -4.97287e+67   2.67711e+67   3.41692e+67  -4.90155e+67   1.59772e+67
   4.22623e+60  -2.16737e+63   1.76879e+62  -8.22856e+66  -2.4881e+136   8.5813e+203   1.57952e+68  -1.25807e+68  -3.66994e+67   1.54278e+68   2.39923e+67  -4.56126e+67   4.20799e+67
   4.40626e+59  -2.29855e+63   5.09856e+61   1.42553e+68  2.56678e+135 -2.96638e+202   1.33247e+68   6.70157e+66   3.98892e+67   9.59626e+67  -2.64478e+66   3.35766e+67   3.22045e+67
  -8.51373e+59  -2.29873e+63  -8.21269e+61  -1.49115e+68 -6.16875e+133  3.44848e+202   1.49322e+68   1.42296e+67  -2.74189e+67  -1.35926e+68  -2.33629e+66   3.79655e+67  -4.17944e+66
  -1.71726e+60  -2.29776e+63  -8.22894e+61  -1.15884e+68 -1.64732e+135  1.03747e+203   1.22786e+68   2.18983e+67  -1.93027e+67  -1.18479e+68   2.32646e+67   1.48686e+67  -1.24408e+67
   9.05986e+59  -2.29757e+63   4.94838e+61   7.10949e+67 -1.17086e+135 -4.57495e+202   7.89009e+67  -9.78884e+66   2.38463e+67   5.70375e+67   2.29562e+67   1.37394e+67   3.19919e+67
   9.71805e+59  -2.16716e+63   4.93094e+61   1.70876e+68  4.91859e+135  8.18681e+201    1.5582e+68     1.263e+67   5.52132e+67   1.03033e+68   7.64799e+66  -4.94811e+67   1.61848e+67
  -4.15748e+59  -2.16757e+63  -7.94915e+61  -1.98024e+68  6.02948e+135 -4.82907e+202   1.82165e+68  -2.06611e+67  -2.99175e+67  -1.47445e+68   3.29975e+66  -4.50146e+67   3.00123e+66
  -8.73121e+59  -2.16671e+63  -7.99122e+61  -1.86704e+68  4.29451e+135  4.33538e+202   1.74825e+68  -1.80487e+67  -3.33668e+67  -1.35288e+68   2.14756e+67  -5.26953e+67  -5.06347e+66
   1.45957e+60  -2.16646e+63   4.83542e+61   7.99987e+67 -2.87754e+135 -8.16917e+202   9.63189e+67  -8.34167e+66   2.81799e+67   6.01605e+67   2.58238e+67  -5.39797e+67   1.59772e+67
   4.59802e+60  -2.29831e+63   1.80996e+62   3.94801e+68   3.6981e+136  1.01307e+204     3.448e+68   8.70998e+67   6.24347e+67   2.45266e+68   3.17179e+66   1.31363e+67   7.03576e+67
   9.05986e+59  -2.29757e+63   4.94838e+61   4.40085e+67 -2.00536e+135  1.06319e+201   6.27862e+67   1.17676e+67  -1.85174e+67   5.07583e+67   1.82225e+67   9.57098e+66    3.1956e+67
   8.76184e+59  -2.29569e+63    4.7965e+61  -1.55481e+67 -1.05697e+135  5.35681e+201   3.60377e+67  -1.97621e+66  -1.16371e+67  -1.93479e+66    2.0088e+67  -3.26844e+66   2.63077e+67
   4.66523e+60   -2.2959e+63   1.78749e+62     3.313e+68  2.91068e+136  7.61294e+203   2.83994e+68   7.24457e+67   6.84047e+67   1.90449e+68   5.03734e+66   7.21051e+66   5.09548e+67
   4.22623e+60  -2.16737e+63   1.76879e+62   2.00933e+68 -4.27897e+135 -1.57068e+202   2.11313e+68  -1.30755e+67   1.15687e+67    2.0244e+68  -3.06232e+66  -4.47108e+67   4.25938e+67
   1.45957e+60  -2.16646e+63   4.83542e+61  -2.23256e+67 -3.76111e+135  7.42838e+202   6.52651e+67  -1.96781e+67  -3.99526e+67   3.73051e+67   2.11179e+66  -4.79469e+67   4.40406e+66
   1.72278e+60   -2.1646e+63   4.78112e+61  -1.22176e+68  7.34126e+134  1.10059e+203   1.19134e+68  -4.27205e+67  -5.56964e+67  -2.37592e+67   1.77788e+67  -6.05495e+67  -1.10971e+66
   5.30412e+60  -2.16532e+63   1.75621e+62   9.72324e+67 -8.94819e+135  7.12712e+202   1.35655e+68  -3.70065e+67  -5.06368e+66   1.39303e+68   1.26047e+67  -5.05644e+67   2.36529e+67
   9.05986e+59  -2.29757e+63   4.94838e+61   1.61376e+68   6.9991e+135   7.8646e+202   1.37996e+68   3.88523e+67   4.46803e+67    7.7843e+67  -2.33119e+66   1.45824e+67    3.1956e+67
  -1.71726e+60  -2.29776e+63  -8.22894e+61  -1.94333e+68  8.31553e+135 -9.54154e+202    1.7161e+68  -1.96196e+67  -3.74064e+67  -1.37307e+68    2.1286e+66   1.55731e+67  -1.18784e+66
  -2.16461e+60  -2.29604e+63  -8.28403e+61  -2.16758e+68  1.03165e+136 -1.24314e+203   1.91488e+68  -2.47946e+67   -3.6485e+67  -1.55479e+68   1.01583e+67  -2.03185e+66   2.91643e+66
   8.76184e+59  -2.29569e+63    4.7965e+61    5.4604e+67  2.13937e+134 -1.42273e+202   5.26085e+67   1.42127e+67   2.61371e+67   1.42542e+67   5.69849e+66  -2.85068e+66   2.63077e+67
   1.45957e+60  -2.16646e+63   4.83542e+61   1.22362e+68  1.31518e+135 -2.17275e+201   1.16864e+68   1.37113e+67    3.7956e+67   7.06945e+67  -6.23356e+66  -5.29111e+67   4.40406e+66
  -8.73121e+59  -2.16671e+63  -7.99122e+61  -1.46805e+68 -2.36286e+134  2.07808e+201   1.47607e+68   3.07507e+66  -2.41594e+67   -1.2572e+68   -2.0194e+66  -5.19121e+67  -1.06664e+67
  -1.54482e+60  -2.16501e+63  -8.01386e+61  -1.68858e+68  1.36309e+134  4.95059e+202   1.68454e+68  -2.01425e+66  -2.33475e+67  -1.43497e+68   1.59596e+67  -5.70174e+67  -6.65986e+66
   1.72278e+60   -2.1646e+63   4.78112e+61   1.79696e+67 -3.61023e+135  3.32725e+202   6.27147e+67  -1.03792e+67   1.97666e+67   8.58215e+66   1.17454e+67  -5.78485e+67  -1.10971e+66
   6.01701e+50  -2.44936e+63   2.36624e+62   4.33152e+69  2.27959e+138 -1.04883e+207   4.05986e+69   1.01002e+69   5.37886e+68   2.78362e+69  -3.21417e+68   7.60585e+68   1.37501e+69
   7.58438e+50  -2.43736e+63     4.623e+61  -1.88654e+69   1.1577e+137   1.6044e+206    1.8556e+69  -3.11743e+68  -8.97052e+68  -6.77746e+68  -4.82061e+67   9.69622e+68  -2.01603e+68
  -2.15339e+60  -2.43567e+63   5.32544e+61   3.95462e+68  -2.6853e+136 -2.70022e+203   4.28069e+68   2.14873e+68  -4.65338e+66   1.85242e+68  -1.07207e+67  -3.02406e+67  -2.52518e+68
  -2.04149e+59  -2.43817e+63   1.88767e+62  -2.98225e+68   -1.658e+138  3.08468e+206   1.32172e+69  -5.83824e+67  -1.64735e+68  -7.51079e+67  -2.83932e+68   -5.4639e+67   1.26522e+69
   5.90974e+50  -2.29852e+63   1.90239e+62   4.64588e+69  5.82567e+138  2.17962e+207    3.9697e+69   7.61214e+68    1.0285e+69   2.85616e+69   3.00586e+67  -2.52627e+68   6.50223e+67
   7.36941e+50  -2.29738e+63   5.25321e+61  -1.01211e+69  3.21995e+137 -3.27322e+205   8.38081e+68  -2.58971e+68  -2.77188e+68  -4.75955e+68   3.30672e+67    -4.359e+67    4.4523e+67
   4.40626e+59  -2.29855e+63   5.09856e+61   7.26726e+67 -1.99643e+136 -1.71279e+204   1.58889e+68  -8.63588e+66  -2.12393e+67   1.02548e+68   1.30375e+68  -7.73826e+66  -5.15009e+66
   5.50064e+60  -2.29953e+63   1.87739e+62  -1.01251e+69   2.8881e+137 -2.42476e+205   8.58115e+68  -5.44566e+68  -2.71665e+68  -1.96276e+68   1.27367e+68  -3.66401e+67  -4.20942e+67
   7.58438e+50  -2.43736e+63     4.623e+61  -8.08671e+68  8.63112e+136  4.18416e+204   7.53417e+68  -6.30034e+67  -3.16661e+68  -4.29007e+68  -4.82061e+67   -2.3141e+68  -2.01603e+68
    9.0674e+50  -2.43398e+63  -8.17101e+61   8.02217e+66 -3.29963e+136 -1.05957e+204   1.81826e+68   9.62364e+67  -1.28193e+68   3.99788e+67  -8.57829e+66  -1.19125e+68   7.15374e+67
  -1.63938e+60  -2.43368e+63  -8.42028e+61  -2.09531e+68 -1.20839e+135  9.75549e+203   2.12395e+68   4.60318e+67  -1.24982e+68  -1.30581e+68  -1.84631e+67   4.82987e+67   5.55969e+67
  -2.15339e+60  -2.43567e+63   5.32544e+61   4.58138e+68 -8.90783e+135 -9.98617e+203   4.67759e+68   2.29337e+68   2.90953e+67   1.99706e+68  -5.80909e+67   7.14858e+66  -2.52518e+68
   7.36941e+50  -2.29738e+63   5.25321e+61  -5.63129e+68  6.51575e+136 -5.49555e+203   5.01953e+68  -1.55359e+68  -3.54266e+67  -3.72343e+68   3.30672e+67  -9.11509e+67    4.4523e+67
   8.84598e+50  -2.29984e+63  -8.27014e+61   5.86248e+68  1.11945e+137  7.00025e+204   4.81395e+68   1.83018e+68   2.29814e+68   1.73415e+68  -3.14054e+67   2.11345e+67  -1.65272e+67
  -8.51373e+59  -2.29873e+63  -8.21269e+61  -7.98514e+67 -4.36931e+135 -1.59641e+201   1.03661e+68   2.93028e+67   -1.1435e+67  -9.77192e+67  -6.55922e+66  -3.48729e+67  -3.20789e+67
   4.40626e+59  -2.29855e+63   5.09856e+61    2.1893e+68   3.2802e+135 -3.67253e+203   2.11306e+68   2.51158e+67   5.75145e+67   1.36299e+68   5.79133e+67  -7.77581e+67  -5.15009e+66
  -2.04149e+59  -2.43817e+63   1.88767e+62  -3.20233e+68  8.05606e+134  1.92829e+204   3.18973e+68  -1.10646e+68  -1.69814e+68  -3.97736e+67  -1.51901e+68  -5.68395e+67   5.32319e+67
  -2.15339e+60  -2.43567e+63   5.32544e+61  -5.41998e+67 -1.65531e+136  1.79833e+203   1.39609e+68  -1.72545e+67  -1.08421e+68   7.14761e+67  -7.90178e+67  -2.91023e+67   4.84797e+67
  -2.07266e+60  -2.43162e+63   4.98377e+61   1.28163e+67 -6.43672e+135  5.75357e+201   8.12464e+67  -1.78923e+66   4.59029e+66   1.00153e+67  -6.81996e+67  -1.06928e+67   4.11224e+67
   4.39125e+59  -2.43158e+63   1.83133e+62   1.17771e+68  -2.5265e+136 -2.34948e+204   1.97826e+68  -9.56777e+66   2.88106e+67   9.85281e+67  -1.41083e+68   6.88959e+66   8.32668e+67
   5.50064e+60  -2.29953e+63   1.87739e+62   1.50702e+68 -6.32063e+135 -7.42758e+203   1.70387e+68   8.59387e+67  -3.23254e+66   6.79958e+67   6.35837e+67   -3.5577e+67   7.97364e+67
   4.40626e+59  -2.29855e+63   5.09856e+61   7.01016e+67 -8.06205e+135 -4.70626e+203   1.13913e+68  -1.01031e+67  -2.18326e+67   1.02037e+68   7.01459e+67  -6.73443e+66  -7.62833e+66
   9.05986e+59  -2.29757e+63   4.94838e+61  -1.43466e+68  1.92953e+135  1.73452e+203   1.36576e+68   -5.9388e+67  -6.17808e+67  -2.22975e+67   4.38386e+67  -4.79607e+67  -1.48062e+67
   4.59802e+60  -2.29831e+63   1.80996e+62   2.99073e+68  1.27479e+136 -3.92984e+203   2.76942e+68   1.20178e+68   4.03437e+67   1.38551e+68   3.72765e+67   -3.2589e+67   1.09039e+68
  -2.15339e+60  -2.43567e+63   5.32544e+61   8.47627e+66 -2.48417e+136 -1.28074e+204    1.5784e+68  -2.79078e+66  -7.46728e+67   8.59399e+67  -1.26388e+68   8.28687e+66   4.84797e+67
  -1.63938e+60  -2.43368e+63  -8.42028e+61  -2.23292e+68 -1.77211e+135  1.69817e+204   2.27225e+68   3.54012e+67  -1.28158e+68  -1.30535e+68  -7.24147e+67   4.91979e+67   -4.0974e+67
  -3.14894e+60  -2.43151e+63  -8.33285e+61    1.4389e+68 -2.04962e+135  -1.4404e+203   1.50844e+68   1.20135e+68   2.88401e+67  -5.08584e+66  -4.18323e+67  -9.07952e+66  -5.40766e+67
  -2.07266e+60  -2.43162e+63   4.98377e+61  -6.67684e+66 -1.10737e+136  6.45222e+202   1.05443e+68  -6.28765e+66  -5.90602e+66   5.51684e+66  -9.58056e+67  -1.31829e+67   4.11224e+67
   4.40626e+59  -2.29855e+63   5.09856e+61   2.16359e+68  6.33181e+135  3.67147e+202   2.01195e+68   2.36485e+67   5.69212e+67   1.35789e+68  -2.31598e+66  -7.67542e+67  -7.62833e+66
  -8.51373e+59  -2.29873e+63  -8.21269e+61  -7.93855e+67 -3.54838e+135 -3.11274e+201   9.92493e+67   3.02611e+67  -1.13274e+67  -9.83191e+67  -2.20752e+66  -3.49455e+67  -1.08628e+67
  -1.71726e+60  -2.29776e+63  -8.22894e+61   5.11659e+67 -3.58401e+135 -7.01799e+202   7.87525e+67   6.03883e+67   1.92473e+67  -2.84697e+67   2.33934e+67  -3.70504e+67  -2.36459e+67
   9.05986e+59  -2.29757e+63   4.94838e+61  -2.60993e+67 -2.79969e+135  8.60774e+202   5.89988e+67  -3.23033e+67   1.41685e+66   4.78722e+66    2.3285e+67  -4.29493e+67  -1.48062e+67
   4.39125e+59  -2.43158e+63   1.83133e+62   1.54036e+68  3.26318e+135 -1.32347e+203   1.43052e+68   5.98228e+66   3.71794e+67   1.10874e+68  -3.43794e+67   3.33282e+66   2.34884e+67
  -2.07266e+60  -2.43162e+63   4.98377e+61  -1.08922e+67 -1.07178e+135 -5.04211e+201   3.45024e+67  -1.74772e+67  -8.80914e+65   7.46589e+66  -2.82686e+67  -1.20238e+67   -2.5351e+66
  -1.81209e+60  -2.42896e+63   4.79468e+61  -3.70016e+67 -1.04691e+135   3.1164e+202   4.91532e+67  -2.35025e+67   1.19146e+66  -1.46906e+67  -2.33889e+67  -2.80991e+67   3.17379e+66
   9.53445e+59  -2.42871e+63   1.79558e+62   3.22342e+66 -2.97062e+135  1.01289e+202   5.45986e+67  -2.88206e+67   1.04742e+67   2.15699e+67  -2.94997e+67  -1.89039e+67   3.23331e+67
   4.59802e+60  -2.29831e+63   1.80996e+62   1.48315e+68  2.93838e+135 -1.05239e+202   1.38054e+68    3.0549e+67   5.55329e+66   1.12213e+68   3.18523e+66  -3.14526e+67  -1.68221e+67
   9.05986e+59  -2.29757e+63   4.94838e+61  -5.25249e+67 -2.27575e+135  5.68445e+202    7.0955e+67  -1.03758e+67  -4.07943e+67  -1.35475e+66   1.83127e+67  -4.71098e+67  -1.46169e+67
   8.76184e+59  -2.29569e+63    4.7965e+61  -3.66444e+67 -2.11009e+135  3.55511e+202   5.87614e+67  -6.71106e+66  -1.65055e+67  -1.34278e+67   2.01782e+67  -4.52061e+67   -9.0473e+66
   4.66523e+60   -2.2959e+63   1.78749e+62   4.25338e+67 -1.07259e+135 -5.44503e+201   5.36815e+67   6.13799e+66    1.7664e+66   3.46294e+67   5.05078e+66    -3.556e+67  -8.19313e+66
  -2.07266e+60  -2.43162e+63   4.98377e+61  -3.03854e+67 -3.18801e+135  -7.9318e+201   6.41193e+67  -2.19756e+67  -1.13772e+67   2.96747e+66  -5.58747e+67  -1.45139e+67   -2.5351e+66
  -3.14894e+60  -2.43151e+63  -8.33285e+61   -5.2675e+67 -2.26406e+135  1.06017e+203   7.09839e+67   1.73829e+67   -1.6521e+67  -5.35369e+67    -4.246e+67   -9.0586e+66  -6.76981e+66
  -3.66126e+60  -2.42932e+63  -8.40661e+61    -2.003e+67 -2.87559e+135  7.75869e+201   5.72433e+67   2.49163e+67   8.94869e+66  -5.38951e+67  -2.75966e+67  -2.10597e+67  -8.26547e+66
  -1.81209e+60  -2.42896e+63   4.79468e+61  -2.45193e+67 -2.12008e+135  3.55723e+202   5.21658e+67  -2.06219e+67   7.91272e+66  -1.18101e+67  -4.10113e+67  -2.03715e+67   3.17379e+66
   9.05986e+59  -2.29757e+63   4.94838e+61   6.48422e+67 -6.10263e+134  -2.7655e+202   6.93886e+67   1.67089e+67   2.24033e+67     2.573e+67  -2.24095e+66  -4.20985e+67  -1.46169e+67
  -1.71726e+60  -2.29776e+63  -8.22894e+61  -2.72847e+67  -2.4058e+135 -2.39105e+202   5.61272e+67   1.88647e+67   1.14329e+66  -4.72926e+67   2.18329e+66  -3.63434e+67  -1.24712e+67
  -2.16461e+60  -2.29604e+63  -8.28403e+61  -3.24936e+67 -3.55095e+135 -2.43005e+202   6.78733e+67   1.76626e+67   6.03765e+66  -5.61938e+67    1.0213e+67   -4.5027e+67  -1.39304e+67
   8.76184e+59  -2.29569e+63    4.7965e+61   3.35077e+67 -1.83488e+135 -1.55981e+202   5.43842e+67   9.47788e+66   2.12687e+67    2.7611e+66   5.78873e+66  -4.47883e+67   -9.0473e+66
   2.13231e+48  -1.45437e+60  -1.61981e+60  -1.61342e+68  6.77757e+135 -8.28371e+202   1.38758e+68  -3.43216e+67  -2.74874e+67  -9.95332e+67   1.29766e+66    1.7746e+67   1.13367e+66
   8.00314e+47  -1.20099e+60    7.5735e+59   1.12088e+68   3.3922e+135  3.10279e+202   9.57676e+67   2.14807e+67   3.56118e+67   5.49952e+67    9.8123e+65   2.26187e+67   2.62261e+64
  -1.50455e+59  -1.13366e+60   7.59149e+59   1.09602e+68  3.19015e+135  2.78226e+202   9.39273e+67   2.09069e+67    3.4203e+67   5.44916e+67  -3.83277e+66   2.24685e+67  -2.90369e+66
   9.98728e+58  -1.36533e+60  -1.54203e+60   -1.5421e+68  6.15522e+135 -7.10414e+202   1.32762e+68  -3.26758e+67  -2.66767e+67   -9.4858e+67  -3.51633e+66   1.80186e+67   3.07857e+66
             0           -20           -50  -2.02496e+68  1.15923e+136 -2.01559e+203     1.715e+68  -4.67359e+67  -4.67299e+67   -1.0903e+68  -2.70913e+63  -2.79686e+67  -2.36677e+63
             0           -15           -50   9.46985e+67   2.1731e+135  1.26961e+202   8.24299e+67   2.18626e+67   2.18535e+67   5.09823e+67  -2.04851e+63  -2.30959e+67  -5.47522e+61
       6.66667           -15           -50   9.49234e+67  2.23573e+135  1.39325e+202   8.23087e+67   2.19146e+67   2.19054e+67   5.11034e+67  -2.04851e+63  -2.18013e+67  -2.89334e+66
       6.66667           -20           -50  -1.92773e+68  1.05217e+136 -1.74604e+203   1.63217e+68  -4.44923e+67  -4.44862e+67  -1.03795e+68  -2.70913e+63  -2.62564e+67   1.91821e+66
   8.00314e+47  -1.20099e+60    7.5735e+59  -3.86737e+67 -1.21692e+135  2.06604e+202   5.20824e+67  -1.33104e+67  -4.55674e+67   2.02041e+67    9.8123e+65   2.51576e+67   2.62261e+64
  -9.83295e+47   -2.1537e+60   3.26653e+60   2.50585e+68  1.32378e+136  1.76005e+203    2.2261e+68   4.59374e+67   2.11847e+67   1.83463e+68   1.36425e+66   6.83626e+66  -1.11474e+66
  -4.07894e+59   -2.0601e+60   3.19005e+60   2.44189e+68   1.2443e+136  1.59091e+203   2.17222e+68   4.44614e+67   2.07193e+67   1.79008e+68   -3.5865e+66   7.15361e+66  -9.05794e+66
  -1.50455e+59  -1.13366e+60   7.59149e+59  -3.51611e+67 -1.28647e+135   1.9931e+202   5.02272e+67  -1.24998e+67  -4.37461e+67   2.10848e+67  -3.96952e+66   2.49632e+67  -2.90369e+66
             0           -15           -50   9.46985e+67   2.1731e+135  1.26961e+202   8.24299e+67   2.18626e+67   2.18535e+67   5.09823e+67  -2.04851e+63  -2.30959e+67  -5.47522e+61
             0           -10           -50   4.08397e+68  4.86203e+136  1.79184e+204   3.43756e+68   9.42704e+67   9.42455e+67   2.19881e+68  -2.84814e+63  -4.14173e+67   2.32724e+63
       6.66667           -10           -50   3.98837e+68  4.63757e+136  1.66939e+204   3.35701e+68   9.20642e+67   9.20393e+67   2.14734e+68  -2.84814e+63  -3.96173e+67  -7.84158e+66
       6.66667           -15           -50   9.49234e+67  2.23573e+135  1.39325e+202   8.23087e+67   2.19146e+67   2.19054e+67   5.11034e+67  -2.04851e+63  -2.18013e+67  -2.89334e+66
   9.98728e+58  -1.36533e+60  -1.54203e+60  -1.45412e+68  5.20994e+135  -5.3861e+202   1.26233e+68   -2.8045e+67  -2.46463e+67  -9.27207e+67   3.03496e+65   1.80823e+67   6.30676e+66
  -1.50455e+59  -1.13366e+60   7.59149e+59   1.06555e+68  2.96718e+135  2.47246e+202   9.15791e+67   1.92681e+67   3.34999e+67   5.37868e+67  -7.85847e+65   2.25193e+67  -2.96299e+66
  -3.33011e+59  -8.57287e+59   7.57415e+59   9.69926e+67    2.232e+135   1.4453e+202   8.47087e+67   1.70614e+67   2.84186e+67   5.15126e+67  -7.93268e+66   2.21414e+67  -6.51803e+66
   2.88952e+59  -1.01421e+60  -1.24424e+60  -1.17061e+68  3.10561e+135 -2.27822e+202   1.02945e+68  -2.15025e+67  -2.09784e+67  -7.45801e+67  -6.84334e+66   1.91598e+67   9.98883e+66
       6.66667           -20           -50  -1.92792e+68  1.05242e+136  -1.7467e+203   1.63231e+68  -4.45019e+67  -4.44904e+67  -1.03799e+68  -1.06835e+64  -2.62566e+67   1.91147e+66
       6.66667           -15           -50   9.49297e+67  2.23615e+135  1.39362e+202   8.23135e+67    2.1918e+67   2.19069e+67   5.11049e+67  -8.40936e+63  -2.18014e+67  -2.89322e+66
       13.3333           -15           -50    9.4713e+67   2.3946e+135  1.75286e+202   8.10922e+67   2.18679e+67   2.18568e+67   5.09882e+67  -8.40936e+63  -1.64866e+67  -6.40383e+66
       13.3333           -20           -50  -1.55569e+68  6.89286e+135 -9.32157e+202   1.31564e+68  -3.59121e+67  -3.59006e+67  -8.37566e+67  -1.06835e+64  -1.95045e+67   5.54751e+66
  -1.50455e+59  -1.13366e+60   7.59149e+59  -3.82078e+67  -1.2009e+135   2.2164e+202   5.15823e+67  -1.41386e+67  -4.44492e+67     2.038e+67  -9.22598e+65    2.5014e+67  -2.96299e+66
  -4.07894e+59   -2.0601e+60   3.19005e+60   2.29893e+68  9.96902e+135  1.07973e+203    2.0708e+68   3.68755e+67   1.74204e+67   1.75598e+68    6.8288e+65   7.22476e+66  -1.24467e+67
  -9.62852e+59  -1.67356e+60   2.88351e+60   2.04861e+68  7.24924e+135  6.29778e+202    1.8633e+68   3.10987e+67   1.58803e+67   1.57882e+68   -6.4787e+66   8.89024e+66  -2.32538e+67
  -3.33011e+59  -8.57287e+59   7.57415e+59  -2.46581e+67 -1.42877e+135  1.88298e+202   4.51308e+67  -1.10118e+67  -3.70856e+67   2.34393e+67  -8.08418e+66   2.45344e+67  -6.51803e+66
       6.66667           -15           -50   9.49297e+67  2.23615e+135  1.39362e+202   8.23135e+67    2.1918e+67   2.19069e+67   5.11049e+67  -8.40936e+63  -2.18014e+67  -2.89322e+66
       6.66667           -10           -50   3.98867e+68  4.63841e+136  1.66988e+204   3.35724e+68     9.208e+67   9.20462e+67   2.14741e+68   -1.1761e+64  -3.96174e+67   -7.8345e+66
       13.3333           -10           -50    3.6055e+68  3.78551e+136  1.22961e+204   3.03548e+68   8.32376e+67   8.32039e+67   1.94109e+68   -1.1761e+64  -3.21843e+67  -1.85065e+67
       13.3333           -15           -50    9.4713e+67   2.3946e+135  1.75286e+202   8.10922e+67   2.18679e+67   2.18568e+67   5.09882e+67  -8.40936e+63  -1.64866e+67  -6.40383e+66
   2.88952e+59  -1.01421e+60  -1.24424e+60  -9.99597e+67  1.79261e+135 -6.48243e+201   9.05502e+67   -1.2278e+67  -1.70319e+67  -7.06498e+67   3.23244e+66   1.94957e+67   9.83465e+66
  -3.33011e+59  -8.57287e+59   7.57415e+59   8.40716e+67  1.44648e+135  6.11323e+201    7.4977e+67    9.9559e+66   2.54368e+67   4.86789e+67   2.27357e+66   2.24816e+67  -4.36531e+66
  -6.57037e+59   1.19356e+59   9.08097e+59   9.49212e+67  7.20197e+134 -1.55388e+201   9.10485e+67   1.24596e+67   2.54102e+67   5.70513e+67  -1.10759e+67   3.89909e+67  -1.06753e+67
   6.59099e+59   2.82171e+58  -9.63066e+59  -7.25927e+67  -6.7863e+134  5.26675e+200   7.71254e+67  -5.96249e+66  -1.32468e+67  -5.33834e+67   -1.0117e+67   3.72862e+67   1.70428e+67
       13.3333           -20           -50  -1.55605e+68  6.89671e+135 -9.32957e+202   1.31591e+68  -3.59314e+67  -3.59089e+67  -8.37648e+67   -3.1719e+64  -1.95052e+67   5.54783e+66
       13.3333           -15           -50   9.47399e+67  2.39631e+135  1.75443e+202   8.11132e+67   2.18828e+67   2.18631e+67   5.09941e+67  -2.97171e+64  -1.64873e+67  -6.40832e+66
            20           -15           -50   1.13575e+68  3.72834e+135  3.77049e+202   9.57648e+67   2.62293e+67   2.62096e+67   6.11359e+67  -2.97171e+64   2.29381e+66  -1.26394e+67
            20           -20           -50  -1.20459e+68  4.21901e+135 -4.56783e+202   1.01447e+68  -2.78208e+67  -2.77983e+67  -6.48402e+67   -3.1719e+64   5.41051e+65   1.26659e+67
  -3.33011e+59  -8.57287e+59   7.57415e+59   -3.7579e+67 -1.11532e+135  2.63778e+202   5.02743e+67  -1.81173e+67  -4.00674e+67   2.06057e+67   2.12208e+66   2.48746e+67  -4.36531e+66
  -9.62852e+59  -1.67356e+60   2.88351e+60   1.62241e+68   1.6572e+135  1.66921e+201   1.57051e+68   7.84204e+66   6.04504e+66   1.48354e+68   3.13539e+66   9.21071e+66  -1.88612e+67
  -1.97824e+60  -6.27397e+59    2.8937e+60   1.72222e+68  9.90798e+134 -1.38107e+201   1.69321e+68   1.01453e+67   1.10223e+67   1.51054e+68  -1.01601e+67   2.68817e+67  -3.86345e+67
  -6.57037e+59   1.19356e+59   9.08097e+59  -9.81518e+66 -2.97662e+135  4.10535e+202   5.54343e+67  -1.17103e+67  -3.09863e+67   3.28814e+67  -1.11734e+67   4.11916e+67  -1.06753e+67
       13.3333           -15           -50   9.47399e+67  2.39631e+135  1.75443e+202   8.11132e+67   2.18828e+67   2.18631e+67   5.09941e+67  -2.97171e+64  -1.64873e+67  -6.40832e+66
       13.3333           -10           -50   3.60639e+68  3.78772e+136  1.23075e+204   3.03617e+68   8.32862e+67   8.32244e+67   1.94128e+68  -3.18327e+64   -3.2185e+67  -1.85157e+67
            20           -10           -50   3.61913e+68  3.79409e+136  1.22683e+204   3.05025e+68   8.35802e+67   8.35184e+67   1.94814e+68  -3.18327e+64  -1.20669e+67  -3.80419e+67
            20           -15           -50   1.13575e+68  3.72834e+135  3.77049e+202   9.57648e+67   2.62293e+67   2.62096e+67   6.11359e+67  -2.97171e+64   2.29381e+66  -1.26394e+67
   6.22407e+48  -5.29258e+60  -3.23203e+60  -1.71869e+68  7.89184e+135 -1.07701e+203    1.4713e+68  -3.48923e+67  -3.53064e+67  -1.01671e+68   3.15694e+66   2.15498e+67   1.69681e+66
    3.3995e+48  -5.17933e+60   1.72677e+60   1.09401e+68   3.0774e+135  2.52624e+202   9.42925e+67   1.72666e+67   2.96021e+67   6.25319e+67   2.99992e+66    1.8855e+67   1.66924e+64
  -2.69972e+59  -4.97625e+60    1.7279e+60   1.07994e+68  2.93063e+135  2.26624e+202   9.34461e+67   1.69421e+67   2.88702e+67   6.21821e+67  -5.29484e+66   1.93301e+67   -2.3482e+66
   1.61356e+59  -5.07891e+60  -3.11725e+60  -1.68384e+68  7.53668e+135 -9.97827e+202    1.4428e+68   -3.4088e+67  -3.49095e+67  -9.93867e+67  -5.13782e+66   2.18137e+67   2.91892e+66
   2.13231e+48  -1.45437e+60  -1.61981e+60  -1.60386e+68  6.21382e+135  -6.5028e+202   1.39678e+68  -3.40988e+67  -2.72669e+67  -9.90208e+67   1.29648e+66  -2.80972e+67   1.13489e+66
   8.00314e+47  -1.20099e+60    7.5735e+59   1.38592e+68  5.00429e+135  5.35297e+202   1.19178e+68   2.75953e+67   4.17281e+67   6.92683e+67   9.79041e+65   -3.0792e+67   2.63018e+64
  -1.50455e+59  -1.13366e+60   7.59149e+59   1.35797e+68  4.79664e+135  4.90057e+202   1.16808e+68   2.69503e+67    4.0248e+67   6.85983e+67  -3.83496e+66  -2.96261e+67  -2.30866e+66
   9.98728e+58  -1.36533e+60  -1.54203e+60  -1.58352e+68  6.12276e+135 -6.36519e+202   1.37669e+68  -3.36293e+67  -2.76324e+67  -9.70904e+67  -3.51752e+66  -2.71398e+67   2.34153e+66
    3.3995e+48  -5.17933e+60   1.72677e+60  -1.46798e+66  -1.5319e+135  1.18635e+202    3.9167e+67  -8.31842e+66  -3.00964e+67   3.69468e+67   2.99992e+66   1.88136e+67   1.66924e+64
   1.21311e+47  -5.95303e+60   6.68343e+60   2.62436e+68  1.42383e+136  2.12411e+203    2.3374e+68   3.96502e+67   3.08045e+67   1.91981e+68   3.31033e+66   2.22561e+67  -1.66978e+66
  -7.07473e+59  -5.72897e+60   6.57047e+60   2.60317e+68  1.39792e+136   2.0657e+203   2.31918e+68   3.91613e+67   3.11222e+67   1.90034e+68  -5.10316e+66   2.26262e+67  -7.60519e+66
  -2.69972e+59  -4.97625e+60    1.7279e+60   1.07137e+66 -1.55124e+135  1.07484e+202   3.94003e+67  -7.73241e+66  -2.87037e+67   3.75075e+67  -5.41357e+66   1.92805e+67   -2.3482e+66
   8.00314e+47  -1.20099e+60    7.5735e+59  -1.21698e+67 -2.12357e+135   1.5497e+202   4.76621e+67  -7.19582e+66  -3.94511e+67   3.44772e+67   9.79041e+65  -2.82531e+67   2.63018e+64
  -9.83295e+47   -2.1537e+60   3.26653e+60   2.69361e+68  1.53337e+136   2.1703e+203    2.3921e+68   5.02641e+67   2.55174e+67   1.93579e+68   1.36302e+66  -2.48106e+67  -1.11593e+66
  -4.07894e+59   -2.0601e+60   3.19005e+60   2.67965e+68  1.52881e+136  2.17861e+203   2.37734e+68   4.99421e+67   2.62062e+67   1.91817e+68  -3.58772e+66  -2.37845e+67   -6.9762e+66
  -1.50455e+59  -1.13366e+60   7.59149e+59  -8.96606e+66 -2.06777e+135  1.24672e+202   4.63483e+67   -6.4565e+66  -3.77011e+67   3.51915e+67  -3.97171e+66  -2.71314e+67  -2.30866e+66
   1.61356e+59  -5.07891e+60  -3.11725e+60  -1.55853e+68  6.07715e+135 -6.83226e+202   1.34956e+68  -2.74605e+67  -3.20177e+67  -9.63749e+67   3.08808e+66   2.19508e+67   6.55043e+66
  -2.69972e+59  -4.97625e+60    1.7279e+60   1.04304e+68  2.66298e+135  1.91882e+202   9.06436e+67   1.49429e+67   2.80185e+67   6.13423e+67   2.84992e+66   1.94659e+67  -2.00027e+66
  -5.78745e+59  -4.22184e+60   1.75325e+60   1.05733e+68  2.52293e+135  1.53948e+202   9.30406e+67   1.52727e+67   2.77339e+67   6.27264e+67  -8.62082e+66   2.24431e+67  -4.50358e+66
   4.49061e+59  -4.30852e+60  -2.75902e+60  -1.49721e+68  5.39815e+135 -5.50567e+202   1.30454e+68  -2.60455e+67  -3.12172e+67  -9.24588e+67  -8.38265e+66    2.3802e+67   8.51796e+66
   9.98728e+58  -1.36533e+60  -1.54203e+60  -1.49543e+68  5.16149e+135 -4.85039e+202   1.31155e+68   -2.8993e+67  -2.55996e+67  -9.49504e+67   3.01091e+65  -2.70762e+67   5.57572e+66
  -1.50455e+59  -1.13366e+60   7.59149e+59   1.32745e+68  4.52283e+135  4.54334e+202   1.14448e+68   2.53087e+67   3.95437e+67   6.78922e+67  -7.92359e+65  -2.95754e+67  -2.36894e+66
  -3.33011e+59  -8.57287e+59   7.57415e+59   1.26785e+68  4.07957e+135  3.37038e+202   1.09521e+68   2.39334e+67   3.52938e+67   6.75579e+67  -7.93919e+66  -2.60755e+67  -4.84057e+66
   2.88952e+59  -1.01421e+60  -1.24424e+60   -1.5086e+68  5.51868e+135 -5.18546e+202   1.31301e+68  -2.92968e+67  -2.87781e+67  -9.27848e+67  -6.84574e+66  -2.46882e+67   7.51834e+66
  -2.69972e+59  -4.97625e+60    1.7279e+60  -2.61939e+66  -1.5414e+135  1.38478e+202   3.93479e+67  -9.73166e+66  -2.95555e+67   3.66677e+67   2.73118e+66   1.94162e+67  -2.00027e+66
  -7.07473e+59  -5.72897e+60   6.57047e+60     2.401e+68  1.02682e+136  1.17765e+203   2.17669e+68   2.83715e+67   2.64568e+67   1.85272e+68   3.33307e+66   2.27668e+67  -1.05415e+67
  -1.62208e+60  -4.93402e+60   6.26253e+60     2.445e+68  1.07462e+136  1.26477e+203   2.21437e+68   2.93869e+67   2.90315e+67   1.86082e+68  -8.31765e+66   2.44074e+67  -1.76832e+67
  -5.78745e+59  -4.22184e+60   1.75325e+60   5.87478e+66 -1.74017e+135   1.1093e+202   4.21269e+67  -7.77147e+66   -2.6036e+67   3.96822e+67  -8.91954e+66   2.23855e+67  -4.50358e+66
  -1.50455e+59  -1.13366e+60   7.59149e+59  -1.20179e+67 -2.03252e+135  1.67306e+202   4.66578e+67  -8.09805e+66  -3.84053e+67   3.44855e+67   -9.2911e+65  -2.70807e+67  -2.36894e+66
  -4.07894e+59   -2.0601e+60   3.19005e+60   2.53652e+68  1.25927e+136  1.56697e+203   2.27479e+68   4.23469e+67   2.29031e+67   1.88402e+68   6.81891e+65  -2.37133e+67  -1.03731e+67
  -9.62852e+59  -1.67356e+60   2.88351e+60   2.66762e+68      1.5e+136   2.1843e+203   2.36985e+68   4.53723e+67   3.01652e+67   1.91225e+68  -6.47969e+66   -2.1627e+67  -1.74244e+67
  -3.33011e+59  -8.57287e+59   7.57415e+59   5.13443e+66 -1.88099e+135  3.52828e+201   4.36733e+67  -4.13982e+66  -3.02104e+67   3.94847e+67  -8.09069e+66  -2.36825e+67  -4.84057e+66
   4.49061e+59  -4.30852e+60  -2.75902e+60  -1.30931e+68  3.51269e+135 -2.16895e+202   1.16749e+68  -1.58992e+67  -2.68809e+67  -8.81509e+67   5.47781e+66    2.4264e+67   8.18883e+66
  -5.78745e+59  -4.22184e+60   1.75325e+60   1.03138e+68  2.35381e+135  1.29779e+202   9.10149e+67   1.38051e+67   2.71351e+67   6.21982e+67   5.49419e+66   2.29136e+67  -3.45979e+66
  -9.16652e+59  -2.51269e+60   1.84998e+60   9.67047e+67  1.34141e+135  1.18063e+201   8.95008e+67   1.23204e+67   2.56984e+67   5.86859e+67  -1.03141e+67   3.29466e+67  -3.81003e+66
   9.33183e+59  -2.60062e+60  -2.42962e+60  -1.24218e+68  2.40878e+135 -1.04014e+202   1.14111e+68  -1.43501e+67  -2.52838e+67  -8.45844e+67  -1.03304e+67   3.30075e+67      1.05e+67
   2.88952e+59  -1.01421e+60  -1.24424e+60  -1.33726e+68  3.82742e+135 -3.12213e+202   1.18554e+68  -2.00547e+67  -2.48241e+67  -8.88469e+67   3.24338e+66  -2.43518e+67   7.36421e+66
  -3.33011e+59  -8.57287e+59   7.57415e+59   1.13815e+68  3.04554e+135  2.37377e+202   9.95404e+67   1.68009e+67   3.23007e+67   6.47133e+67   2.28042e+66  -2.57348e+67  -2.68094e+66
  -6.57037e+59   1.19356e+59   9.08097e+59   9.90849e+67  2.38696e+135  9.92344e+201   8.62024e+67   1.34017e+67   2.63711e+67   5.93122e+67  -1.10691e+67  -1.39203e+67  -3.02675e+66
   6.59099e+59   2.82171e+58  -9.63066e+59  -1.35476e+68  4.38934e+135 -3.14644e+202   1.18171e+68  -2.04586e+67  -2.77583e+67  -8.72589e+67  -1.01061e+67  -1.38105e+67   9.64609e+66
  -5.78745e+59  -4.22184e+60   1.75325e+60    3.2801e+66 -1.71988e+135  1.29019e+202    4.1601e+67  -9.23915e+66  -2.66347e+67    3.9154e+67   5.19547e+66    2.2856e+67  -3.45979e+66
  -1.62208e+60  -4.93402e+60   6.26253e+60   2.22362e+68  6.98914e+135  4.71434e+202   2.06048e+68   1.73018e+67   2.39227e+67   1.81138e+68   6.13194e+66    2.4889e+67  -1.53307e+67
  -2.77203e+60  -3.16158e+60   6.12118e+60   2.11105e+68  5.36337e+135  3.11785e+202   1.97994e+68   1.47039e+67   2.37592e+67   1.72642e+68   -9.4841e+66   3.47139e+67  -1.82017e+67
  -9.16652e+59  -2.51269e+60   1.84998e+60   4.60207e+66 -2.21334e+135  1.64795e+202   4.72707e+67  -8.93408e+66  -2.38953e+67   3.74314e+67  -1.04206e+67   3.27851e+67  -3.81003e+66
  -3.33011e+59  -8.57287e+59   7.57415e+59  -7.83576e+66 -1.81188e+135  2.01944e+202   4.32814e+67  -1.12723e+67  -3.32035e+67   3.66401e+67   2.12892e+66  -2.33418e+67  -2.68094e+66
  -9.62852e+59  -1.67356e+60   2.88351e+60   2.24009e+68  7.50627e+135  6.77883e+202   2.06576e+68   2.20428e+67   2.02991e+67   1.81667e+68   3.14455e+66  -2.13061e+67  -1.30182e+67
  -1.97824e+60  -6.27397e+59    2.8937e+60   2.13773e+68  6.94533e+135  4.22798e+202   1.96859e+68   1.96805e+67    2.0611e+67   1.73481e+68  -1.01509e+67  -9.78684e+66  -1.58528e+67
  -6.57037e+59   1.19356e+59   9.08097e+59  -5.65148e+66 -1.38146e+135  7.94219e+201   3.75952e+67  -1.07683e+67  -3.00254e+67   3.51422e+67  -1.11665e+67  -1.17196e+67  -3.02675e+66
   1.24272e+49  -1.16057e+61  -4.71132e+60  -1.44897e+68  5.18802e+135 -5.25029e+202   1.25726e+68  -2.58843e+67  -2.86792e+67  -9.03331e+67   5.12792e+66   2.13168e+67   1.58228e+66
   7.65335e+48   -1.1482e+61   2.71025e+60   1.04813e+68  2.56649e+135   1.6875e+202   9.17569e+67   1.38533e+67   2.89462e+67   6.20138e+67   5.06299e+66   2.15181e+67   5.37437e+64
  -3.44994e+59  -1.11438e+61   2.71385e+60   1.04587e+68  2.49775e+135  1.55782e+202   9.18734e+67   1.38011e+67   2.87278e+67   6.20582e+67  -6.42213e+66   2.22391e+67  -1.47511e+66
   2.52233e+59  -1.12632e+61  -4.60574e+60  -1.46417e+68  5.27706e+135 -5.40202e+202   1.27125e+68  -2.62351e+67  -2.91961e+67  -9.09854e+67   -6.3572e+66   2.19182e+67   3.39285e+66
   6.22407e+48  -5.29258e+60  -3.23203e+60  -1.55258e+68  6.08487e+135 -6.88419e+202    1.3424e+68  -3.10609e+67  -3.14731e+67  -9.27243e+67   3.15671e+66   -2.6044e+67   1.69826e+66
    3.3995e+48  -5.17933e+60   1.72677e+60   1.11149e+68  2.87935e+135  2.12768e+202   9.73379e+67   1.76674e+67   3.00055e+67   6.34758e+67   2.99983e+66  -2.58426e+67   1.65925e+64
  -2.69972e+59  -4.97625e+60    1.7279e+60   1.10135e+68  2.80149e+135  1.89507e+202   9.65823e+67   1.74334e+67   2.93641e+67   6.33371e+67  -5.29493e+66  -2.53807e+67  -1.49266e+66
   1.61356e+59  -5.07891e+60  -3.11725e+60   -1.5755e+68  6.31191e+135 -7.11283e+202   1.36051e+68  -3.15897e+67  -3.24092e+67  -9.35507e+67  -5.13806e+66     -2.57e+67   3.48561e+66
   7.65335e+48   -1.1482e+61   2.71025e+60  -4.57972e+66 -1.66039e+135  1.68072e+202   4.10045e+67  -1.13912e+67  -2.99577e+67   3.67692e+67   5.06299e+66   2.13458e+67   5.37437e+64
    2.4458e+48  -1.22334e+61   1.01229e+61   2.43725e+68   1.0664e+136  1.24829e+203   2.20767e+68   2.78518e+67   2.73435e+67    1.8853e+68    5.2287e+66   2.17741e+67  -1.45793e+66
  -9.47903e+59  -1.18842e+61   1.00256e+61   2.46909e+68  1.10725e+136  1.33378e+203   2.23364e+68   2.85865e+67   2.85027e+67    1.8982e+68  -6.36571e+66   2.23285e+67  -6.31818e+66
  -3.44994e+59  -1.11438e+61   2.71385e+60  -2.88611e+66 -1.70774e+135  1.62104e+202   4.14255e+67  -1.10004e+67  -2.91424e+67   3.72567e+67  -6.53141e+66   2.20884e+67  -1.47511e+66
    3.3995e+48  -5.17933e+60   1.72677e+60   2.80058e+65 -1.86898e+135  1.38693e+202   4.32326e+67  -7.91767e+66   -2.9693e+67   3.78907e+67   2.99983e+66  -2.58841e+67   1.65925e+64
   1.21311e+47  -5.95303e+60   6.68343e+60   2.65242e+68  1.44883e+136  2.17189e+203   2.36358e+68   4.02946e+67   3.14521e+67   1.93496e+68   3.31039e+66  -2.54557e+67  -1.67142e+66
  -7.07473e+59  -5.72897e+60   6.57047e+60   2.69645e+68  1.52208e+136  2.33784e+203   2.39765e+68   4.13105e+67   3.32747e+67   1.95059e+68   -5.1031e+66  -2.51878e+67  -6.46936e+66
  -2.69972e+59  -4.97625e+60    1.7279e+60   3.21156e+66 -1.84459e+135  1.10993e+202   4.30686e+67  -7.24117e+66  -2.82099e+67   3.86626e+67  -5.41366e+66  -2.54303e+67  -1.49266e+66
   2.52233e+59  -1.12632e+61  -4.60574e+60   -1.3483e+68  4.08698e+135 -3.20261e+202   1.18711e+68  -2.00917e+67  -2.65223e+67  -8.82163e+67   5.42927e+66   2.21146e+67   6.28375e+66
  -3.44994e+59  -1.11438e+61   2.71385e+60   1.03518e+68   2.4207e+135  1.44936e+202   9.10781e+67   1.32194e+67   2.84811e+67   6.18173e+67   5.34608e+66   2.24352e+67   -1.3005e+66
  -7.01105e+59  -1.00198e+61   2.72925e+60   1.01608e+68   2.1575e+135  1.03995e+202   9.03698e+67   1.27787e+67   2.78277e+67   6.10017e+67   -8.5788e+66   2.44188e+67  -2.29976e+66
   6.20215e+59  -1.01336e+61  -4.30928e+60  -1.42761e+68  4.57881e+135  -4.0026e+202   1.25706e+68  -2.19219e+67  -2.85652e+67  -9.22741e+67  -8.49562e+66   2.38987e+67   7.91941e+66
   1.61356e+59  -5.07891e+60  -3.11725e+60  -1.45009e+68  4.95462e+135 -4.91457e+202   1.26779e+68  -2.49569e+67  -2.95151e+67  -9.05366e+67   3.08966e+66  -2.55629e+67   7.11956e+66
  -2.69972e+59  -4.97625e+60    1.7279e+60   1.06437e+68  2.53931e+135  1.72788e+202   9.37523e+67   1.54303e+67   2.85108e+67   6.24958e+67   2.85299e+66  -2.52449e+67  -1.14348e+66
  -5.78745e+59  -4.22184e+60   1.75325e+60   1.03237e+68  2.29619e+135  1.02044e+202   9.14421e+67   1.46919e+67   2.71578e+67   6.13872e+67  -8.61775e+66  -2.43525e+67  -2.12993e+66
   4.49061e+59  -4.30852e+60  -2.75902e+60  -1.54153e+68  5.73271e+135 -5.32653e+202   1.34277e+68  -2.70671e+67  -3.22397e+67  -9.48458e+67  -8.38108e+66  -2.48675e+67   8.73424e+66
  -3.44994e+59  -1.11438e+61   2.71385e+60  -3.95554e+66 -1.70191e+135  1.70826e+202   4.14434e+67  -1.15822e+67  -2.93892e+67   3.70158e+67    5.2368e+66   2.22845e+67   -1.3005e+66
  -9.47903e+59  -1.18842e+61   1.00256e+61   2.32981e+68  8.58277e+135  7.88599e+202    2.1377e+68   2.11706e+67   2.52886e+67   1.86522e+68   5.67296e+66   2.25291e+67  -8.86193e+66
  -2.03587e+60  -1.07311e+61   9.76097e+60   2.41601e+68  9.63819e+135  9.85536e+202   2.20755e+68   2.31598e+67   2.83963e+67   1.90045e+68  -8.40114e+66   2.43193e+67  -1.24673e+67
  -7.01105e+59  -1.00198e+61   2.72925e+60  -1.53874e+66 -1.80874e+135  1.60969e+202   4.25571e+67  -1.10244e+67  -2.77129e+67   3.71986e+67  -8.83729e+66   2.42878e+67  -2.29976e+66
  -2.69972e+59  -4.97625e+60    1.7279e+60  -4.86187e+65 -1.82876e+135  1.59893e+202   4.27668e+67  -9.24422e+66  -2.90632e+67   3.78212e+67   2.73426e+66  -2.52945e+67  -1.14348e+66
  -7.07473e+59  -5.72897e+60   6.57047e+60   2.49402e+68  1.13938e+136  1.43833e+203   2.25405e+68   3.05066e+67   2.86032e+67   1.90292e+68   3.33434e+66  -2.50472e+67  -9.40557e+66
  -1.62208e+60  -4.93402e+60   6.26253e+60    2.5939e+68  1.29054e+136  1.63158e+203    2.3319e+68   3.28115e+67   3.24675e+67   1.94111e+68  -8.31638e+66  -2.43732e+67  -1.29647e+67
  -5.78745e+59  -4.22184e+60   1.75325e+60   3.37863e+66 -1.79826e+135  9.64454e+201   4.25403e+67  -8.35234e+66   -2.6612e+67    3.8343e+67  -8.91646e+66  -2.44101e+67  -2.12993e+66
   6.20215e+59  -1.01336e+61  -4.30928e+60  -1.26661e+68   2.9976e+135 -1.26562e+202   1.14217e+68  -1.32129e+67  -2.48498e+67  -8.85986e+67   7.19609e+66   2.44218e+67   7.40545e+66
  -7.01105e+59  -1.00198e+61   2.72925e+60   1.01761e+68   2.1619e+135  9.55941e+201   9.05175e+67   1.28608e+67    2.7863e+67   6.10372e+67   7.37004e+66   2.49505e+67  -2.29575e+66
  -1.05559e+60  -7.83116e+60   2.74472e+60   9.30834e+67  1.35714e+135  2.24765e+201   8.54832e+67   1.08583e+67   2.63078e+67   5.59173e+67  -9.72661e+66   3.00804e+67  -2.70304e+66
   1.15476e+60  -7.95666e+60   -4.0527e+60  -1.33894e+68  3.16243e+135 -1.71886e+202   1.21512e+68   -1.4882e+67  -2.60715e+67  -9.29403e+67  -9.90057e+66   2.93492e+67   8.50855e+66
   4.49061e+59  -4.30852e+60  -2.75902e+60  -1.35353e+68  3.83318e+135 -3.02112e+202   1.20363e+68  -1.69157e+67  -2.79013e+67  -9.05358e+67   5.48354e+66  -2.44053e+67   8.40513e+66
  -5.78745e+59  -4.22184e+60   1.75325e+60   1.00659e+68   2.1718e+135  1.22581e+202   8.92208e+67    1.3233e+67   2.65628e+67   6.08627e+67   5.50168e+66  -2.38819e+67  -1.08631e+66
  -9.16652e+59  -2.51269e+60   1.84998e+60    9.0813e+67  1.76769e+135  4.44552e+201   8.04942e+67   1.09609e+67   2.43388e+67   5.55132e+67  -1.03066e+67   -1.8715e+67  -1.48838e+66
   9.33183e+59  -2.60062e+60  -2.42962e+60  -1.43772e+68  4.61521e+135 -2.96856e+202   1.26709e+68  -1.88586e+67  -2.97961e+67   -9.5117e+67  -1.03247e+67  -1.94384e+67   9.49409e+66
  -7.01105e+59  -1.00198e+61   2.72925e+60  -1.38578e+66 -1.80697e+135  1.54695e+202   4.25311e+67  -1.09423e+67  -2.76776e+67   3.72341e+67   7.11155e+66   2.48195e+67  -2.29575e+66
  -2.03587e+60  -1.07311e+61   9.76097e+60   2.25635e+68  6.85285e+135  3.87807e+202     2.099e+68   1.45185e+67   2.47118e+67   1.86404e+68   7.70887e+66   2.48563e+67  -1.18894e+67
  -3.28908e+60  -8.50265e+60   9.54017e+60   2.20322e+68  6.13396e+135  3.51812e+202   2.05932e+68   1.32924e+67    2.5017e+67   1.82013e+68  -9.57435e+66   2.96377e+67  -1.41882e+67
  -1.05559e+60  -7.83116e+60   2.74472e+60  -6.54078e+66 -1.98124e+135  2.03145e+202   4.49892e+67  -1.21319e+67  -2.73359e+67   3.29271e+67  -1.01717e+67   3.00425e+67  -2.70304e+66
  -5.78745e+59  -4.22184e+60   1.75325e+60   8.00291e+65 -1.73439e+135  1.49968e+202   4.16537e+67  -9.81122e+66   -2.7207e+67   3.78185e+67   5.20296e+66  -2.39395e+67  -1.08631e+66
  -1.62208e+60  -4.93402e+60   6.26253e+60   2.37283e+68   8.9475e+135  8.84451e+202   2.17613e+68   2.07432e+67   2.73659e+67   1.89174e+68   6.13999e+66  -2.38913e+67  -1.06128e+67
  -2.77203e+60  -3.16158e+60   6.12118e+60   2.35037e+68  9.15041e+135  7.61482e+202   2.14691e+68    2.0225e+67    2.9282e+67    1.8553e+68  -9.47605e+66  -1.92642e+67  -1.28822e+67
  -9.16652e+59  -2.51269e+60   1.84998e+60  -1.28961e+66 -1.42485e+135  8.32981e+201   3.77692e+67  -1.02935e+67  -2.52549e+67   3.42588e+67  -1.04131e+67  -1.88764e+67  -1.48838e+66
   2.05155e+49  -2.03233e+61  -6.20012e+60   -1.3782e+68  4.34619e+135 -3.63537e+202    1.2103e+68   -2.1261e+67   -2.7493e+67  -8.90665e+67   6.63963e+66   2.31343e+67   1.18583e+66
   1.34193e+49  -2.02112e+61   3.72051e+60   1.02862e+68  2.29451e+135  1.22895e+202   9.10277e+67   1.22194e+67    2.8049e+67   6.25933e+67   6.62309e+66   2.29109e+67  -1.35761e+64
  -3.79408e+59  -1.97748e+61   3.71961e+60   1.02163e+68  2.21823e+135  1.11869e+202    9.0659e+67   1.20582e+67   2.78461e+67   6.22587e+67  -7.35509e+66   2.33933e+67  -7.71378e+65
   3.47457e+59  -1.98858e+61  -6.12207e+60  -1.41268e+68  4.58576e+135 -4.04571e+202   1.23979e+68  -2.20565e+67  -2.83303e+67  -9.08812e+67  -7.33855e+66   2.35547e+67   3.10493e+66
   1.24272e+49  -1.16057e+61  -4.71132e+60  -1.46088e+68  5.12136e+135  -5.0595e+202    1.2736e+68  -2.61598e+67  -2.89542e+67  -9.09745e+67   5.12892e+66  -2.49246e+67   1.58289e+66
   7.65335e+48   -1.1482e+61   2.71025e+60   1.08152e+68  2.60582e+135  1.68298e+202   9.53471e+67   1.46213e+67   2.97167e+67   6.38142e+67   5.06408e+66   -2.5148e+67   5.39703e+64
  -3.44994e+59  -1.11438e+61   2.71385e+60   1.07056e+68  2.51549e+135  1.47558e+202   9.45807e+67   1.43683e+67   2.92976e+67   6.33901e+67  -6.42104e+66  -2.51344e+67   -6.9399e+65
   2.52233e+59  -1.12632e+61  -4.60574e+60  -1.49898e+68  5.43158e+135 -5.32429e+202   1.30529e+68  -2.70388e+67  -2.99994e+67  -9.28594e+67   -6.3562e+66  -2.49722e+67   3.47707e+66
   1.34193e+49  -2.02112e+61   3.72051e+60  -2.38475e+66 -1.77935e+135  1.78495e+202   4.22497e+67  -1.20682e+67  -2.86222e+67   3.83057e+67   6.62309e+66   2.28523e+67  -1.35761e+64
   5.89628e+48  -2.09411e+61   1.36381e+61   2.38602e+68  9.18529e+135  8.90565e+202   2.18508e+68   2.13486e+67   2.69902e+67   1.90263e+68   6.72354e+66   2.32668e+67  -1.20334e+66
  -1.11068e+60   -2.0498e+61   1.35589e+61   2.41552e+68  9.55056e+135  9.62041e+202     2.209e+68   2.20294e+67   2.79251e+67   1.91598e+68  -7.33936e+66   2.36778e+67  -4.61461e+66
  -3.79408e+59  -1.97748e+61   3.71961e+60  -2.12229e+66 -1.80087e+135  1.76979e+202   4.24897e+67  -1.20077e+67  -2.83075e+67   3.81929e+67  -7.43982e+66   2.33469e+67  -7.71378e+65
   7.65335e+48   -1.1482e+61   2.71025e+60  -1.24077e+66 -1.89218e+135  1.77669e+202   4.35169e+67  -1.06232e+67  -2.91872e+67   3.85697e+67   5.06408e+66  -2.53204e+67   5.39703e+64
    2.4458e+48  -1.22334e+61   1.01229e+61   2.53186e+68  1.17688e+136  1.48083e+203   2.28767e+68   3.00303e+67   2.95266e+67   1.93629e+68   5.22962e+66  -2.49059e+67  -1.45802e+66
  -9.47903e+59  -1.18842e+61   1.00256e+61   2.56662e+68  1.22757e+136  1.55623e+203   2.31516e+68   3.08326e+67   3.07534e+67   1.95076e+68  -6.36479e+66  -2.49531e+67  -4.82498e+66
  -3.44994e+59  -1.11438e+61   2.71385e+60  -4.17231e+65 -1.88954e+135  1.63127e+202   4.34709e+67  -1.04332e+67  -2.85726e+67   3.85886e+67  -6.53032e+66  -2.52851e+67   -6.9399e+65
   3.47457e+59  -1.98858e+61  -6.12207e+60  -1.31991e+68  3.64915e+135 -2.34215e+202   1.17356e+68  -1.71263e+67  -2.61894e+67  -8.86751e+67   6.95993e+66    2.3793e+67   5.08431e+66
  -3.79408e+59  -1.97748e+61   3.71961e+60    1.0238e+68  2.22869e+135  1.10236e+202   9.08454e+67   1.21784e+67   2.78961e+67    6.2305e+67   6.97359e+66   2.36321e+67  -8.80891e+65
  -7.56472e+59  -1.83941e+61   3.71141e+60   9.95302e+67  1.97825e+135  7.92956e+201   8.90393e+67   1.15209e+67   2.72737e+67   6.07356e+67  -8.72513e+66    2.4782e+67  -1.37921e+66
   7.86727e+59  -1.85061e+61  -5.91531e+60  -1.42748e+68  4.38539e+135 -3.53843e+202   1.26458e+68  -1.96088e+67  -2.86367e+67  -9.45026e+67   -8.7388e+66   2.48188e+67   6.56633e+66
   2.52233e+59  -1.12632e+61  -4.60574e+60  -1.38308e+68  4.23103e+135 -3.65563e+202   1.22058e+68  -2.08939e+67   -2.7325e+67  -9.00895e+67   5.43253e+66  -2.47757e+67   6.36834e+66
  -3.44994e+59  -1.11438e+61   2.71385e+60    1.0599e+68  2.45508e+135  1.50441e+202   9.36947e+67   1.37881e+67   2.90515e+67   6.31499e+67   5.34948e+66  -2.49383e+67  -5.19139e+65
  -7.01105e+59  -1.00198e+61   2.72925e+60   1.02373e+68  2.17222e+135  9.11902e+201   9.11486e+67   1.29536e+67   2.80043e+67   6.14154e+67  -8.57541e+66   -2.5128e+67  -1.01099e+66
   6.20215e+59  -1.01336e+61  -4.30928e+60   -1.4973e+68  5.10404e+135 -4.12533e+202   1.31586e+68  -2.35296e+67  -3.01733e+67  -9.60269e+67  -8.49235e+66   -2.5088e+67   7.83111e+66
  -3.79408e+59  -1.97748e+61   3.71961e+60  -1.90574e+66 -1.80372e+135  1.73786e+202   4.25129e+67  -1.18874e+67  -2.82575e+67   3.82392e+67   6.88887e+66   2.35857e+67  -8.80891e+65
  -1.11068e+60   -2.0498e+61   1.35589e+61   2.32584e+68  7.94846e+135  6.15815e+202   2.14819e+68   1.72716e+67   2.58556e+67   1.89457e+68   7.13566e+66   2.39191e+67  -6.76957e+66
  -2.30978e+60  -1.91012e+61   1.33392e+61   2.39875e+68  8.83615e+135  7.82361e+202    2.2069e+68   1.89541e+67   2.81622e+67   1.92759e+68  -8.67282e+66   2.48936e+67  -9.21023e+66
  -7.56472e+59  -1.83941e+61   3.71141e+60  -2.84086e+66 -1.84229e+135  1.76655e+202   4.30158e+67  -1.21032e+67  -2.78492e+67   3.71115e+67  -8.91961e+66   2.48033e+67  -1.37921e+66
  -3.44994e+59  -1.11438e+61   2.71385e+60  -1.48375e+66 -1.86729e+135  1.81952e+202   4.32376e+67  -1.10134e+67  -2.88187e+67   3.83484e+67   5.24019e+66   -2.5089e+67  -5.19139e+65
  -9.47903e+59  -1.18842e+61   1.00256e+61   2.42737e+68  9.71846e+135  1.03733e+203   2.21817e+68   2.34182e+67     2.754e+67   1.91779e+68    5.6764e+66  -2.47524e+67  -7.36872e+66
  -2.03587e+60  -1.07311e+61   9.76097e+60   2.51567e+68   1.0955e+136  1.15731e+203   2.28759e+68   2.54557e+67   3.06961e+67   1.95415e+68  -8.39769e+66  -2.51624e+67  -9.77768e+66
  -7.01105e+59  -1.00198e+61   2.72925e+60   -7.7356e+65  -1.8621e+135  1.48008e+202    4.3159e+67  -1.08495e+67  -2.75363e+67   3.76122e+67   -8.8339e+66   -2.5259e+67  -1.01099e+66
   7.86727e+59  -1.85061e+61  -5.91531e+60  -1.30385e+68  3.13282e+135 -1.25914e+202    1.1776e+68  -1.29223e+67  -2.57836e+67  -9.16789e+67   8.14522e+66   2.53816e+67   6.18997e+66
  -7.56472e+59  -1.83941e+61   3.71141e+60   1.00635e+68  2.03862e+135  7.50522e+201   8.99381e+67   1.21526e+67   2.75287e+67    6.0954e+67   8.27171e+66   2.53485e+67   -1.9217e+66
  -1.12111e+60  -1.58938e+61   3.66699e+60   9.41169e+67  1.52901e+135  3.62145e+201   8.56095e+67   1.06483e+67   2.63447e+67   5.71239e+67  -9.61421e+66   2.77017e+67  -2.20921e+66
   1.35216e+60  -1.60141e+61  -5.73752e+60  -1.38901e+68  3.57994e+135 -2.12081e+202   1.25353e+68  -1.48876e+67  -2.74286e+67  -9.65846e+67  -9.74071e+66   2.77963e+67   6.92704e+66
   6.20215e+59  -1.01336e+61  -4.30928e+60  -1.33628e+68  3.49522e+135 -2.36503e+202   1.19838e+68  -1.48194e+67  -2.64575e+67  -9.23509e+67   7.20073e+66  -2.45649e+67   7.31645e+66
  -7.01105e+59  -1.00198e+61   2.72925e+60    1.0253e+68  2.22954e+135  1.15731e+202   9.10103e+67   1.30379e+67   2.80405e+67   6.14517e+67   7.37513e+66  -2.45964e+67  -1.00805e+66
  -1.05559e+60  -7.83116e+60   2.74472e+60   9.65231e+67  1.94342e+135  6.16747e+201   8.58679e+67   1.16517e+67   2.71016e+67   5.77698e+67  -9.72152e+66  -2.26927e+67  -1.29183e+66
   1.15476e+60  -7.95666e+60   -4.0527e+60  -1.41606e+68  4.11245e+135 -2.16349e+202   1.26253e+68  -1.66606e+67  -2.78513e+67  -9.70943e+67  -9.89592e+66  -2.26006e+67   8.04395e+66
  -7.56472e+59  -1.83941e+61   3.71141e+60  -1.73565e+66 -1.85434e+135  1.60789e+202    4.3097e+67  -1.14715e+67  -2.75941e+67     3.733e+67   8.07723e+66   2.53699e+67   -1.9217e+66
  -2.30978e+60  -1.91012e+61   1.33392e+61   2.29911e+68  7.05488e+135  3.78762e+202   2.14019e+68   1.36315e+67   2.58627e+67   1.90417e+68   8.45546e+66   2.54646e+67  -9.90381e+66
  -3.60831e+60   -1.6576e+61    1.3077e+61   2.27417e+68  6.75908e+135  4.00983e+202   2.12037e+68    1.3056e+67   2.62443e+67   1.88117e+68  -9.50397e+66   2.76224e+67  -1.11038e+67
  -1.12111e+60  -1.58938e+61   3.66699e+60  -6.18452e+66 -1.89471e+135  1.94437e+202   4.39654e+67  -1.24982e+67  -2.76638e+67   3.39774e+67  -9.88221e+66   2.78085e+67  -2.20921e+66
  -7.01105e+59  -1.00198e+61   2.72925e+60  -6.16738e+65 -1.80769e+135  1.62039e+202   4.25215e+67  -1.07652e+67  -2.75001e+67   3.76486e+67   7.11663e+66  -2.47273e+67  -1.00805e+66
  -2.03587e+60  -1.07311e+61   9.76097e+60   2.35601e+68  8.10838e+135  6.67036e+202   2.17714e+68   1.68147e+67   2.70116e+67   1.91774e+68    7.7137e+66  -2.46253e+67  -9.20087e+66
  -3.28908e+60  -8.50265e+60   9.54017e+60   2.35046e+68  8.31685e+135  5.62955e+202   2.16633e+68   1.66867e+67   2.84149e+67   1.89945e+68  -9.56952e+66  -2.29058e+67  -1.03853e+67
  -1.05559e+60  -7.83116e+60   2.74472e+60  -3.10105e+66 -1.63824e+135  1.21777e+202   4.05938e+67  -1.13385e+67  -2.65422e+67   3.47796e+67  -1.01666e+67  -2.27306e+67  -1.29183e+66
   3.03384e+49  -3.15389e+61  -7.73134e+60  -1.34899e+68  3.87334e+135 -2.72854e+202   1.19684e+68   -1.7913e+67  -2.69625e+67  -9.00234e+67   7.69313e+66   2.42838e+67   7.67413e+65
   2.06255e+49  -3.14306e+61   4.74704e+60   1.02758e+68  2.18042e+135   9.9488e+201   9.15353e+67    1.1681e+67   2.78813e+67   6.31953e+67   7.69299e+66    2.4212e+67   -1.1994e+65
  -3.91086e+59  -3.09304e+61   4.73923e+60    1.0188e+68  2.10992e+135  9.12461e+201   9.09379e+67   1.14786e+67   2.76786e+67   6.27232e+67  -8.09255e+66   2.44575e+67  -4.44775e+65
   4.29763e+59  -3.10387e+61  -7.68151e+60  -1.38345e+68  4.11635e+135 -3.12664e+202   1.22568e+68  -1.87082e+67   -2.7758e+67  -9.18787e+67  -8.09242e+66   2.45087e+67   2.46035e+66
   2.05155e+49  -2.03233e+61  -6.20012e+60  -1.43119e+68  4.68615e+135 -4.17003e+202   1.25686e+68  -2.24831e+67  -2.87159e+67  -9.19204e+67   6.64063e+66  -2.49036e+67   1.18587e+66
   1.34193e+49  -2.02112e+61   3.72051e+60   1.04891e+68   2.3183e+135  1.23376e+202   9.31876e+67   1.26864e+67   2.85174e+67   6.36877e+67   6.62416e+66  -2.49754e+67  -1.34908e+64
  -3.79408e+59  -1.97748e+61   3.71961e+60   1.03891e+68   2.2366e+135  1.08034e+202    9.2503e+67   1.24555e+67    2.8245e+67   6.31908e+67  -7.35402e+66  -2.51577e+67  -3.34052e+65
   3.47457e+59  -1.98858e+61  -6.12207e+60  -1.46655e+68  4.95519e+135 -4.35897e+202   1.28656e+68  -2.32989e+67  -2.95733e+67  -9.37824e+67  -7.33755e+66  -2.51063e+67   2.85654e+66
   2.06255e+49  -3.14306e+61   4.74704e+60  -1.27814e+66 -1.88446e+135  1.84579e+202   4.34292e+67  -1.23272e+67   -2.8138e+67    3.9187e+67   7.69299e+66    2.4216e+67   -1.1994e+65
   1.04947e+49  -3.21545e+61   1.72256e+61   2.36474e+68  8.26355e+135  6.63332e+202   2.18303e+68   1.71929e+67   2.67279e+67   1.92553e+68    7.7519e+66   2.43304e+67  -9.95741e+65
  -1.21505e+60  -3.16505e+61   1.71609e+61    2.3866e+68  8.53208e+135  7.14792e+202    2.2006e+68   1.76974e+67   2.73794e+67   1.93583e+68  -8.09352e+66   2.45379e+67   -3.3143e+66
  -3.91086e+59  -3.09304e+61   4.73923e+60  -1.67669e+66 -1.88948e+135  1.85837e+202   4.35004e+67  -1.24192e+67  -2.80829e+67   3.88254e+67  -8.15242e+66    2.4476e+67  -4.44775e+65
   1.34193e+49  -2.02112e+61   3.72051e+60  -3.55034e+65 -1.91032e+135  1.84151e+202   4.37086e+67  -1.16013e+67  -2.81538e+67   3.94001e+67   6.62416e+66   -2.5034e+67  -1.34908e+64
   5.89628e+48  -2.09411e+61   1.36381e+61   2.47628e+68  1.02578e+136  1.09894e+203   2.25968e+68   2.34278e+67    2.9073e+67   1.95127e+68   6.72457e+66  -2.49196e+67  -1.20324e+66
  -1.11068e+60   -2.0498e+61   1.35589e+61    2.5014e+68  1.05992e+136  1.13492e+203   2.27971e+68   2.40075e+67   2.99068e+67   1.96225e+68  -7.33834e+66  -2.51416e+67  -3.49129e+66
  -3.79408e+59  -1.97748e+61   3.71961e+60  -3.94018e+65 -1.91284e+135  1.77659e+202   4.37379e+67  -1.16103e+67  -2.79087e+67   3.91249e+67  -7.43874e+66  -2.52041e+67  -3.34052e+65
   4.29763e+59  -3.10387e+61  -7.68151e+60  -1.31528e+68  3.42903e+135 -1.88995e+202   1.17773e+68  -1.50768e+67  -2.61848e+67  -9.02662e+67   7.94091e+66   2.47759e+67   3.65716e+66
  -3.91086e+59  -3.09304e+61   4.73923e+60   1.02544e+68  2.14878e+135  9.16538e+201   9.14683e+67   1.18478e+67   2.78317e+67   6.28643e+67    7.9633e+66   2.47251e+67  -8.03562e+65
  -7.75136e+59  -2.93863e+61   4.70794e+60   9.97878e+67  1.94605e+135  7.10212e+201   8.95073e+67   1.12118e+67   2.72517e+67   6.13242e+67  -8.97235e+66   2.52322e+67  -1.03639e+66
   9.26366e+59  -2.94961e+61  -7.55513e+60  -1.41182e+68  4.10881e+135 -2.96361e+202   1.25791e+68  -1.73046e+67  -2.83566e+67  -9.55205e+67  -8.99474e+66   2.52722e+67   4.88703e+66
   3.47457e+59  -1.98858e+61  -6.12207e+60  -1.37377e+68  4.00789e+135 -3.13788e+202    1.2192e+68  -1.83685e+67  -2.74324e+67  -9.15762e+67   6.96263e+66   -2.4868e+67   4.83563e+66
  -3.79408e+59  -1.97748e+61   3.71961e+60    1.0411e+68   2.2707e+135  1.17653e+202   9.25642e+67   1.25768e+67   2.82954e+67   6.32375e+67   6.97649e+66  -2.49189e+67  -4.43641e+65
  -7.56472e+59  -1.83941e+61   3.71141e+60   1.01324e+68  2.04535e+135  7.58457e+201   9.06713e+67   1.19341e+67   2.76878e+67   6.17026e+67  -8.72223e+66    -2.556e+67  -6.73402e+65
   7.86727e+59  -1.85061e+61  -5.91531e+60  -1.46969e+68  4.70278e+135 -3.44097e+202   1.29989e+68  -2.05821e+67  -2.96108e+67  -9.67765e+67  -8.73609e+66  -2.55198e+67   6.04931e+66
  -3.91086e+59  -3.09304e+61   4.73923e+60  -1.01326e+66 -1.89667e+135  1.77615e+202   4.35626e+67  -1.20499e+67  -2.79298e+67   3.89665e+67   7.90343e+66   2.47436e+67  -8.03562e+65
  -1.21505e+60  -3.16505e+61   1.71609e+61   2.33174e+68  7.54633e+135  4.99705e+202   2.16388e+68   1.48058e+67   2.61135e+67   1.92255e+68   8.05339e+66    2.4807e+67  -5.19559e+66
  -2.48285e+60  -3.00967e+61   1.69749e+61   2.38278e+68  8.17335e+135  6.21072e+202   2.20461e+68   1.59835e+67   2.76656e+67   1.94629e+68   -8.9419e+66   2.52475e+67  -6.84179e+66
  -7.75136e+59  -2.93863e+61   4.70794e+60  -2.73466e+66 -1.89789e+135  1.84698e+202   4.36505e+67  -1.24472e+67  -2.79527e+67   3.76652e+67  -9.09187e+66   2.53065e+67  -1.03639e+66
  -3.79408e+59  -1.97748e+61   3.71961e+60  -1.75629e+65 -1.89219e+135  1.79958e+202   4.34997e+67   -1.1489e+67  -2.78583e+67   3.91717e+67   6.89177e+66  -2.49653e+67  -4.43641e+65
  -1.11068e+60   -2.0498e+61   1.35589e+61   2.41175e+68  8.97243e+135  8.33079e+202   2.21795e+68   1.92514e+67    2.7838e+67   1.94086e+68   7.13836e+66  -2.49003e+67    -5.646e+66
  -2.30978e+60  -1.91012e+61   1.33392e+61   2.47039e+68  9.74476e+135  8.77096e+202   2.26459e+68   2.06046e+67   2.98154e+67   1.96619e+68  -8.67012e+66  -2.55945e+67  -7.27054e+66
  -7.56472e+59  -1.83941e+61   3.71141e+60  -1.04659e+66  -1.9013e+135  1.65152e+202   4.36164e+67    -1.169e+67  -2.74351e+67   3.80785e+67  -8.91671e+66  -2.55387e+67  -6.73402e+65
   9.26366e+59  -2.94961e+61  -7.55513e+60  -1.32419e+68  3.20177e+135 -1.26615e+202   1.19721e+68  -1.25816e+67  -2.63345e+67   -9.3503e+67   8.70836e+66   2.58623e+67   4.86226e+66
  -7.75136e+59  -2.93863e+61   4.70794e+60   1.00987e+68  2.00816e+135  6.58641e+201      9.05e+67   1.19104e+67   2.75285e+67   6.15482e+67   8.77123e+66   2.58237e+67  -1.82055e+66
  -1.14548e+60  -2.66888e+61    4.6252e+60   9.65683e+67  1.71516e+135  5.05365e+201   8.72369e+67   1.08907e+67   2.66656e+67    5.9012e+67  -9.58719e+66   2.63724e+67  -2.02518e+66
   1.51066e+60  -2.68027e+61  -7.43322e+60  -1.38691e+68  3.60573e+135  -2.0675e+202   1.25018e+68  -1.40291e+67  -2.76251e+67  -9.70372e+67  -9.65006e+66   2.64916e+67   5.37489e+66
   7.86727e+59  -1.85061e+61  -5.91531e+60  -1.34607e+68  3.46993e+135 -2.14864e+202   1.21033e+68  -1.38958e+67  -2.67579e+67  -9.39529e+67   8.14874e+66  -2.49569e+67   5.67249e+66
  -7.56472e+59  -1.83941e+61   3.71141e+60   1.02432e+68  2.16497e+135  1.01156e+202   9.12538e+67   1.25668e+67   2.79432e+67   6.19215e+67   8.27527e+66  -2.49934e+67  -1.21655e+66
  -1.12111e+60  -1.58938e+61   3.66699e+60   9.86084e+67  1.93454e+135  5.60739e+201   8.82557e+67   1.16846e+67   2.73812e+67   5.95427e+67  -9.61065e+66  -2.48414e+67  -1.41849e+66
   1.35216e+60  -1.60141e+61  -5.73752e+60  -1.40259e+68  3.85634e+135 -1.84835e+202   1.25762e+68  -1.52002e+67   -2.7742e+67  -9.73165e+67  -9.73718e+66  -2.47253e+67   6.17837e+66
  -7.75136e+59  -2.93863e+61   4.70794e+60  -1.53528e+66 -1.91748e+135  1.66395e+202   4.38159e+67  -1.17486e+67  -2.76759e+67   3.78892e+67   8.65172e+66   2.58979e+67  -1.82055e+66
  -2.48285e+60  -3.00967e+61   1.69749e+61   2.32052e+68  7.04011e+135  3.50774e+202   2.16352e+68   1.27316e+67   2.62289e+67   1.93091e+68   8.87714e+66   2.58414e+67  -8.37783e+66
  -3.80957e+60  -2.73845e+61   1.66908e+61   2.30674e+68  6.92072e+135  3.94611e+202    2.1515e+68   1.24135e+67   2.64735e+67   1.91787e+68  -9.51465e+66    2.6261e+67  -9.26003e+66
  -1.14548e+60  -2.66888e+61    4.6252e+60  -4.63502e+66 -1.89167e+135  1.89051e+202   4.37396e+67   -1.2464e+67  -2.78285e+67   3.56574e+67  -9.74008e+66   2.65109e+67  -2.02518e+66
  -7.56472e+59  -1.83941e+61   3.71141e+60   6.04956e+64 -1.85423e+135  1.64354e+202   4.30608e+67  -1.10573e+67  -2.71796e+67   3.82974e+67   8.08079e+66  -2.49721e+67  -1.21655e+66
  -2.30978e+60  -1.91012e+61   1.33392e+61   2.37079e+68  7.97486e+135  5.98657e+202   2.19617e+68   1.52848e+67   2.75171e+67   1.94278e+68   8.45888e+66  -2.50235e+67  -7.96507e+66
  -3.60831e+60   -1.6576e+61    1.3077e+61   2.37025e+68  8.09578e+135  5.06276e+202   2.19283e+68   1.52721e+67   2.84614e+67   1.93291e+68  -9.50056e+66  -2.49768e+67  -8.83566e+66
  -1.12111e+60  -1.58938e+61   3.66699e+60  -1.69307e+66  -1.7925e+135  1.39291e+202   4.23718e+67  -1.14619e+67  -2.66273e+67   3.63962e+67  -9.87865e+66  -2.47346e+67  -1.41849e+66
   4.17673e+49  -4.53242e+61  -9.31434e+60  -1.34615e+68  3.63855e+135 -2.22438e+202   1.20344e+68  -1.56684e+67  -2.69968e+67    -9.195e+67   8.39912e+66   2.52344e+67   4.28959e+65
   2.92612e+49  -4.52184e+61   5.78305e+60   1.02992e+68   2.1214e+135  8.53418e+201   9.21193e+67   1.15424e+67   2.78357e+67   6.36141e+67   8.40083e+66   2.51846e+67  -2.18945e+65
   -3.9203e+59  -4.46795e+61     5.769e+60   1.02202e+68   2.0662e+135  8.03014e+201   9.15366e+67   1.13599e+67   2.76574e+67   6.31842e+67  -8.63585e+66   2.52699e+67  -3.38975e+65
   4.93877e+59  -4.47854e+61  -9.28688e+60   -1.3735e+68  3.83506e+135 -2.53421e+202   1.22597e+68  -1.62995e+67  -2.76237e+67  -9.34268e+67  -8.63755e+66   2.53176e+67   1.79024e+66
   3.03384e+49  -3.15389e+61  -7.73134e+60   -1.4137e+68  4.33623e+135  -3.4123e+202   1.25097e+68  -1.94051e+67  -2.84558e+67  -9.35087e+67    7.6939e+66  -2.51314e+67   7.67235e+65
   2.06255e+49  -3.14306e+61   4.74704e+60    1.0394e+68  2.20341e+135  1.01701e+202   9.27373e+67   1.19533e+67   2.81543e+67   6.38329e+67    7.6938e+66  -2.51812e+67  -1.19956e+65
  -3.91086e+59  -3.09304e+61   4.73923e+60   1.03146e+68   2.1374e+135  9.01875e+201   9.22048e+67     1.177e+67   2.79707e+67   6.34054e+67  -8.09175e+66  -2.54176e+67  -2.38386e+65
   4.29763e+59  -3.10387e+61  -7.68151e+60  -1.44082e+68  4.53321e+135 -3.52171e+202   1.27383e+68  -2.00311e+67   -2.9082e+67  -9.49691e+67  -8.09165e+66  -2.53699e+67   2.11036e+66
   2.92612e+49  -4.52184e+61   5.78305e+60  -7.22457e+65 -1.96311e+135  1.87675e+202   4.43129e+67  -1.23918e+67  -2.80106e+67   3.96799e+67   8.40083e+66   2.52274e+67  -2.18945e+65
   1.63363e+49  -4.59423e+61   2.08827e+61   2.36941e+68  7.81521e+135  5.37397e+202   2.19831e+68   1.47715e+67   2.68347e+67   1.95335e+68    8.4366e+66   2.52269e+67  -8.57992e+65
  -1.27987e+60  -4.54012e+61   2.08277e+61   2.38345e+68   7.9902e+135    5.724e+202   2.20948e+68   1.50956e+67   2.72469e+67   1.96003e+68  -8.63728e+66   2.52944e+67  -2.43717e+66
   -3.9203e+59  -4.46795e+61     5.769e+60  -1.24034e+66 -1.96005e+135  1.90109e+202   4.42899e+67  -1.25113e+67   -2.8042e+67    3.9313e+67  -8.67305e+66   2.53237e+67  -3.38975e+65
   2.06255e+49  -3.14306e+61   4.74704e+60    -9.528e+64 -1.94699e+135  1.87086e+202   4.41248e+67   -1.2055e+67   -2.7865e+67   3.98247e+67    7.6938e+66  -2.51772e+67  -1.19956e+65
   1.04947e+49  -3.21545e+61   1.72256e+61   2.45155e+68  9.30876e+135  8.51044e+202   2.25372e+68   1.91939e+67   2.87313e+67    1.9723e+68   7.75267e+66  -2.51777e+67  -9.95585e+65
  -1.21505e+60  -3.16505e+61   1.71609e+61   2.46736e+68  9.51294e+135  8.63592e+202    2.2664e+68   1.95587e+67   2.92432e+67   1.97934e+68  -8.09275e+66   -2.5428e+67   -2.5537e+66
  -3.91086e+59  -3.09304e+61   4.73923e+60  -4.10958e+65 -1.95167e+135  1.84172e+202   4.41796e+67  -1.21278e+67  -2.77908e+67   3.95077e+67  -8.15162e+66  -2.53991e+67  -2.38386e+65
   4.93877e+59  -4.47854e+61  -9.28688e+60  -1.32617e+68  3.35114e+135 -1.67099e+202   1.19316e+68  -1.37719e+67  -2.65316e+67  -9.23141e+67   8.56659e+66   2.56043e+67   2.42093e+66
   -3.9203e+59  -4.46795e+61     5.769e+60   1.02873e+68  2.10344e+135  7.93616e+201   9.20842e+67   1.17399e+67   2.78125e+67   6.33211e+67   8.58148e+66   2.55569e+67  -8.81163e+65
  -7.76848e+59  -4.30363e+61   5.72002e+60   1.00699e+68  1.95995e+135  6.87503e+201   9.04451e+67   1.12381e+67   2.73474e+67   6.21135e+67  -9.20087e+66   2.56595e+67  -9.95925e+65
   1.03374e+60  -4.31431e+61  -9.21982e+60    -1.398e+68  3.86999e+135 -2.47034e+202   1.25196e+68  -1.54294e+67  -2.81525e+67  -9.62184e+67  -9.21576e+66   2.57163e+67   3.39314e+66
   4.29763e+59  -3.10387e+61  -7.68151e+60  -1.37266e+68  3.84619e+135 -2.69115e+202   1.22457e+68  -1.64001e+67   -2.7509e+67  -9.33568e+67   7.94293e+66  -2.51027e+67   3.30668e+66
  -3.91086e+59  -3.09304e+61   4.73923e+60   1.03811e+68  2.20373e+135  1.02148e+202   9.25899e+67   1.21397e+67    2.8124e+67   6.35467e+67   7.96536e+66    -2.515e+67  -5.97319e+65
  -7.75136e+59  -2.93863e+61   4.70794e+60   1.01729e+68   2.0271e+135  6.97209e+201   9.12237e+67   1.16595e+67   2.76998e+67   6.23701e+67  -8.97029e+66  -2.58792e+67  -7.10551e+65
   9.26366e+59  -2.94961e+61  -7.55513e+60  -1.44289e+68  4.33535e+135  -2.8536e+202   1.28389e+68  -1.80207e+67  -2.90736e+67  -9.71943e+67  -8.99272e+66  -2.58226e+67   4.26593e+66
   -3.9203e+59  -4.46795e+61     5.769e+60  -5.68416e+65  -1.9701e+135  1.80591e+202   4.43894e+67  -1.21313e+67   -2.7887e+67   3.94499e+67   8.54428e+66   2.56106e+67  -8.81163e+65
  -1.27987e+60  -4.54012e+61   2.08277e+61   2.34993e+68  7.37909e+135  4.34061e+202   2.18729e+68   1.33467e+67   2.64733e+67   1.95173e+68   8.63256e+66   2.55822e+67  -4.12946e+66
  -2.59097e+60  -4.37523e+61   2.06647e+61   2.38308e+68  7.79525e+135  5.20871e+202   2.21349e+68   1.41116e+67   2.74557e+67    1.9674e+68  -9.18055e+66   2.56466e+67  -5.30272e+66
  -7.76848e+59  -4.30363e+61   5.72002e+60   -2.1556e+66 -1.95528e+135   1.8941e+202    4.4271e+67  -1.24976e+67  -2.80358e+67   3.83778e+67  -9.26883e+66   2.57521e+67  -9.95925e+65
  -3.91086e+59  -3.09304e+61   4.73923e+60   2.53436e+65 -1.93147e+135    1.808e+202   4.39493e+67   -1.1758e+67  -2.76375e+67    3.9649e+67   7.90549e+66  -2.51315e+67  -5.97319e+65
  -1.21505e+60  -3.16505e+61   1.71609e+61   2.41254e+68  8.52667e+135  6.96276e+202   2.22883e+68   1.66687e+67    2.7978e+67   1.96607e+68   8.05537e+66  -2.51589e+67  -4.43481e+66
  -2.48285e+60  -3.00967e+61   1.69749e+61   2.45044e+68  9.00359e+135  7.05352e+202   2.25927e+68   1.75433e+67    2.9227e+67   1.98273e+68  -8.93992e+66  -2.59083e+67  -5.59243e+66
  -7.75136e+59  -2.93863e+61   4.70794e+60  -7.93056e+65 -1.94823e+135  1.72488e+202   4.41459e+67  -1.19995e+67  -2.75046e+67   3.87111e+67  -9.08981e+66  -2.58049e+67  -7.10551e+65
   1.03374e+60  -4.31431e+61  -9.21982e+60  -1.33902e+68  3.24453e+135 -1.27326e+202   1.21182e+68  -1.22745e+67  -2.67912e+67  -9.48359e+67   9.06115e+66   2.63255e+67   3.74294e+66
  -7.76848e+59  -4.30363e+61   5.72002e+60    1.0166e+68  2.00239e+135  6.01515e+201   9.12821e+67   1.18135e+67   2.75692e+67   6.22776e+67   9.08082e+66   2.62689e+67  -1.85618e+66
  -1.15033e+60  -4.02205e+61   5.61549e+60   9.89174e+67  1.87002e+135  6.30646e+201   8.89642e+67   1.11805e+67   2.69845e+67   6.07524e+67  -9.58844e+66   2.55794e+67  -2.01374e+66
   1.63106e+60  -4.03286e+61  -9.13219e+60   -1.3788e+68  3.55932e+135 -1.93153e+202   1.24305e+68  -1.31927e+67  -2.76611e+67  -9.70265e+67  -9.60811e+66     2.569e+67   4.14849e+66
   9.26366e+59  -2.94961e+61  -7.55513e+60  -1.35528e+68  3.46965e+135 -1.99289e+202   1.22058e+68  -1.32986e+67  -2.70518e+67  -9.51772e+67   8.71093e+66  -2.52325e+67   4.24111e+66
  -7.75136e+59  -2.93863e+61   4.70794e+60   1.02929e+68  2.15182e+135  9.52157e+201   9.18839e+67   1.23585e+67   2.79767e+67   6.25943e+67   8.77375e+66  -2.52877e+67  -1.49508e+66
  -1.14548e+60  -2.66888e+61    4.6252e+60   1.00578e+68  1.95254e+135   5.2706e+201   9.03516e+67   1.18158e+67   2.75909e+67   6.11713e+67  -9.58467e+66  -2.62573e+67  -1.65054e+66
   1.51066e+60  -2.68027e+61  -7.43322e+60  -1.39098e+68  3.66247e+135 -1.64252e+202   1.25243e+68  -1.41226e+67   -2.7719e+67  -9.72567e+67   -9.6475e+66  -2.61488e+67   4.64126e+66
  -7.76848e+59  -4.30363e+61   5.72002e+60  -1.19418e+66 -1.97951e+135  1.71486e+202   4.45077e+67  -1.19222e+67   -2.7814e+67   3.85419e+67   9.01285e+66   2.63615e+67  -1.85618e+66
  -2.59097e+60  -4.37523e+61   2.06647e+61   2.34434e+68  7.07442e+135   3.3491e+202   2.18826e+68   1.21628e+67   2.65618e+67    1.9571e+68   9.14481e+66   2.62575e+67  -7.37179e+66
  -3.93585e+60   -4.0928e+61     2.037e+61    2.3367e+68   7.0592e+135  3.90897e+202   2.18043e+68   1.19865e+67   2.67105e+67   1.94973e+68  -9.53577e+66   2.54911e+67  -8.07056e+66
  -1.15033e+60  -4.02205e+61   5.61549e+60  -3.03777e+66 -1.91266e+135  1.86284e+202   4.38394e+67  -1.23476e+67  -2.79144e+67   3.72243e+67  -9.66773e+66   2.57118e+67  -2.01374e+66
  -7.75136e+59  -2.93863e+61   4.70794e+60   4.07063e+65 -1.90527e+135  1.69611e+202   4.36513e+67  -1.13006e+67  -2.72276e+67   3.89353e+67   8.65424e+66  -2.52135e+67  -1.49508e+66
  -2.48285e+60  -3.00967e+61   1.69749e+61   2.38821e+68  7.90623e+135   5.5269e+202   2.21651e+68   1.42931e+67    2.7791e+67   1.96737e+68   8.87953e+66  -2.53144e+67  -7.12916e+66
  -3.80957e+60  -2.73845e+61   1.66908e+61   2.38854e+68  7.93041e+135  4.62523e+202   2.21632e+68   1.43007e+67   2.83613e+67   1.96192e+68  -9.51226e+66  -2.63348e+67   -7.8186e+66
  -1.14548e+60  -2.66888e+61    4.6252e+60  -6.25216e+65 -1.92305e+135   1.5259e+202   4.38571e+67  -1.15388e+67  -2.69031e+67   3.78167e+67  -9.73756e+66  -2.61188e+67  -1.65054e+66
   5.47707e+49  -6.17459e+61   -1.0946e+61  -1.35373e+68  3.52047e+135  -1.9177e+202   1.21677e+68  -1.41468e+67  -2.72312e+67  -9.39949e+67   8.86705e+66   2.59887e+67    1.8802e+65
   3.92975e+49  -6.16417e+61   6.82721e+60   1.03572e+68  2.10231e+135  7.74949e+201   9.28701e+67   1.16009e+67     2.791e+67   6.40612e+67   8.86726e+66    2.5959e+67  -2.94044e+65
  -3.89106e+59  -6.10806e+61    6.8086e+60   1.02972e+68  2.06437e+135  7.54723e+201   9.24061e+67   1.14625e+67    2.7772e+67   6.37376e+67  -9.01621e+66   2.59475e+67  -3.40319e+65
   5.40835e+59  -6.11849e+61  -1.09341e+61  -1.37301e+68  3.66291e+135 -2.13396e+202   1.23242e+68  -1.45917e+67  -2.76756e+67  -9.50336e+67  -9.01643e+66   2.59791e+67   1.23349e+66
   4.17673e+49  -4.53242e+61  -9.31434e+60  -1.40689e+68  4.09484e+135 -2.85453e+202   1.25294e+68   -1.7069e+67  -2.83985e+67  -9.52218e+67   8.39966e+66  -2.54687e+67   4.28739e+65
   2.92612e+49  -4.52184e+61   5.78305e+60   1.04009e+68  2.16646e+135   9.1175e+201   9.30134e+67   1.17769e+67   2.80704e+67   6.41621e+67   8.40137e+66  -2.54985e+67  -2.18999e+65
   -3.9203e+59  -4.46795e+61     5.769e+60    1.0343e+68   2.1159e+135   8.1815e+201   9.26379e+67   1.16431e+67   2.79408e+67   6.38457e+67   -8.6353e+66  -2.57301e+67  -2.64649e+65
   4.93877e+59  -4.47854e+61  -9.28688e+60  -1.42579e+68  4.22705e+135 -2.91225e+202   1.26893e+68  -1.75052e+67  -2.88304e+67  -9.62437e+67  -8.63702e+66  -2.56985e+67   1.46009e+66
   3.92975e+49  -6.16417e+61   6.82721e+60  -4.75459e+65 -2.03017e+135  1.90973e+202   4.50599e+67  -1.24101e+67  -2.81156e+67   4.00502e+67   8.86726e+66   2.60252e+67  -2.94044e+65
   2.33742e+49  -6.23699e+61   2.46038e+61   2.38507e+68  7.60205e+135  4.63209e+202   2.21999e+68   1.33111e+67   2.70342e+67   1.98162e+68   8.88905e+66   2.59442e+67  -7.70109e+65
  -1.32016e+60  -6.18074e+61   2.45551e+61   2.39383e+68  7.71447e+135  4.87942e+202   2.22687e+68   1.35132e+67   2.72892e+67    1.9858e+68  -9.01579e+66   2.59228e+67  -1.89259e+66
  -3.89106e+59  -6.10806e+61    6.8086e+60  -9.05004e+65 -2.02393e+135   1.9394e+202   4.49972e+67  -1.25092e+67  -2.81618e+67    3.9766e+67  -9.03758e+66    2.6021e+67  -3.40319e+65
   2.92612e+49  -4.52184e+61   5.78305e+60   2.94779e+65 -1.98737e+135  1.87175e+202   4.45809e+67  -1.21573e+67  -2.77759e+67   4.02279e+67   8.40137e+66  -2.54557e+67  -2.18999e+65
   1.63363e+49  -4.59423e+61   2.08827e+61   2.44949e+68  8.79685e+135  7.04624e+202   2.26281e+68    1.6618e+67   2.86828e+67   1.99648e+68   8.43713e+66  -2.55367e+67   -8.5788e+65
  -1.27987e+60  -4.54012e+61   2.08277e+61    2.4593e+68  8.91802e+135  7.06285e+202   2.27076e+68   1.68443e+67   2.89972e+67   2.00088e+68  -8.63675e+66  -2.57743e+67  -1.96519e+66
   -3.9203e+59  -4.46795e+61     5.769e+60  -1.23017e+64 -1.99357e+135   1.8508e+202   4.46494e+67  -1.22281e+67  -2.77586e+67   3.99745e+67  -8.67251e+66  -2.56763e+67  -2.64649e+65
   5.40835e+59  -6.11849e+61  -1.09341e+61  -1.34141e+68  3.33144e+135 -1.55126e+202   1.21088e+68  -1.28983e+67  -2.69463e+67  -9.42962e+67   8.97336e+66    2.6279e+67     1.487e+66
  -3.89106e+59  -6.10806e+61    6.8086e+60   1.03492e+68  2.08908e+135  7.19558e+201    9.2852e+67   1.17645e+67    2.7892e+67   6.38355e+67   8.97842e+66   2.62474e+67  -1.00202e+66
  -7.72456e+59   -5.9381e+61   6.74801e+60   1.01976e+68  2.00008e+135  6.99844e+201   9.16462e+67   1.14147e+67   2.75544e+67    6.3007e+67  -9.38025e+66   2.60887e+67  -1.07477e+66
   1.11214e+60  -5.94855e+61  -1.09068e+61   -1.3902e+68  3.69695e+135 -2.09889e+202   1.25018e+68  -1.40242e+67    -2.806e+67  -9.69355e+67  -9.38531e+66   2.61324e+67   2.24202e+66
   4.93877e+59  -4.47854e+61  -9.28688e+60  -1.37848e+68  3.75563e+135 -2.36576e+202   1.23476e+68  -1.49781e+67  -2.77386e+67  -9.51312e+67   8.56799e+66  -2.54118e+67   2.09035e+66
   -3.9203e+59  -4.46795e+61     5.769e+60   1.04102e+68  2.18307e+135  9.45114e+201   9.30276e+67   1.20232e+67    2.8096e+67   6.39827e+67   8.58289e+66  -2.54431e+67  -8.06981e+65
  -7.76848e+59  -4.30363e+61   5.72002e+60   1.02686e+68  2.05125e+135   6.7515e+201   9.21589e+67   1.16966e+67    2.7806e+67   6.31838e+67  -9.19946e+66  -2.61631e+67  -8.78751e+65
   1.03374e+60  -4.31431e+61  -9.21982e+60  -1.42581e+68  4.07155e+135 -2.43599e+202   1.27506e+68  -1.60704e+67  -2.87941e+67  -9.77164e+67  -9.21436e+66  -2.61198e+67   2.83517e+66
  -3.89106e+59  -6.10806e+61    6.8086e+60   -3.8515e+65 -2.03619e+135  1.84603e+202   4.51258e+67  -1.22072e+67  -2.80418e+67   3.98638e+67   8.95704e+66    2.6321e+67  -1.00202e+66
  -1.32016e+60  -6.18074e+61   2.45551e+61   2.37302e+68  7.32696e+135  3.94898e+202   2.21326e+68   1.24446e+67    2.6809e+67   1.98048e+68   9.00891e+66   2.62232e+67  -3.45588e+66
   -2.6589e+60  -6.01045e+61   2.44078e+61   2.39422e+68  7.60379e+135  4.59816e+202   2.22978e+68   1.29339e+67   2.74243e+67   1.99064e+68  -9.36403e+66   2.60434e+67  -4.34012e+66
  -7.72456e+59   -5.9381e+61   6.74801e+60  -1.53127e+66 -2.01439e+135  1.93951e+202   4.49081e+67  -1.24716e+67  -2.81803e+67   3.91207e+67   -9.4159e+66   2.61859e+67  -1.07477e+66
   -3.9203e+59  -4.46795e+61     5.769e+60   6.59985e+65 -1.97371e+135  1.81946e+202   4.44314e+67   -1.1848e+67  -2.76035e+67   4.01115e+67   8.54568e+66  -2.53894e+67  -8.06981e+65
  -1.27987e+60  -4.54012e+61   2.08277e+61   2.42579e+68   8.3206e+135  6.14732e+202   2.24776e+68   1.50964e+67   2.82241e+67   1.99259e+68   8.63391e+66  -2.54865e+67  -3.65735e+66
  -2.59097e+60  -4.37523e+61   2.06647e+61   2.44974e+68  8.60527e+135  6.04898e+202   2.26731e+68    1.5649e+67    2.8994e+67   2.00331e+68   -9.1792e+66  -2.62118e+67  -4.52964e+66
  -7.76848e+59  -4.30363e+61   5.72002e+60  -1.68038e+65 -1.99711e+135  1.74882e+202   4.46894e+67  -1.20391e+67  -2.75772e+67   3.94482e+67  -9.26742e+66  -2.60705e+67  -8.78751e+65
   1.11214e+60  -5.94855e+61  -1.09068e+61  -1.35204e+68  3.27877e+135 -1.27815e+202    1.2248e+68   -1.2013e+67  -2.71793e+67  -9.60112e+67   9.29048e+66   2.67549e+67    2.9155e+66
  -7.72456e+59   -5.9381e+61   6.74801e+60   1.02642e+68  2.01937e+135  5.73582e+201   9.22821e+67   1.18312e+67   2.77081e+67   6.31026e+67   9.28682e+66   2.67109e+67  -1.94027e+66
   -1.1475e+60  -5.65003e+61   6.63238e+60   1.01028e+68  1.99723e+135  7.37776e+201   9.06062e+67   1.14588e+67   2.73267e+67   6.22428e+67  -9.59887e+66   2.51714e+67  -2.06898e+66
   1.71915e+60  -5.66046e+61   -1.0838e+61  -1.37469e+68  3.52031e+135 -1.81189e+202   1.24006e+68  -1.25358e+67  -2.77112e+67  -9.72221e+67  -9.59522e+66    2.5244e+67   3.26192e+66
   1.03374e+60  -4.31431e+61  -9.21982e+60  -1.36684e+68  3.49833e+135  -1.9011e+202   1.23224e+68  -1.29164e+67  -2.74333e+67  -9.63342e+67   9.06295e+66  -2.55105e+67   3.18508e+66
  -7.76848e+59  -4.30363e+61   5.72002e+60   1.03648e+68  2.15838e+135  9.27244e+201   9.26528e+67   1.22721e+67   2.80279e+67    6.3348e+67   9.08257e+66  -2.55537e+67  -1.73916e+66
  -1.15033e+60  -4.02205e+61   5.61549e+60   1.02242e+68  1.97546e+135  5.03233e+201   9.20758e+67   1.19476e+67   2.77517e+67   6.25426e+67  -9.58669e+66  -2.72693e+67  -1.86613e+66
   1.63106e+60  -4.03286e+61  -9.13219e+60  -1.38733e+68  3.54957e+135 -1.52721e+202   1.25289e+68  -1.33893e+67  -2.78579e+67  -9.74859e+67  -9.60631e+66  -2.71978e+67   3.52682e+66
  -7.72456e+59   -5.9381e+61   6.74801e+60  -8.65403e+65 -2.04202e+135  1.77003e+202    4.5197e+67  -1.20551e+67  -2.80266e+67   3.92163e+67   9.25118e+66   2.68082e+67  -1.94027e+66
   -2.6589e+60  -6.01045e+61   2.44078e+61      2.37e+68  7.14007e+135  3.25991e+202   2.21425e+68   1.17893e+67   2.68654e+67   1.98345e+68   9.32838e+66   2.66665e+67  -6.74574e+66
  -4.01613e+60  -5.72189e+61   2.41089e+61   2.36563e+68  7.18854e+135  3.89782e+202   2.20847e+68   1.16886e+67   2.69521e+67   1.97923e+68  -9.55993e+66   2.50814e+67  -7.34091e+66
   -1.1475e+60  -5.65003e+61   6.63238e+60  -1.84026e+66 -1.94554e+135  1.86767e+202   4.41467e+67  -1.22801e+67  -2.80641e+67   3.85039e+67  -9.63713e+66   2.52905e+67  -2.06898e+66
  -7.76848e+59  -4.30363e+61   5.72002e+60   7.93514e+65 -1.95667e+135  1.75155e+202   4.42414e+67  -1.14636e+67  -2.73553e+67   3.96123e+67    9.0146e+66  -2.54611e+67  -1.73916e+66
  -2.59097e+60  -4.37523e+61   2.06647e+61   2.41103e+68  7.93356e+135  5.29475e+202   2.24047e+68   1.37013e+67   2.81007e+67   1.99301e+68   9.14647e+66  -2.56009e+67  -6.59915e+66
  -3.93585e+60   -4.0928e+61     2.037e+61   2.41127e+68   7.8845e+135  4.39953e+202   2.24182e+68   1.37068e+67   2.84312e+67   1.98989e+68  -9.53411e+66  -2.73433e+67  -7.18628e+66
  -1.15033e+60  -4.02205e+61   5.61549e+60   2.86736e+65 -2.02989e+135  1.62637e+202   4.50552e+67  -1.15805e+67  -2.71472e+67   3.90145e+67  -9.66598e+66  -2.71369e+67  -1.86613e+66
   6.93408e+49  -8.08627e+61  -1.26204e+61  -1.36612e+68  3.47183e+135   -1.731e+202   1.23252e+68  -1.31323e+67   -2.7554e+67  -9.59262e+67   9.17806e+66   2.66205e+67   2.82224e+64
   5.06742e+49  -8.07594e+61   7.88066e+60   1.04422e+68  2.10965e+135  7.37004e+201   9.37784e+67   1.17383e+67   2.80695e+67   6.46147e+67   9.17673e+66   2.66021e+67   -3.4435e+65
  -3.85612e+59  -8.01868e+61   7.85917e+60   1.04015e+68  2.08682e+135  7.41974e+201   9.34464e+67   1.16442e+67   2.79722e+67   6.43983e+67   -9.2769e+66   2.65314e+67  -3.80154e+65
   5.73977e+59  -8.02899e+61  -1.26186e+61  -1.37885e+68  3.56991e+135 -1.87319e+202   1.24267e+68   -1.3426e+67  -2.78509e+67  -9.66083e+67  -9.27557e+66   2.65517e+67    8.1885e+65
   5.47707e+49  -6.17459e+61   -1.0946e+61  -1.40717e+68  3.93875e+135 -2.46076e+202   1.25946e+68  -1.53791e+67  -2.84644e+67  -9.68734e+67   8.86741e+66  -2.58383e+67   1.87835e+65
   3.92975e+49  -6.16417e+61   6.82721e+60   1.04733e+68  2.17763e+135  8.74436e+201   9.37624e+67   1.18688e+67   2.81779e+67   6.46864e+67   8.86762e+66  -2.58566e+67    -2.941e+65
  -3.89106e+59  -6.10806e+61    6.8086e+60   1.04343e+68  2.14018e+135   7.9262e+201   9.35267e+67   1.17787e+67   2.80884e+67   6.44757e+67  -9.01585e+66  -2.60718e+67  -3.29414e+65
   5.40835e+59  -6.11849e+61  -1.09341e+61   -1.4196e+68  4.02207e+135 -2.48917e+202   1.27006e+68   -1.5666e+67  -2.87508e+67  -9.75434e+67  -9.01607e+66  -2.60515e+67   9.67631e+65
   5.06742e+49  -8.07594e+61   7.88066e+60  -3.39887e+65 -2.09279e+135  1.95383e+202   4.57483e+67  -1.24377e+67   -2.8341e+67   4.04388e+67   9.17673e+66   2.66817e+67   -3.4435e+65
   3.16362e+49  -8.14943e+61   2.83858e+61   2.40719e+68  7.53045e+135  4.20257e+202   2.24533e+68   1.24192e+67    2.7288e+67   2.01012e+68   9.19021e+66   2.65533e+67  -7.13361e+65
   -1.3458e+60  -8.09207e+61   2.83413e+61   2.41272e+68  7.60492e+135   4.3908e+202   2.24961e+68   1.25468e+67   2.74479e+67   2.01278e+68  -9.27496e+66   2.64768e+67  -1.56592e+66
  -3.85612e+59  -8.01868e+61   7.85917e+60  -6.32346e+65 -2.08538e+135  1.98602e+202   4.56703e+67  -1.25052e+67  -2.83762e+67    4.0249e+67  -9.28843e+66   2.66153e+67  -3.80154e+65
   3.92975e+49  -6.16417e+61   6.82721e+60   6.85644e+65 -2.03234e+135  1.87683e+202   4.50867e+67  -1.21421e+67  -2.78477e+67   4.06754e+67   8.86762e+66  -2.57904e+67    -2.941e+65
   2.33742e+49  -6.23699e+61   2.46038e+61   2.46108e+68   8.5517e+135  6.19483e+202   2.28073e+68   1.50642e+67   2.87883e+67   2.02256e+68    8.8894e+66  -2.59187e+67  -7.70038e+65
  -1.32016e+60  -6.18074e+61   2.45551e+61   2.46722e+68  8.62345e+135  6.15758e+202   2.28579e+68    1.5206e+67    2.8983e+67   2.02533e+68  -9.01545e+66  -2.61365e+67  -1.61092e+66
  -3.89106e+59  -6.10806e+61    6.8086e+60   4.65758e+65 -2.03989e+135  1.85333e+202   4.51675e+67  -1.21929e+67  -2.78455e+67   4.05041e+67  -9.03723e+66  -2.59982e+67  -3.29414e+65
   5.73977e+59  -8.02899e+61  -1.26186e+61  -1.35835e+68  3.34632e+135 -1.48965e+202   1.22901e+68  -1.23223e+67  -2.73777e+67  -9.61347e+67   9.24176e+66   2.68603e+67   8.35613e+65
  -3.85612e+59  -8.01868e+61   7.85917e+60   1.04365e+68  2.09799e+135  6.80647e+201   9.37762e+67    1.1857e+67   2.80529e+67   6.44546e+67   9.24066e+66     2.684e+67  -1.11376e+66
  -7.67105e+59  -7.84585e+61   7.79181e+60   1.03394e+68  2.05189e+135  7.29268e+201   9.29432e+67   1.16331e+67   2.78263e+67   6.39346e+67  -9.51159e+66   2.65099e+67  -1.17994e+66
    1.1676e+60  -7.85616e+61  -1.26162e+61  -1.38953e+68  3.59391e+135 -1.84757e+202   1.25356e+68   -1.3042e+67     -2.81e+67  -9.78113e+67   -9.5105e+66   2.65376e+67   1.42345e+66
   5.40835e+59  -6.11849e+61  -1.09341e+61  -1.38801e+68  3.71175e+135 -2.13644e+202   1.24716e+68  -1.39732e+67  -2.80218e+67  -9.68062e+67   8.97431e+66  -2.57517e+67   1.22082e+66
  -3.89106e+59  -6.10806e+61    6.8086e+60   1.04863e+68  2.19659e+135  9.20598e+201   9.38062e+67   1.20808e+67   2.82083e+67   6.45736e+67   8.97935e+66  -2.57718e+67  -9.91221e+65
  -7.72456e+59   -5.9381e+61   6.74801e+60   1.03954e+68  2.09834e+135  6.79837e+201   9.33169e+67    1.1871e+67   2.80108e+67   6.40719e+67  -9.37931e+66   -2.6465e+67   -1.0565e+66
   1.11214e+60  -5.94855e+61  -1.09068e+61  -1.41829e+68  3.90166e+135 -2.15555e+202   1.27333e+68  -1.46718e+67  -2.87082e+67  -9.84487e+67  -9.38436e+66  -2.64375e+67    1.8006e+66
  -3.85612e+59  -8.01868e+61   7.85917e+60  -2.82471e+65  -2.0994e+135  1.89779e+202     4.582e+67  -1.22923e+67  -2.82955e+67   4.03053e+67   9.22913e+66   2.69239e+67  -1.11376e+66
   -1.3458e+60  -8.09207e+61   2.83413e+61   2.39951e+68  7.35166e+135  3.72988e+202   2.24109e+68   1.18845e+67    2.7143e+67   2.00923e+68   9.25984e+66   2.67857e+67  -3.04266e+66
  -2.70274e+60  -7.91906e+61   2.82049e+61   2.41307e+68  7.54041e+135  4.24704e+202   2.25141e+68   1.21974e+67   2.75295e+67    2.0158e+68  -9.49866e+66   2.64427e+67  -3.75491e+66
  -7.67105e+59  -7.84585e+61   7.79181e+60   -1.0052e+66 -2.07389e+135  1.99318e+202   4.55511e+67  -1.24591e+67  -2.83887e+67   3.98425e+67  -9.52937e+66   2.66065e+67  -1.17994e+66
  -3.89106e+59  -6.10806e+61    6.8086e+60   9.85654e+65 -2.02045e+135  1.84638e+202   4.49602e+67  -1.18908e+67  -2.77255e+67    4.0602e+67   8.95798e+66  -2.56983e+67  -9.91221e+65
  -1.32016e+60  -6.18074e+61   2.45551e+61   2.44642e+68  8.25775e+135  5.67569e+202   2.27139e+68    1.4138e+67    2.8503e+67   2.02001e+68   9.00982e+66  -2.58361e+67  -3.17411e+66
   -2.6589e+60  -6.01045e+61   2.44078e+61   2.46153e+68  8.42295e+135  5.47589e+202   2.28404e+68   1.44867e+67   2.89777e+67   2.02689e+68  -9.36312e+66  -2.65309e+67  -3.87661e+66
  -7.72456e+59   -5.9381e+61   6.74801e+60   4.46495e+65 -2.04885e+135  1.76842e+202   4.52664e+67  -1.20153e+67  -2.77239e+67   4.01856e+67  -9.41496e+66  -2.63677e+67   -1.0565e+66
    1.1676e+60  -7.85616e+61  -1.26162e+61  -1.36565e+68  3.31893e+135 -1.28904e+202   1.23818e+68  -1.18168e+67  -2.75488e+67   -9.7199e+67   9.44434e+66   2.71694e+67   2.35136e+66
  -7.67105e+59  -7.84585e+61   7.79181e+60   1.03814e+68  2.05174e+135  5.66541e+201    9.3411e+67    1.1916e+67   2.79232e+67   6.39748e+67   9.43086e+66   2.71413e+67  -2.02837e+66
   -1.1428e+60  -7.55482e+61   7.67133e+60   1.02892e+68  2.10191e+135  8.27818e+201   9.21137e+67   1.17033e+67   2.76781e+67   6.35109e+67   -9.6136e+66   2.50233e+67  -2.14129e+66
   1.78222e+60  -7.56505e+61  -1.25566e+61  -1.37709e+68  3.51306e+135 -1.73765e+202   1.24301e+68  -1.20809e+67  -2.78452e+67  -9.77827e+67  -9.60012e+66   2.50634e+67   2.66171e+66
   1.11214e+60  -5.94855e+61  -1.09068e+61  -1.38014e+68   3.5422e+135 -1.85212e+202   1.24522e+68  -1.26615e+67  -2.78279e+67  -9.75248e+67    9.2917e+66  -2.58149e+67   2.47424e+66
  -7.72456e+59   -5.9381e+61   6.74801e+60    1.0462e+68  2.18397e+135  9.28347e+201   9.36017e+67   1.22875e+67   2.81645e+67   6.41676e+67   9.28801e+66  -2.58427e+67  -1.92205e+66
   -1.1475e+60  -5.65003e+61   6.63238e+60   1.03785e+68  2.00728e+135   4.9478e+201   9.36165e+67   1.20949e+67   2.79629e+67   6.37272e+67  -9.59768e+66  -2.80615e+67  -2.03342e+66
   1.71915e+60  -5.66046e+61   -1.0838e+61  -1.39068e+68   3.4973e+135 -1.46689e+202   1.25868e+68  -1.29047e+67  -2.80802e+67  -9.80833e+67    -9.594e+66   -2.8022e+67   2.78033e+66
  -7.67105e+59  -7.84585e+61   7.79181e+60  -5.85123e+65 -2.10411e+135  1.83148e+202   4.58743e+67  -1.21761e+67  -2.82917e+67   3.98827e+67   9.41308e+66    2.7238e+67  -2.02837e+66
  -2.70274e+60  -7.91906e+61   2.82049e+61   2.39794e+68  7.23937e+135  3.23174e+202   2.24191e+68   1.15575e+67   2.71804e+67   2.01056e+68   9.46033e+66   2.70747e+67  -6.38129e+66
  -4.06872e+60  -7.62773e+61   2.79048e+61   2.39496e+68   7.3246e+135  3.92212e+202   2.23682e+68   1.14888e+67   2.72249e+67   2.00783e+68  -9.58372e+66    2.4931e+67  -6.91443e+66
   -1.1428e+60  -7.55482e+61   7.67133e+60  -1.03349e+66 -1.98492e+135  1.89826e+202   4.45644e+67  -1.22796e+67   -2.8282e+67    3.9528e+67  -9.63098e+66   2.51307e+67  -2.14129e+66
  -7.72456e+59   -5.9381e+61   6.74801e+60   1.11225e+66 -2.01013e+135  1.81384e+202   4.48483e+67  -1.15988e+67  -2.75703e+67   4.02813e+67   9.25237e+66  -2.57455e+67  -1.92205e+66
   -2.6589e+60  -6.01045e+61   2.44078e+61   2.43732e+68  8.01611e+135  5.19648e+202   2.26692e+68   1.33428e+67    2.8419e+67   2.01971e+68   9.32951e+66  -2.59078e+67  -6.28249e+66
  -4.01613e+60  -5.72189e+61   2.41089e+61   2.43685e+68  7.91082e+135  4.29365e+202   2.26874e+68   1.33319e+67   2.85956e+67   2.01758e+68   -9.5588e+66  -2.81405e+67  -6.80834e+66
   -1.1475e+60  -5.65003e+61   6.63238e+60   9.16553e+65 -2.12081e+135  1.71678e+202   4.60614e+67  -1.16439e+67  -2.74279e+67   3.99884e+67  -9.63594e+66  -2.79423e+67  -2.03342e+66
   8.53513e+49  -1.02727e+62  -1.43322e+61  -1.38083e+68  3.46649e+135 -1.62189e+202   1.24901e+68  -1.24668e+67  -2.79105e+67  -9.77055e+67   9.38705e+66   2.71739e+67  -7.29631e+64
   6.34421e+49  -1.02624e+62   8.94524e+60    1.0549e+68  2.13532e+135  7.26112e+201   9.48307e+67    1.1902e+67   2.82987e+67   6.52894e+67   9.38497e+66   2.71653e+67   -3.7546e+65
    -3.828e+59  -1.02047e+62   8.92214e+60   1.05232e+68  2.12389e+135   7.5029e+201   9.46037e+67   1.18424e+67   2.82341e+67   6.51553e+67  -9.45536e+66   2.70572e+67  -4.25059e+65
   5.96897e+59  -1.02149e+62  -1.43367e+61  -1.38887e+68  3.53257e+135 -1.71151e+202   1.25527e+68  -1.26524e+67   -2.8101e+67  -9.81336e+67  -9.45328e+66   2.70667e+67   5.29469e+65
   6.93408e+49  -8.08627e+61  -1.26204e+61   -1.4129e+68  3.85308e+135 -2.20097e+202   1.26924e+68   -1.4211e+67  -2.86334e+67  -9.84456e+67    9.1783e+66   -2.6219e+67   2.80869e+64
   5.06742e+49  -8.07594e+61   7.88066e+60   1.05815e+68  2.21417e+135  8.74156e+201   9.47765e+67   1.20596e+67   2.83908e+67   6.53643e+67   9.17697e+66  -2.62275e+67  -3.44395e+65
  -3.85612e+59  -8.01868e+61   7.85917e+60   1.05565e+68  2.18635e+135  7.98671e+201   9.46451e+67   1.20021e+67     2.833e+67   6.52333e+67  -9.27666e+66  -2.64282e+67  -3.93305e+65
   5.73977e+59  -8.02899e+61  -1.26186e+61  -1.42078e+68  3.90255e+135 -2.21404e+202   1.27607e+68  -1.43928e+67  -2.88184e+67  -9.88665e+67  -9.27533e+66  -2.64187e+67   6.22151e+65
   6.34421e+49  -1.02624e+62   8.94524e+60  -2.44658e+65 -2.15493e+135  2.01268e+202   4.64218e+67  -1.24983e+67  -2.86355e+67   4.08891e+67   9.38497e+66   2.72522e+67   -3.7546e+65
   4.11715e+49  -1.03367e+62   3.22272e+61   2.43342e+68  7.54625e+135  3.96486e+202   2.27308e+68   1.18632e+67   2.75768e+67   2.03902e+68   9.39365e+66    2.7094e+67  -6.76099e+65
  -1.36282e+60  -1.02789e+62   3.21856e+61   2.43699e+68  7.59783e+135  4.11927e+202   2.27577e+68   1.19456e+67   2.76796e+67   2.04073e+68  -9.45284e+66   2.69823e+67  -1.37244e+66
    -3.828e+59  -1.02047e+62   8.92214e+60  -4.20311e+65 -2.14697e+135  2.04639e+202   4.63373e+67  -1.25388e+67  -2.86555e+67    4.0774e+67  -9.46152e+66   2.71462e+67  -4.25059e+65
   5.06742e+49  -8.07594e+61   7.88066e+60   1.05237e+66  -2.0817e+135  1.89673e+202   4.56377e+67  -1.21163e+67  -2.80197e+67   4.11884e+67   9.17697e+66   -2.6148e+67  -3.44395e+65
   3.16362e+49  -8.14943e+61   2.83858e+61   2.48142e+68   8.4754e+135  5.72535e+202   2.30432e+68   1.41315e+67   2.90009e+67   2.05009e+68   9.19043e+66  -2.63062e+67  -7.13316e+65
   -1.3458e+60  -8.09207e+61   2.83413e+61   2.48533e+68  8.51744e+135  5.65971e+202   2.30762e+68   1.42218e+67   2.91235e+67   2.05188e+68  -9.27474e+66  -2.65082e+67  -1.39998e+66
  -3.85612e+59  -8.01868e+61   7.85917e+60   9.18357e+65 -2.09027e+135  1.86808e+202   4.57287e+67  -1.21472e+67  -2.80184e+67    4.1084e+67   -9.2882e+66  -2.63444e+67  -3.93305e+65
   5.96897e+59  -1.02149e+62  -1.43367e+61  -1.37584e+68  3.38214e+135 -1.46371e+202   1.24688e+68  -1.19465e+67  -2.78003e+67  -9.78371e+67   9.42239e+66   2.73813e+67   4.04542e+65
    -3.828e+59  -1.02047e+62   8.92214e+60   1.05447e+68  2.12424e+135  6.67295e+201   9.48414e+67   1.19843e+67   2.82839e+67   6.51791e+67   9.41867e+66   2.73717e+67  -1.19987e+66
  -7.62768e+59  -1.00308e+62    8.8513e+60   1.04858e+68  2.10853e+135  7.66464e+201   9.42691e+67   1.18483e+67    2.8139e+67   6.48706e+67  -9.60664e+66   2.69252e+67  -1.27346e+66
   1.20625e+60   -1.0041e+62  -1.43492e+61   -1.3949e+68  3.54823e+135 -1.69145e+202   1.26131e+68  -1.23863e+67  -2.82489e+67  -9.88545e+67  -9.60292e+66   2.69379e+67   8.71956e+65
   5.73977e+59  -8.02899e+61  -1.26186e+61  -1.40028e+68  3.70573e+135 -1.98963e+202   1.26104e+68  -1.32896e+67  -2.83454e+67  -9.83932e+67   9.24238e+66  -2.61101e+67   6.38695e+65
  -3.85612e+59  -8.01868e+61   7.85917e+60   1.05915e+68  2.23056e+135  9.25648e+201   9.48022e+67   1.22149e+67   2.84107e+67   6.52895e+67   9.24128e+66  -2.61196e+67  -1.12698e+66
  -7.67105e+59  -7.84585e+61   7.79181e+60   1.05354e+68  2.15519e+135  7.00348e+201   9.45738e+67   1.20853e+67   2.82785e+67   6.49898e+67  -9.51097e+66  -2.67939e+67  -1.19954e+66
    1.1676e+60  -7.85616e+61  -1.26162e+61  -1.41888e+68  3.80965e+135 -1.98152e+202   1.27759e+68  -1.37187e+67  -2.87772e+67  -9.93918e+67  -9.50987e+66  -2.67813e+67   1.09962e+66
    -3.828e+59  -1.02047e+62   8.92214e+60  -2.04879e+65 -2.16233e+135  1.96228e+202   4.65013e+67   -1.2397e+67  -2.86058e+67   4.07979e+67   9.41252e+66   2.74608e+67  -1.19987e+66
  -1.36282e+60  -1.02789e+62   3.21856e+61   2.42844e+68  7.42756e+135  3.62264e+202   2.27037e+68    1.1533e+67   2.74825e+67   2.03829e+68   9.43165e+66    2.7297e+67  -2.79387e+66
  -2.73225e+60  -1.01049e+62   3.20567e+61   2.43703e+68  7.56001e+135  4.06031e+202   2.27665e+68   1.17312e+67   2.77259e+67   2.04246e+68   -9.5966e+66   2.68426e+67  -3.40519e+66
  -7.62768e+59  -1.00308e+62    8.8513e+60  -6.18552e+65 -2.13394e+135  2.05904e+202   4.61987e+67  -1.24924e+67   -2.8656e+67   4.05299e+67  -9.61573e+66   2.70202e+67  -1.27346e+66
  -3.85612e+59  -8.01868e+61   7.85917e+60   1.26815e+66 -2.07124e+135  1.88792e+202   4.55286e+67  -1.19344e+67  -2.79376e+67   4.11402e+67   9.22975e+66  -2.60357e+67  -1.12698e+66
   -1.3458e+60  -8.09207e+61   2.83413e+61   2.47213e+68  8.29093e+135   5.4329e+202   2.29833e+68   1.35599e+67   2.88188e+67   2.04834e+68   9.26043e+66  -2.61993e+67  -2.87665e+66
  -2.70274e+60  -7.91906e+61   2.82049e+61   2.48154e+68   8.3797e+135  5.17244e+202   2.30652e+68   1.37771e+67   2.91095e+67   2.05267e+68  -9.49806e+66  -2.68744e+67  -3.47948e+66
  -7.67105e+59  -7.84585e+61   7.79181e+60   9.54479e+65 -2.10313e+135  1.79924e+202   4.58699e+67  -1.20068e+67  -2.79364e+67   4.08977e+67  -9.52875e+66  -2.66972e+67  -1.19954e+66
   1.20625e+60   -1.0041e+62  -1.43492e+61  -1.38038e+68  3.36812e+135 -1.30726e+202   1.25246e+68  -1.16791e+67   -2.7914e+67  -9.84454e+67   9.55122e+66   2.75764e+67   1.99082e+66
  -7.62768e+59  -1.00308e+62    8.8513e+60   1.05109e+68   2.0946e+135  5.74562e+201   9.46219e+67    1.2039e+67    2.8197e+67    6.4873e+67   9.53569e+66   2.75633e+67  -2.10433e+66
  -1.13865e+60   -9.7391e+61    8.7292e+60   1.04573e+68  2.19047e+135  9.04397e+201   9.35147e+67   1.19152e+67   2.80364e+67   6.46211e+67  -9.63102e+66   2.50535e+67  -2.20984e+66
   1.82703e+60  -9.74925e+61  -1.42931e+61  -1.38508e+68  3.53594e+135  -1.7054e+202   1.25094e+68  -1.17873e+67   -2.8059e+67  -9.86613e+67  -9.61549e+66    2.5069e+67   2.27749e+66
    1.1676e+60  -7.85616e+61  -1.26162e+61    -1.395e+68  3.59789e+135 -1.83658e+202   1.25946e+68  -1.24942e+67  -2.82262e+67  -9.87797e+67   9.44515e+66  -2.61494e+67   2.02768e+66
  -7.67105e+59  -7.84585e+61   7.79181e+60   1.05774e+68  2.22289e+135  9.46364e+201   9.46846e+67   1.23682e+67   2.83754e+67     6.503e+67   9.43165e+66  -2.61624e+67  -2.04798e+66
   -1.1428e+60  -7.55482e+61   7.67133e+60   1.05257e+68  2.04569e+135  4.98592e+201   9.50444e+67   1.22491e+67   2.82239e+67   6.47844e+67  -9.61281e+66  -2.87229e+67  -2.15203e+66
   1.78222e+60  -7.56505e+61  -1.25566e+61   -1.3995e+68  3.49037e+135 -1.44415e+202   1.26869e+68   -1.2598e+67  -2.83625e+67  -9.89897e+67  -9.59931e+66  -2.87075e+67   2.31037e+66
  -7.62768e+59  -1.00308e+62    8.8513e+60  -3.67592e+65 -2.16613e+135  1.90093e+202   4.65431e+67  -1.23018e+67  -2.85981e+67   4.05323e+67    9.5266e+66   2.76583e+67  -2.10433e+66
  -2.73225e+60  -1.01049e+62   3.20567e+61   2.42774e+68  7.36439e+135  3.24711e+202     2.271e+68   1.14159e+67   2.75114e+67   2.03846e+68   9.55874e+66   2.74811e+67  -6.18708e+66
  -4.10478e+60  -9.81303e+61   3.17566e+61   2.42496e+68  7.46836e+135  3.97299e+202   2.26574e+68   1.13518e+67   2.75233e+67   2.03621e+68  -9.60732e+66   2.49575e+67  -6.68453e+66
  -1.13865e+60   -9.7391e+61    8.7292e+60  -5.37281e+65 -2.02901e+135  1.94956e+202   4.50477e+67  -1.23409e+67  -2.85613e+67   4.03649e+67  -9.63946e+66   2.51528e+67  -2.20984e+66
  -7.67105e+59  -7.84585e+61   7.79181e+60   1.37438e+66 -2.06549e+135   1.8821e+202   4.54685e+67  -1.17239e+67  -2.78395e+67   4.09378e+67   9.41387e+66  -2.60658e+67  -2.04798e+66
  -2.70274e+60  -7.91906e+61   2.82049e+61   2.46641e+68  8.14075e+135  5.19464e+202   2.29546e+68   1.31376e+67   2.87606e+67   2.04743e+68   9.46109e+66  -2.62425e+67    -6.106e+66
  -4.06872e+60  -7.62773e+61   2.79048e+61   2.46492e+68  7.99183e+135  4.27387e+202    2.2971e+68   1.31031e+67   2.88393e+67    2.0455e+68  -9.58296e+66  -2.88101e+67  -6.59654e+66
   -1.1428e+60  -7.55482e+61   7.67133e+60   1.33156e+66 -2.20121e+135  1.80455e+202   4.69359e+67  -1.17338e+67  -2.77362e+67   4.08015e+67  -9.63018e+66  -2.86155e+67  -2.15203e+66
   1.02885e+50  -1.27388e+62  -1.60777e+61   -1.3969e+68  3.49015e+135 -1.56563e+202   1.26583e+68  -1.20399e+67  -2.82821e+67   -9.9368e+67   9.53029e+66    2.7681e+67  -1.35053e+65
   7.75849e+49  -1.27285e+62   1.00227e+61   1.06723e+68  2.17381e+135  7.33577e+201       9.6e+67   1.20709e+67   2.85824e+67   6.60697e+67   9.52811e+66   2.76806e+67  -3.93946e+65
   -3.8092e+59  -1.26707e+62   9.99882e+60   1.06565e+68  2.17013e+135  7.71493e+201    9.5843e+67   1.20343e+67   2.85408e+67   6.59895e+67  -9.57952e+66   2.75479e+67  -4.62435e+65
   6.12677e+59   -1.2681e+62  -1.60859e+61  -1.40183e+68  3.53485e+135 -1.62021e+202   1.26951e+68  -1.21538e+67  -2.84011e+67  -9.96286e+67  -9.57734e+66   2.75484e+67   3.36708e+65
   8.53513e+49  -1.02727e+62  -1.43322e+61  -1.42279e+68  3.82189e+135  -2.0429e+202   1.28146e+68  -1.34347e+67  -2.88788e+67  -9.99655e+67    9.3872e+66  -2.66056e+67  -7.30547e+64
   6.34421e+49  -1.02624e+62   8.94524e+60   1.07102e+68  2.26458e+135  8.94871e+201   9.59489e+67    1.2274e+67   2.86706e+67   6.61571e+67   9.38512e+66   -2.6606e+67   -3.7549e+65
    -3.828e+59  -1.02047e+62   8.92214e+60   1.06946e+68  2.24316e+135  8.22643e+201   9.58866e+67    1.2238e+67   2.86297e+67    6.6078e+67  -9.45521e+66  -2.67969e+67  -4.43015e+65
   5.96897e+59  -1.02149e+62  -1.43367e+61  -1.42765e+68  3.84898e+135 -2.04814e+202    1.2858e+68  -1.35469e+67  -2.89959e+67  -1.00222e+68  -9.45313e+66  -2.67964e+67   3.92061e+65
   7.75849e+49  -1.27285e+62   1.00227e+61  -1.63131e+65 -2.21832e+135  2.08596e+202   4.70993e+67  -1.25952e+67  -2.89717e+67   4.14037e+67   9.52811e+66   2.77716e+67  -3.93946e+65
   5.18441e+49  -1.28038e+62   3.61278e+61   2.46256e+68  7.61936e+135  3.84951e+202   2.30267e+68   1.15109e+67   2.78944e+67   2.06851e+68   9.53418e+66   2.75941e+67   -6.5203e+65
   -1.3747e+60  -1.27459e+62   3.60883e+61   2.46487e+68  7.65639e+135  3.98374e+202   2.30433e+68   1.15642e+67   2.79618e+67   2.06961e+68  -9.57707e+66   2.74592e+67  -1.25828e+66
   -3.8092e+59  -1.26707e+62   9.99882e+60  -2.59132e+65 -2.20989e+135  2.12089e+202   4.70102e+67  -1.26173e+67  -2.89797e+67   4.13379e+67  -9.58314e+66   2.76398e+67  -4.62435e+65
   6.34421e+49  -1.02624e+62   8.94524e+60   1.36688e+66  -2.1353e+135  1.93524e+202   4.62296e+67  -1.21263e+67  -2.82636e+67   4.17568e+67   9.38512e+66  -2.65191e+67   -3.7549e+65
   4.11715e+49  -1.03367e+62   3.22272e+61    2.5074e+68  8.50482e+135  5.49222e+202   2.33165e+68   1.35703e+67   2.92841e+67   2.07886e+68   9.39379e+66  -2.66966e+67  -6.76069e+65
  -1.36282e+60  -1.02789e+62   3.21856e+61   2.50989e+68  8.52804e+135  5.40955e+202   2.33383e+68   1.36278e+67   2.93621e+67   2.07999e+68  -9.45269e+66  -2.68884e+67  -1.27378e+66
    -3.828e+59  -1.02047e+62   8.92214e+60   1.29358e+66 -2.14454e+135  1.90199e+202   4.63272e+67  -1.21432e+67    -2.826e+67   4.16968e+67  -9.46136e+66  -2.67079e+67  -4.43015e+65
   6.12677e+59   -1.2681e+62  -1.60859e+61  -1.39365e+68   3.4323e+135 -1.46182e+202   1.26453e+68  -1.17064e+67  -2.82123e+67  -9.94468e+67   9.54717e+66   2.78671e+67   1.30726e+65
   -3.8092e+59  -1.26707e+62   9.99882e+60   1.06691e+68  2.16311e+135  6.72293e+201   9.60199e+67   1.21289e+67   2.85699e+67    6.5992e+67   9.54312e+66   2.78666e+67  -1.26099e+66
  -7.59855e+59  -1.24969e+62   9.92643e+60   1.06338e+68  2.16734e+135  8.07286e+201   9.56051e+67   1.20474e+67   2.84789e+67   6.58112e+67  -9.67702e+66   2.73385e+67  -1.34524e+66
   1.23319e+60  -1.25071e+62  -1.61067e+61  -1.40486e+68  3.54566e+135 -1.60522e+202   1.27242e+68  -1.19649e+67  -2.84803e+67  -1.00041e+68  -9.67297e+66   2.73394e+67   5.15867e+65
   5.96897e+59  -1.02149e+62  -1.43367e+61  -1.41463e+68  3.72893e+135 -1.90747e+202   1.27604e+68  -1.28413e+67  -2.86954e+67   -9.9926e+67    9.4228e+66  -2.64818e+67   2.66993e+65
    -3.828e+59  -1.02047e+62   8.92214e+60   1.07161e+68  2.27762e+135  9.48755e+201   9.59472e+67   1.23798e+67   2.86793e+67   6.61019e+67   9.41908e+66  -2.64823e+67  -1.21787e+66
  -7.62768e+59  -1.00308e+62    8.8513e+60   1.06814e+68  2.21626e+135  7.30637e+201   9.58804e+67   1.22998e+67   2.85905e+67    6.5924e+67  -9.60624e+66  -2.71492e+67  -1.30092e+66
   1.20625e+60   -1.0041e+62  -1.43492e+61  -1.42566e+68  3.77654e+135 -1.88485e+202   1.28641e+68  -1.30959e+67  -2.89588e+67  -1.00511e+68  -9.60251e+66  -2.71483e+67    6.4671e+65
   -3.8092e+59  -1.26707e+62   9.99882e+60  -1.32871e+65 -2.22625e+135  2.03875e+202   4.71833e+67  -1.25227e+67  -2.89505e+67   4.13404e+67    9.5395e+66   2.79585e+67  -1.26099e+66
   -1.3747e+60  -1.27459e+62   3.60883e+61   2.45931e+68   7.5394e+135  3.59013e+202   2.30092e+68   1.13108e+67   2.78333e+67   2.06786e+68   9.55273e+66    2.7778e+67  -2.64833e+66
  -2.75319e+60   -1.2572e+62   3.59645e+61   2.46451e+68  7.63417e+135  3.97846e+202   2.30443e+68   1.14308e+67   2.79842e+67   2.07036e+68  -9.66945e+66   2.72451e+67  -3.20109e+66
  -7.59855e+59  -1.24969e+62   9.92643e+60  -3.55254e+65 -2.19506e+135  2.13725e+202   4.68528e+67   -1.2574e+67   -2.8971e+67   4.11898e+67  -9.68268e+66   2.74325e+67  -1.34524e+66
    -3.828e+59  -1.02047e+62   8.92214e+60    1.5089e+66 -2.12579e+135  1.94358e+202   4.61309e+67  -1.20014e+67  -2.82103e+67   4.17206e+67   9.41292e+66  -2.63933e+67  -1.21787e+66
  -1.36282e+60  -1.02789e+62   3.21856e+61   2.50135e+68  8.38779e+135  5.33989e+202   2.32766e+68   1.32154e+67   2.91651e+67   2.07755e+68   9.43204e+66  -2.65737e+67  -2.69516e+66
  -2.73225e+60  -1.01049e+62   3.20567e+61   2.50697e+68  8.42577e+135  5.03835e+202   2.33287e+68   1.33449e+67   2.93398e+67   2.08012e+68  -9.59621e+66  -2.72414e+67  -3.24014e+66
  -7.62768e+59  -1.00308e+62    8.8513e+60   1.33781e+66    -2.16e+135  1.84615e+202   4.64951e+67  -1.20409e+67  -2.82045e+67   4.15833e+67  -9.61532e+66  -2.70542e+67  -1.30092e+66
   1.23319e+60  -1.25071e+62  -1.61067e+61  -1.39631e+68  3.42639e+135 -1.33271e+202   1.26769e+68  -1.15883e+67   -2.8283e+67  -9.97596e+67    9.6289e+66   2.79828e+67   1.77549e+66
  -7.59855e+59  -1.24969e+62   9.92643e+60   1.06487e+68  2.14469e+135  5.93381e+201   9.58893e+67   1.21826e+67   2.85134e+67   6.57908e+67   9.61495e+66   2.79815e+67  -2.16562e+66
  -1.13574e+60   -1.2206e+62   9.80418e+60   1.06143e+68  2.26885e+135  9.71838e+201   9.48552e+67   1.21033e+67   2.84015e+67   6.56383e+67   -9.6508e+66   2.52048e+67  -2.26877e+66
   1.85913e+60  -1.22162e+62  -1.60513e+61   -1.3972e+68  3.58215e+135  -1.7056e+202   1.26252e+68  -1.16089e+67  -2.83361e+67   -9.9775e+67  -9.63685e+66   2.52042e+67    2.0466e+66
   1.20625e+60   -1.0041e+62  -1.43492e+61  -1.41116e+68  3.66302e+135 -1.84643e+202   1.27478e+68  -1.23891e+67  -2.86241e+67  -1.00102e+68   9.55176e+66  -2.65098e+67   1.76569e+66
  -7.62768e+59  -1.00308e+62    8.8513e+60   1.07065e+68  2.27164e+135  9.76407e+201   9.58713e+67   1.24904e+67   2.86484e+67   6.59264e+67   9.53621e+66  -2.65111e+67  -2.13177e+66
  -1.13865e+60   -9.7391e+61    8.7292e+60   1.06711e+68  2.09004e+135  5.12396e+201   9.64219e+67   1.24087e+67   2.85299e+67   6.57724e+67   -9.6305e+66  -2.93065e+67  -2.23347e+66
   1.82703e+60  -9.74925e+61  -1.42931e+61  -1.41219e+68  3.51531e+135 -1.44674e+202   1.28169e+68  -1.24129e+67  -2.86846e+67  -1.00121e+68  -9.61495e+66  -2.93071e+67   2.03298e+66
  -7.59855e+59  -1.24969e+62   9.92643e+60  -2.05946e+65 -2.22873e+135  1.97888e+202   4.72099e+67  -1.24388e+67  -2.89366e+67   4.11694e+67   9.60929e+66   2.80756e+67  -2.16562e+66
  -2.75319e+60   -1.2572e+62   3.59645e+61   2.45905e+68  7.50877e+135  3.29316e+202   2.30132e+68   1.13304e+67   2.78583e+67   2.06716e+68    9.6346e+66   2.78886e+67  -6.10233e+66
   -4.1309e+60   -1.2281e+62   3.56646e+61   2.45584e+68  7.62048e+135  4.04424e+202   2.29545e+68   1.12562e+67   2.78431e+67   2.06484e+68  -9.63123e+66   2.51049e+67  -6.58047e+66
  -1.13574e+60   -1.2206e+62   9.80418e+60  -2.52141e+65 -2.07722e+135   2.0171e+202   4.55773e+67  -1.24495e+67  -2.88882e+67   4.10855e+67  -9.65654e+66      2.53e+67  -2.26877e+66
  -7.62768e+59  -1.00308e+62    8.8513e+60   1.58861e+66 -2.12287e+135  1.95664e+202    4.6102e+67  -1.18503e+67  -2.81467e+67   4.15856e+67   9.52712e+66  -2.64161e+67  -2.13177e+66
  -2.73225e+60  -1.01049e+62   3.20567e+61   2.49767e+68  8.29606e+135  5.26022e+202   2.32568e+68   1.30298e+67   2.91253e+67   2.07612e+68   9.55924e+66  -2.66029e+67  -6.02211e+66
  -4.10478e+60  -9.81303e+61   3.17566e+61   2.49508e+68  8.11281e+135  4.31386e+202   2.32683e+68     1.297e+67   2.91415e+67   2.07397e+68  -9.60681e+66  -2.94019e+67  -6.49352e+66
  -1.13865e+60   -9.7391e+61    8.7292e+60    1.6009e+66 -2.27555e+135  1.89374e+202   4.77296e+67  -1.18475e+67  -2.80679e+67   4.15163e+67  -9.63893e+66  -2.92071e+67  -2.23347e+66
   1.21975e+50  -1.54892e+62  -1.78543e+61  -1.41397e+68  3.53398e+135 -1.54585e+202   1.28293e+68  -1.17727e+67  -2.86633e+67  -1.00961e+68   9.63146e+66   2.81626e+67  -1.72426e+65
   9.29439e+49  -1.54789e+62   1.11145e+61    1.0808e+68  2.22153e+135  7.53874e+201   9.72615e+67   1.22389e+67   2.89084e+67    6.6933e+67   9.62954e+66    2.8169e+67  -4.05162e+65
  -3.79821e+59  -1.54213e+62   1.10903e+61   1.07981e+68  2.22272e+135  8.01264e+201   9.71451e+67    1.2216e+67   2.88811e+67   6.68839e+67  -9.66863e+66   2.80196e+67  -4.89898e+65
   6.23683e+59  -1.54316e+62  -1.78646e+61  -1.41694e+68  3.56514e+135 -1.57806e+202     1.285e+68  -1.18413e+67  -2.87363e+67  -1.01117e+68  -9.66671e+66    2.8013e+67   2.13047e+65
   1.02885e+50  -1.27388e+62  -1.60777e+61  -1.43586e+68  3.83155e+135 -1.95929e+202   1.29559e+68  -1.29387e+67  -2.91812e+67  -1.01466e+68   9.53039e+66  -2.69986e+67  -1.35111e+65
   7.75849e+49  -1.27285e+62   1.00227e+61   1.08511e+68  2.32285e+135  9.28032e+201   9.72202e+67   1.24835e+67    2.8995e+67   6.70324e+67   9.52821e+66  -2.69922e+67  -3.93963e+65
   -3.8092e+59  -1.26707e+62   9.99882e+60   1.08411e+68  2.30526e+135  8.57141e+201   9.71988e+67   1.24604e+67   2.89668e+67   6.69835e+67  -9.57942e+66  -2.71776e+67  -4.77488e+65
   6.12677e+59   -1.2681e+62  -1.60859e+61  -1.43882e+68  3.84435e+135 -1.96054e+202   1.29837e+68  -1.30069e+67  -2.92545e+67   -1.0162e+68  -9.57724e+66  -2.71842e+67   2.44854e+65
   9.29439e+49  -1.54789e+62   1.11145e+61  -8.83376e+64 -2.28369e+135  2.17209e+202   4.77881e+67  -1.27231e+67  -2.93362e+67    4.1971e+67   9.62954e+66   2.82626e+67  -4.05162e+65
   6.36601e+49  -1.55551e+62   4.00881e+61   2.49391e+68  7.73156e+135  3.81414e+202   2.33376e+68   1.12844e+67    2.8236e+67   2.09871e+68   9.63428e+66   2.80717e+67  -6.37659e+65
  -1.38347e+60  -1.54975e+62     4.005e+61   2.49536e+68   7.7587e+135  3.93567e+202   2.33472e+68   1.13177e+67   2.82802e+67   2.09938e+68  -9.66658e+66   2.79211e+67  -1.19171e+66
  -3.79821e+59  -1.54213e+62   1.10903e+61   -1.3784e+65 -2.27475e+135  2.20821e+202   4.76945e+67  -1.27345e+67  -2.93368e+67   4.19334e+67  -9.67132e+66   2.81136e+67  -4.89898e+65
   7.75849e+49  -1.27285e+62   1.00227e+61   1.62475e+66 -2.19277e+135  1.99164e+202   4.68552e+67  -1.21825e+67  -2.85591e+67   4.23663e+67   9.52821e+66  -2.69012e+67  -3.93963e+65
   5.18441e+49  -1.28038e+62   3.61278e+61   2.53719e+68  8.60226e+135  5.40856e+202   2.36159e+68   1.32329e+67   2.96166e+67    2.1087e+68   9.53427e+66  -2.70922e+67  -6.52007e+65
   -1.3747e+60  -1.27459e+62   3.60883e+61   2.53872e+68  8.61285e+135  5.31405e+202   2.36301e+68   1.32683e+67   2.96661e+67   2.10938e+68  -9.57698e+66  -2.72781e+67  -1.19814e+66
   -3.8092e+59  -1.26707e+62   9.99882e+60     1.587e+66  -2.2024e+135  1.95509e+202   4.69565e+67  -1.21912e+67  -2.85536e+67   4.23319e+67  -9.58304e+66  -2.70857e+67  -4.77488e+65
   6.23683e+59  -1.54316e+62  -1.78646e+61  -1.41182e+68  3.49296e+135 -1.47686e+202   1.28216e+68  -1.15569e+67   -2.8618e+67  -1.01007e+68   9.63648e+66   2.83347e+67  -3.69223e+64
  -3.79821e+59  -1.54213e+62   1.10903e+61   1.08056e+68  2.21121e+135  6.90493e+201   9.72872e+67   1.22833e+67   2.88983e+67    6.6874e+67    9.6332e+66   2.83413e+67  -1.30355e+66
  -7.58147e+59  -1.52483e+62   1.10174e+61   1.07833e+68  2.22781e+135  8.50477e+201   9.69541e+67   1.22319e+67   2.88393e+67   6.67616e+67  -9.73158e+66   2.77538e+67  -1.39726e+66
   1.25233e+60  -1.52586e+62  -1.78899e+61  -1.41816e+68  3.57396e+135 -1.56802e+202     1.286e+68  -1.17033e+67   -2.8772e+67  -1.01341e+68   -9.7283e+66   2.77462e+67   2.94641e+65
   6.12677e+59   -1.2681e+62  -1.60859e+61  -1.43064e+68  3.77457e+135 -1.87392e+202     1.292e+68  -1.25597e+67  -2.90658e+67  -1.01438e+68   9.54744e+66  -2.68655e+67    3.8784e+64
   -3.8092e+59  -1.26707e+62   9.99882e+60   1.08537e+68  2.33327e+135  9.83479e+201   9.71956e+67    1.2555e+67   2.89959e+67    6.6986e+67   9.54339e+66  -2.68589e+67  -1.27607e+66
  -7.59855e+59  -1.24969e+62   9.92643e+60   1.08311e+68  2.27952e+135  7.67263e+201   9.72198e+67   1.25028e+67   2.89343e+67   6.68736e+67  -9.67676e+66  -2.75277e+67  -1.36844e+66
   1.23319e+60  -1.25071e+62  -1.61067e+61  -1.43696e+68  3.78623e+135 -1.84304e+202   1.29855e+68  -1.27055e+67  -2.92211e+67  -1.01769e+68   -9.6727e+66  -2.75352e+67    3.6561e+65
  -3.79821e+59  -1.54213e+62   1.10903e+61  -6.32991e+64 -2.29185e+135  2.12602e+202   4.78733e+67  -1.26672e+67  -2.93196e+67   4.19235e+67   9.63051e+66   2.84352e+67  -1.30355e+66
  -1.38347e+60  -1.54975e+62     4.005e+61   2.49175e+68  7.67712e+135  3.60813e+202   2.33262e+68   1.11693e+67   2.81969e+67   2.09809e+68   9.64102e+66   2.82429e+67  -2.56901e+66
  -2.76887e+60  -1.53245e+62   3.99295e+61   2.49455e+68  7.74552e+135  3.96514e+202   2.33414e+68   1.12339e+67   2.82857e+67   2.09935e+68  -9.72595e+66   2.76525e+67  -3.08818e+66
  -7.58147e+59  -1.52483e+62   1.10174e+61  -1.83074e+65 -2.25783e+135  2.22673e+202   4.75169e+67  -1.26949e+67   -2.9323e+67   4.18349e+67  -9.73646e+66    2.7848e+67  -1.39726e+66
   -3.8092e+59  -1.26707e+62   9.99882e+60   1.71317e+66 -2.18373e+135  2.01198e+202   4.67617e+67  -1.20966e+67  -2.85245e+67   4.23343e+67   9.53977e+66   -2.6767e+67  -1.27607e+66
   -1.3747e+60  -1.27459e+62   3.60883e+61   2.53316e+68  8.52822e+135  5.34661e+202   2.35883e+68    1.3015e+67   2.95377e+67   2.10763e+68   9.55299e+66  -2.69593e+67  -2.58815e+66
  -2.75319e+60   -1.2572e+62   3.59645e+61   2.53615e+68  8.53096e+135   5.0133e+202   2.36198e+68   1.30839e+67   2.96374e+67   2.10893e+68   -9.6692e+66  -2.76291e+67   -3.0999e+66
  -7.59855e+59  -1.24969e+62   9.92643e+60   1.61792e+66 -2.21954e+135  1.90869e+202   4.71398e+67  -1.21186e+67  -2.85157e+67   4.22522e+67  -9.68242e+66  -2.74336e+67  -1.36844e+66
   1.25233e+60  -1.52586e+62  -1.78899e+61   -1.4133e+68  3.49271e+135 -1.36461e+202   1.28381e+68  -1.15327e+67  -2.86599e+67  -1.01138e+68   9.68848e+66   2.83935e+67   1.65875e+66
  -7.58147e+59  -1.52483e+62   1.10174e+61   1.07928e+68  2.20013e+135  6.20136e+201    9.7203e+67    1.2338e+67   2.88614e+67    6.6729e+67   9.67727e+66   2.84008e+67  -2.21517e+66
  -1.13396e+60  -1.49592e+62   1.08954e+61   1.07667e+68   2.3419e+135  1.03426e+202   9.61785e+67   1.22777e+67   2.87753e+67   6.66141e+67  -9.67273e+66   2.54394e+67  -2.31861e+66
   1.88271e+60  -1.49695e+62  -1.78338e+61  -1.41217e+68  3.64495e+135 -1.72886e+202   1.27661e+68  -1.15066e+67  -2.86596e+67  -1.01051e+68  -9.66152e+66   2.54289e+67   1.91998e+66
   1.23319e+60  -1.25071e+62  -1.61067e+61  -1.42841e+68  3.73617e+135 -1.87555e+202   1.29103e+68  -1.23292e+67  -2.90239e+67  -1.01488e+68   9.62924e+66  -2.68918e+67   1.62532e+66
  -7.59855e+59  -1.24969e+62   9.92643e+60    1.0846e+68  2.32762e+135  1.01528e+202   9.71387e+67   1.26379e+67   2.89687e+67   6.68532e+67   9.61529e+66  -2.68846e+67  -2.18881e+66
  -1.13574e+60   -1.2206e+62   9.80418e+60   1.08179e+68  2.13971e+135  5.33987e+201   9.77907e+67   1.25731e+67   2.88714e+67   6.67346e+67  -9.65046e+66  -2.98446e+67  -2.29076e+66
   1.85913e+60  -1.22162e+62  -1.60513e+61  -1.42753e+68  3.56239e+135 -1.46689e+202   1.29677e+68  -1.23088e+67  -2.90361e+67  -1.01408e+68  -9.63651e+66   -2.9855e+67   1.88283e+66
  -7.58147e+59  -1.52483e+62   1.10174e+61  -8.74528e+64 -2.29265e+135  2.06529e+202   4.78817e+67  -1.25888e+67   -2.9301e+67   4.18023e+67   9.67239e+66    2.8495e+67  -2.21517e+66
  -2.76887e+60  -1.53245e+62   3.99295e+61   2.49167e+68  7.66792e+135  3.36071e+202   2.33273e+68   1.12791e+67   2.82193e+67   2.09669e+68   9.69512e+66   2.82999e+67  -6.08856e+66
  -4.15094e+60  -1.50352e+62   3.96295e+61   2.48776e+68  7.78155e+135  4.13199e+202   2.32611e+68   1.11889e+67   2.81813e+67   2.09406e+68  -9.65586e+66   2.53353e+67  -6.55757e+66
  -1.13396e+60  -1.49592e+62   1.08954e+61  -9.51728e+64 -2.12942e+135  2.09753e+202   4.61457e+67  -1.25906e+67  -2.92505e+67   4.17459e+67  -9.67858e+66   2.55334e+67  -2.31861e+66
  -7.59855e+59  -1.24969e+62   9.92643e+60   1.76711e+66 -2.18246e+135  2.03784e+202   4.67503e+67  -1.19835e+67  -2.84812e+67   4.22318e+67   9.60963e+66  -2.67905e+67  -2.18881e+66
  -2.75319e+60   -1.2572e+62   3.59645e+61   2.53069e+68  8.47451e+135  5.37404e+202   2.35732e+68   1.29837e+67   2.95116e+67   2.10574e+68   9.63493e+66  -2.69856e+67  -6.00119e+66
   -4.1309e+60   -1.2281e+62   3.56646e+61   2.52708e+68  8.26401e+135  4.39671e+202   2.35791e+68   1.29004e+67   2.94873e+67   2.10321e+68   -9.6309e+66  -2.99474e+67   -6.4635e+66
  -1.13574e+60   -1.2206e+62   9.80418e+60    1.7839e+66 -2.34714e+135  1.98626e+202   4.84801e+67  -1.19796e+67  -2.84184e+67   4.21819e+67   -9.6562e+66  -2.97494e+67  -2.29076e+66
   1.42549e+50  -1.85286e+62  -1.96608e+61  -1.43189e+68  3.59229e+135 -1.55139e+202   1.30041e+68  -1.16102e+67  -2.90535e+67  -1.02525e+68   9.70587e+66   2.86327e+67  -1.94785e+65
   1.09676e+50  -1.85182e+62   1.22216e+61   1.09532e+68  2.27617e+135  7.83496e+201   9.85961e+67   1.24064e+67   2.92668e+67   6.78592e+67   9.70434e+66   2.86444e+67  -4.12753e+65
  -3.79257e+59   -1.8461e+62   1.21973e+61   1.09465e+68  2.28023e+135  8.37392e+201      9.85e+67   1.23907e+67   2.92477e+67   6.78261e+67  -9.73545e+66   2.84833e+67  -5.09156e+65
   6.31612e+59  -1.84714e+62  -1.96723e+61  -1.43367e+68  3.61526e+135 -1.56979e+202   1.30149e+68  -1.16513e+67  -2.90981e+67  -1.02618e+68  -9.73391e+66   2.84712e+67   1.36289e+65
   1.21975e+50  -1.54892e+62  -1.78543e+61  -1.45136e+68   3.8711e+135 -1.92868e+202   1.31123e+68  -1.26353e+67  -2.95261e+67  -1.02974e+68   9.63152e+66  -2.73993e+67  -1.72462e+65
   9.29439e+49  -1.54789e+62   1.11145e+61   1.10002e+68  2.38622e+135  9.69431e+201   9.85603e+67   1.26823e+67   2.93518e+67   6.79675e+67   9.62961e+66  -2.73877e+67  -4.05171e+65
  -3.79821e+59  -1.54213e+62   1.10903e+61   1.09931e+68   2.3707e+135  8.98584e+201   9.85608e+67   1.26661e+67   2.93312e+67   6.79341e+67  -9.66856e+66  -2.75706e+67  -5.00176e+65
   6.23683e+59  -1.54316e+62  -1.78646e+61  -1.45315e+68  3.87498e+135 -1.92783e+202   1.31306e+68  -1.26766e+67  -2.95718e+67  -1.03066e+68  -9.66665e+66  -2.75827e+67   1.53813e+65
   1.09676e+50  -1.85182e+62   1.22216e+61  -1.94425e+64 -2.35139e+135  2.26932e+202   4.84912e+67  -1.28748e+67  -2.97227e+67    4.2578e+67   9.70434e+66   2.87403e+67  -4.12753e+65
   7.64735e+49  -1.85955e+62   4.41091e+61   2.52702e+68  7.87164e+135  3.83257e+202   2.36615e+68   1.11374e+67   2.85977e+67   2.12967e+68   9.70847e+66   2.85391e+67   -6.3075e+65
  -1.39026e+60  -1.85383e+62   4.40719e+61   2.52784e+68  7.89171e+135  3.94586e+202    2.3666e+68   1.11563e+67    2.8626e+67   2.13002e+68  -9.73386e+66   2.83774e+67  -1.15453e+66
  -3.79257e+59   -1.8461e+62   1.21973e+61  -4.56754e+64 -2.34188e+135  2.30668e+202    4.8393e+67  -1.28809e+67  -2.97194e+67   4.25545e+67    -9.738e+66   2.85792e+67  -5.09156e+65
   9.29439e+49  -1.54789e+62   1.11145e+61   1.83302e+66 -2.25371e+135  2.06359e+202   4.75086e+67  -1.22796e+67  -2.88928e+67   4.30055e+67   9.62961e+66   -2.7294e+67  -4.05171e+65
   6.36601e+49  -1.55551e+62   4.00881e+61    2.5697e+68  8.74543e+135  5.42264e+202    2.3935e+68   1.30333e+67    2.9985e+67   2.13952e+68   9.63435e+66  -2.74952e+67  -6.37641e+65
  -1.38347e+60  -1.54975e+62     4.005e+61   2.57056e+68  8.74714e+135  5.31877e+202   2.39439e+68   1.30532e+67   3.00158e+67   2.13988e+68  -9.66651e+66  -2.76785e+67  -1.15383e+66
  -3.79821e+59  -1.54213e+62   1.10903e+61   1.81259e+66 -2.26357e+135  2.02482e+202   4.76116e+67  -1.22844e+67  -2.88867e+67   4.29836e+67  -9.67125e+66  -2.74766e+67  -5.00176e+65
   6.31612e+59  -1.84714e+62  -1.96723e+61  -1.43042e+68  3.56185e+135 -1.50423e+202   1.29997e+68  -1.14673e+67  -2.90231e+67  -1.02552e+68   9.70334e+66   2.87952e+67  -1.35632e+65
  -3.79257e+59   -1.8461e+62   1.21973e+61   1.09513e+68  2.26623e+135  7.18319e+201   9.86247e+67   1.24443e+67   2.92588e+67   6.78098e+67   9.70117e+66   2.88073e+67  -1.33444e+66
  -7.57266e+59  -1.82893e+62   1.21243e+61   1.09354e+68  2.29028e+135  8.96075e+201   9.83259e+67   1.24076e+67   2.92172e+67    6.7729e+67  -9.77631e+66   2.81746e+67  -1.43525e+66
   1.26643e+60  -1.82996e+62  -1.96998e+61  -1.43385e+68  3.62388e+135  -1.5644e+202   1.30136e+68  -1.15465e+67  -2.91072e+67  -1.02732e+68  -9.77414e+66   2.81612e+67   1.62675e+65
   6.23683e+59  -1.54316e+62  -1.78646e+61  -1.44802e+68  3.83727e+135 -1.87576e+202   1.30883e+68  -1.23923e+67  -2.94535e+67  -1.02956e+68   9.63665e+66  -2.72609e+67  -9.62089e+64
  -3.79821e+59  -1.54213e+62   1.10903e+61   1.10006e+68  2.39504e+135  1.02646e+202   9.85203e+67   1.27334e+67   2.93484e+67   6.79242e+67   9.63337e+66  -2.72489e+67  -1.31384e+66
  -7.58147e+59  -1.52483e+62   1.10174e+61    1.0984e+68  2.34468e+135  8.08569e+201   9.85913e+67   1.26952e+67   2.93026e+67   6.78426e+67  -9.73141e+66  -2.79262e+67  -1.41318e+66
   1.25233e+60  -1.52586e+62  -1.78899e+61  -1.45149e+68  3.82624e+135 -1.83948e+202   1.31309e+68  -1.24723e+67  -2.95411e+67  -1.03136e+68  -9.72813e+66  -2.79395e+67   1.97775e+65
  -3.79257e+59   -1.8461e+62   1.21973e+61   2.66637e+63 -2.35954e+135  2.22296e+202   4.85751e+67  -1.28273e+67  -2.97082e+67   4.25382e+67   9.69861e+66   2.89032e+67  -1.33444e+66
  -1.39026e+60  -1.85383e+62   4.40719e+61   2.52555e+68  7.83422e+135  3.66103e+202   2.36537e+68   1.10791e+67   2.85732e+67   2.12903e+68   9.70806e+66   2.87014e+67  -2.53354e+66
  -2.78123e+60  -1.83665e+62   4.39535e+61   2.52661e+68  7.88373e+135  3.99849e+202   2.36546e+68   1.11034e+67    2.8619e+67   2.12938e+68  -9.77208e+66   2.80671e+67  -3.03397e+66
  -7.57266e+59  -1.82893e+62   1.21243e+61  -7.08123e+64 -2.32273e+135  2.32619e+202   4.81948e+67  -1.28443e+67  -2.97037e+67   4.24772e+67  -9.78153e+66   2.82701e+67  -1.43525e+66
  -3.79821e+59  -1.54213e+62   1.10903e+61   1.88707e+66 -2.24481e+135  2.09169e+202    4.7417e+67  -1.22171e+67  -2.88695e+67   4.29737e+67   9.63069e+66  -2.71549e+67  -1.31384e+66
  -1.38347e+60  -1.54975e+62     4.005e+61   2.56696e+68  8.69969e+135  5.42154e+202   2.39151e+68   1.29049e+67   2.99326e+67   2.13858e+68   9.64119e+66  -2.73567e+67  -2.53109e+66
  -2.76887e+60  -1.53245e+62   3.99295e+61    2.5681e+68  8.67718e+135  5.06114e+202    2.3932e+68   1.29312e+67    2.9983e+67   2.13896e+68  -9.72578e+66  -2.80349e+67  -3.02427e+66
  -7.58147e+59  -1.52483e+62   1.10174e+61   1.82455e+66 -2.28188e+135  1.98476e+202   4.78038e+67  -1.22315e+67  -2.88597e+67   4.29159e+67  -9.73629e+66  -2.78319e+67  -1.41318e+66
   1.26643e+60  -1.82996e+62  -1.96998e+61  -1.43124e+68  3.56593e+135 -1.40213e+202   1.30071e+68  -1.15022e+67  -2.90469e+67  -1.02575e+68   9.73689e+66   2.88116e+67   1.60671e+66
  -7.57266e+59  -1.82893e+62   1.21243e+61   1.09425e+68  2.25989e+135  6.52984e+201   9.85596e+67   1.25009e+67   2.92337e+67   6.76906e+67   9.72831e+66   2.88247e+67  -2.25709e+66
  -1.13301e+60  -1.80026e+62   1.20028e+61    1.0919e+68  2.41314e+135  1.09495e+202   9.75162e+67   1.24467e+67   2.91601e+67   6.75836e+67  -9.69647e+66   2.57322e+67  -2.36201e+66
   1.90078e+60  -1.80129e+62  -1.96423e+61  -1.42908e+68  3.71926e+135 -1.76804e+202   1.29242e+68  -1.14523e+67  -2.90165e+67  -1.02439e+68  -9.68789e+66    2.5716e+67   1.86222e+66
   1.25233e+60  -1.52586e+62  -1.78899e+61  -1.44664e+68  3.81633e+135 -1.91935e+202    1.3081e+68  -1.23018e+67  -2.94291e+67  -1.02933e+68   9.68871e+66  -2.72923e+67   1.56194e+66
  -7.58147e+59  -1.52483e+62   1.10174e+61   1.09936e+68  2.38917e+135  1.06106e+202   9.84721e+67   1.28013e+67   2.93247e+67     6.781e+67   9.67749e+66  -2.72792e+67  -2.23108e+66
  -1.13396e+60  -1.49592e+62   1.08954e+61   1.09683e+68  2.19425e+135  5.61728e+201   9.91772e+67   1.27429e+67   2.92405e+67   6.76996e+67  -9.67251e+66  -3.03581e+67  -2.33448e+66
   1.88271e+60  -1.49695e+62  -1.78338e+61  -1.44472e+68  3.62495e+135 -1.49956e+202   1.31329e+68  -1.22577e+67  -2.94107e+67  -1.02804e+68   -9.6613e+66  -3.03741e+67   1.81374e+66
  -7.57266e+59  -1.82893e+62   1.21243e+61    6.6062e+62  -2.3585e+135  2.15991e+202   4.85644e+67  -1.27509e+67  -2.96872e+67   4.24388e+67   9.72309e+66   2.89202e+67  -2.25709e+66
  -2.78123e+60  -1.83665e+62   4.39535e+61   2.52548e+68  7.83909e+135  3.44387e+202    2.3652e+68   1.12488e+67    2.8593e+67   2.12706e+68   9.74521e+66   2.87177e+67   -6.1219e+66
  -4.16716e+60  -1.80797e+62   4.36529e+61   2.52085e+68  7.95221e+135  4.23415e+202   2.35786e+68    1.1142e+67   2.85363e+67   2.12407e+68  -9.68128e+66   2.56237e+67    -6.588e+66
  -1.13301e+60  -1.80026e+62   1.20028e+61  -8.13615e+63 -2.18552e+135  2.18857e+202   4.67496e+67  -1.27529e+67  -2.96391e+67   4.23839e+67   -9.7034e+66   2.58269e+67  -2.36201e+66
  -7.58147e+59  -1.52483e+62   1.10174e+61    1.9201e+66 -2.24452e+135  2.12608e+202   4.74153e+67  -1.21255e+67  -2.88377e+67   4.28833e+67   9.67261e+66   -2.7185e+67  -2.23108e+66
  -2.76887e+60  -1.53245e+62   3.99295e+61   2.56522e+68  8.67108e+135  5.52331e+202   2.39024e+68   1.29765e+67   2.99167e+67   2.13629e+68   9.69533e+66  -2.73875e+67  -6.02468e+66
  -4.15094e+60  -1.50352e+62   3.96295e+61   2.56075e+68  8.43877e+135  4.51123e+202   2.39031e+68   1.28734e+67   2.98658e+67   2.13336e+68  -9.65564e+66  -3.04673e+67  -6.48403e+66
  -1.13396e+60  -1.49592e+62   1.08954e+61   1.92069e+66 -2.41826e+135  2.08326e+202   4.92133e+67  -1.21253e+67  -2.87853e+67   4.28313e+67  -9.67836e+66  -3.02641e+67  -2.33448e+66
   1.64336e+50  -2.18614e+62  -2.14968e+61  -1.45059e+68  3.66139e+135 -1.57467e+202   1.31836e+68   -1.1515e+67  -2.94537e+67   -1.0409e+68   9.76335e+66   2.91004e+67  -2.08275e+65
   1.27615e+50   -2.1851e+62    1.3345e+61   1.11061e+68  2.33628e+135  8.20253e+201   9.99911e+67   1.25756e+67   2.96508e+67   6.88343e+67   9.76219e+66   2.91161e+67  -4.18888e+65
  -3.79009e+59  -2.17943e+62   1.33206e+61   1.11007e+68  2.34198e+135  8.78781e+201    9.9903e+67   1.25632e+67   2.96358e+67   6.88081e+67  -9.78821e+66   2.89465e+67  -5.22898e+65
   6.37612e+59  -2.18047e+62  -2.15089e+61  -1.45166e+68  3.67959e+135 -1.58477e+202   1.31885e+68  -1.15399e+67  -2.94811e+67  -1.04145e+68  -9.78705e+66   2.89304e+67    9.0113e+64
   1.42549e+50  -1.85286e+62  -1.96608e+61  -1.46872e+68  3.93232e+135 -1.93518e+202   1.32812e+68    -1.246e+67  -2.99034e+67  -1.04508e+68   9.70591e+66  -2.78095e+67  -1.94806e+65
   1.09676e+50  -1.85182e+62   1.22216e+61   1.11556e+68  2.45362e+135  1.01713e+202   9.99551e+67   1.28733e+67   2.97337e+67   6.89485e+67   9.70438e+66  -2.77938e+67  -4.12757e+65
  -3.79257e+59   -1.8461e+62   1.21973e+61     1.115e+68  2.43901e+135  9.45412e+201   9.99659e+67   1.28604e+67   2.97173e+67    6.8922e+67   -9.7354e+66  -2.79763e+67  -5.15238e+65
   6.31612e+59  -1.84714e+62  -1.96723e+61  -1.46981e+68  3.93067e+135 -1.93315e+202   1.32939e+68  -1.24852e+67   -2.9932e+67  -1.04564e+68  -9.73387e+66  -2.79923e+67   9.91934e+64
   1.27615e+50   -2.1851e+62    1.3345e+61   4.32467e+64 -2.42164e+135  2.37634e+202   4.92101e+67  -1.30438e+67  -3.01278e+67   4.32149e+67   9.76219e+66   2.92144e+67  -4.18888e+65
   9.05426e+49  -2.19293e+62   4.81918e+61   2.56162e+68  8.03261e+135  3.88832e+202   2.39972e+68   1.10417e+67   2.89765e+67   2.16144e+68   9.76608e+66   2.90046e+67  -6.29628e+65
  -1.39577e+60  -2.18726e+62   4.81553e+61   2.56199e+68  8.04753e+135  3.99643e+202    2.3998e+68   1.10502e+67   2.89936e+67   2.16155e+68  -9.78705e+66   2.88345e+67  -1.13626e+66
  -3.79009e+59  -2.17943e+62   1.33206e+61   2.63819e+64 -2.41154e+135  2.41496e+202   4.91075e+67  -1.30477e+67   -3.0123e+67   4.31971e+67  -9.79095e+66   2.90446e+67  -5.22898e+65
   1.09676e+50  -1.85182e+62   1.22216e+61   2.00359e+66 -2.31786e+135  2.14849e+202   4.81858e+67  -1.24079e+67  -2.92558e+67   4.36673e+67   9.70438e+66  -2.76979e+67  -4.12757e+65
   7.64735e+49  -1.85955e+62   4.41091e+61   2.60432e+68   8.9213e+135   5.5037e+202     2.427e+68   1.29211e+67   3.03814e+67   2.17129e+68   9.70851e+66  -2.79077e+67  -6.30736e+65
  -1.39026e+60  -1.85383e+62   4.40719e+61    2.6047e+68  8.91658e+135  5.39177e+202   2.42751e+68     1.293e+67   3.03997e+67    2.1714e+68  -9.73382e+66  -2.80904e+67  -1.12992e+66
  -3.79257e+59   -1.8461e+62   1.21973e+61   1.98953e+66  -2.3279e+135  2.10821e+202   4.82893e+67  -1.24111e+67  -2.92497e+67   4.36504e+67  -9.73796e+66  -2.78804e+67  -5.15238e+65
   6.37612e+59  -2.18047e+62  -2.15089e+61  -1.44955e+68  3.63752e+135 -1.54091e+202   1.31812e+68  -1.14167e+67  -2.94324e+67  -1.04106e+68   9.75604e+66   2.92561e+67  -1.90826e+65
  -3.79009e+59  -2.17943e+62   1.33206e+61   1.11044e+68   2.3267e+135  7.53405e+201   1.00021e+68   1.26112e+67   2.96444e+67   6.87888e+67    9.7549e+66   2.92722e+67  -1.35903e+66
  -7.56876e+59  -2.16241e+62   1.32477e+61   1.10911e+68  2.35527e+135  9.44554e+201   9.97298e+67   1.25804e+67   2.96112e+67   6.87196e+67  -9.81502e+66   2.86035e+67  -1.46476e+66
   1.27738e+60  -2.16346e+62  -2.15373e+61  -1.45127e+68    3.689e+135 -1.58358e+202   1.31806e+68  -1.14563e+67  -2.94745e+67  -1.04196e+68  -9.81388e+66   2.85863e+67   8.79586e+64
   6.31612e+59  -1.84714e+62  -1.96723e+61  -1.46656e+68  3.91302e+135 -1.90301e+202   1.32646e+68  -1.23013e+67  -2.98571e+67  -1.04498e+68   9.70345e+66  -2.76684e+67  -1.72759e+65
  -3.79257e+59   -1.8461e+62   1.21973e+61   1.11548e+68  2.46165e+135  1.07598e+202   9.99065e+67    1.2914e+67   2.97285e+67   6.89056e+67   9.70128e+66  -2.76523e+67  -1.34052e+66
  -7.57266e+59  -1.82893e+62   1.21243e+61   1.11409e+68   2.4121e+135  8.53905e+201   9.99994e+67   1.28819e+67   2.96915e+67   6.88356e+67  -9.77619e+66  -2.83424e+67   -1.4447e+66
   1.26643e+60  -1.82996e+62  -1.96998e+61  -1.46833e+68  3.88757e+135 -1.86251e+202   1.32938e+68  -1.23421e+67  -2.99028e+67  -1.04588e+68  -9.77402e+66  -2.83596e+67   1.01926e+65
  -3.79009e+59  -2.17943e+62   1.33206e+61   6.36437e+64 -2.42967e+135  2.32878e+202   4.92917e+67  -1.29998e+67  -3.01144e+67   4.31779e+67   9.75216e+66   2.93703e+67  -1.35903e+66
  -1.39577e+60  -2.18726e+62   4.81553e+61   2.56059e+68  8.00661e+135  3.73872e+202   2.39916e+68   1.10216e+67   2.89615e+67   2.16076e+68   9.76135e+66   2.91603e+67  -2.52804e+66
  -2.79144e+60  -2.17024e+62   4.80379e+61   2.56038e+68  8.04259e+135  4.06513e+202   2.39819e+68   1.10167e+67   2.89772e+67   2.16044e+68  -9.81172e+66   2.84907e+67  -3.01881e+66
  -7.56876e+59  -2.16241e+62   1.32477e+61   5.47546e+63 -2.39017e+135  2.43469e+202   4.88893e+67  -1.30132e+67  -3.01073e+67    4.3126e+67  -9.82091e+66    2.8701e+67  -1.46476e+66
  -3.79257e+59   -1.8461e+62   1.21973e+61   2.03784e+66 -2.30891e+135  2.18142e+202   4.80943e+67  -1.23576e+67  -2.92385e+67    4.3634e+67   9.69872e+66  -2.75564e+67  -1.34052e+66
  -1.39026e+60  -1.85383e+62   4.40719e+61   2.60241e+68  8.89465e+135  5.54518e+202   2.42551e+68   1.28528e+67   3.03469e+67   2.17042e+68   9.70817e+66  -2.77664e+67   -2.5089e+66
  -2.78123e+60  -1.83665e+62   4.39535e+61   2.60224e+68  8.85365e+135  5.16024e+202   2.42617e+68   1.28489e+67   3.03644e+67   2.17011e+68  -9.77197e+66  -2.84572e+67  -2.99246e+66
  -7.57266e+59  -1.82893e+62   1.21243e+61   1.98439e+66 -2.34715e+135  2.07211e+202    4.8488e+67    -1.237e+67  -2.92295e+67   4.35838e+67  -9.78142e+66  -2.82469e+67   -1.4447e+66
   1.27738e+60  -2.16346e+62  -2.15373e+61  -1.45001e+68  3.64513e+135 -1.44455e+202   1.31834e+68  -1.14893e+67  -2.94455e+67  -1.04066e+68   9.77838e+66   2.92393e+67   1.59625e+66
  -7.56876e+59  -2.16241e+62   1.32477e+61   1.10975e+68  2.32348e+135  6.90813e+201   9.99593e+67   1.26699e+67   2.96258e+67   6.86788e+67   9.77185e+66   2.92564e+67   -2.2949e+66
  -1.13257e+60  -2.13402e+62   1.31266e+61   1.10741e+68  2.48488e+135  1.15629e+202   9.88876e+67   1.26161e+67   2.95574e+67   6.85678e+67   -9.7216e+66   2.60669e+67  -2.40173e+66
   1.91535e+60  -2.13506e+62  -2.14781e+61  -1.44733e+68  3.80176e+135 -1.81824e+202   1.30942e+68  -1.14274e+67  -2.93983e+67  -1.03907e+68  -9.71506e+66   2.60475e+67   1.84901e+66
   1.26643e+60  -1.82996e+62  -1.96998e+61  -1.46572e+68  3.90281e+135 -1.97461e+202   1.32592e+68  -1.22979e+67  -2.98426e+67  -1.04432e+68   9.73704e+66  -2.77092e+67     1.546e+66
  -7.57266e+59  -1.82893e+62   1.21243e+61    1.1148e+68  2.45531e+135  1.11264e+202   9.98628e+67   1.29752e+67    2.9708e+67   6.87973e+67   9.72846e+66  -2.76923e+67  -2.26654e+66
  -1.13301e+60  -1.80026e+62   1.20028e+61   1.11234e+68   2.2533e+135  5.94505e+201   1.00597e+68   1.29184e+67   2.96317e+67   6.86841e+67  -9.69633e+66  -3.08605e+67   -2.3718e+66
   1.90078e+60  -1.80129e+62  -1.96423e+61  -1.46325e+68  3.69868e+135 -1.54155e+202   1.33087e+68  -1.22408e+67  -2.98049e+67  -1.04279e+68  -9.68775e+66  -3.08798e+67   1.79504e+66
  -7.56876e+59  -2.16241e+62   1.32477e+61   6.87876e+64 -2.42675e+135  2.26255e+202   4.92621e+67  -1.29237e+67  -3.00927e+67   4.30852e+67   9.76595e+66   2.93539e+67   -2.2949e+66
  -2.79144e+60  -2.17024e+62   4.80379e+61   2.56045e+68  8.02078e+135  3.53908e+202   2.39871e+68   1.12317e+67   2.89787e+67   2.15834e+68   9.78828e+66   2.91441e+67  -6.18743e+66
   -4.1809e+60  -2.14184e+62   4.77363e+61   2.55519e+68  8.13294e+135  4.34949e+202   2.39076e+68   1.11105e+67   2.89073e+67   2.15502e+68  -9.70737e+66   2.59541e+67   -6.6544e+66
  -1.13257e+60  -2.13402e+62   1.31266e+61   4.50174e+64 -2.24548e+135  2.28881e+202   4.73865e+67  -1.29292e+67  -3.00483e+67   4.30225e+67   -9.7297e+66   2.61637e+67  -2.40173e+66
  -7.57266e+59  -1.82893e+62   1.21243e+61   2.05583e+66 -2.30931e+135  2.22162e+202   4.80992e+67  -1.22766e+67   -2.9213e+67   4.35454e+67   9.72323e+66  -2.75968e+67  -2.26654e+66
  -2.78123e+60  -1.83665e+62   4.39535e+61   2.60112e+68  8.88272e+135  5.69989e+202   2.42437e+68   1.29943e+67   3.03384e+67   2.16779e+68   9.74535e+66  -2.78066e+67   -6.0804e+66
  -4.16716e+60  -1.80797e+62   4.36529e+61   2.59598e+68  8.63272e+135  4.65029e+202   2.42401e+68   1.28757e+67   3.02699e+67   2.16452e+68  -9.68113e+66  -3.09754e+67  -6.54051e+66
  -1.13301e+60  -1.80026e+62   1.20028e+61   2.03569e+66 -2.49047e+135  2.18551e+202   4.99461e+67  -1.22813e+67  -2.91675e+67   4.34844e+67  -9.70325e+66  -3.07657e+67   -2.3718e+66
   1.87291e+50  -2.54924e+62  -2.33623e+61  -1.47003e+68  3.73887e+135  -1.6106e+202   1.33683e+68  -1.14625e+67  -2.98652e+67  -1.05676e+68   9.81016e+66    2.9572e+67  -2.16602e+65
   1.46649e+50  -2.54819e+62   1.44851e+61   1.12654e+68  2.40101e+135  8.62817e+201   1.01439e+68   1.27484e+67   3.00557e+67   6.98497e+67   9.80929e+66   2.95906e+67  -4.24698e+65
  -3.78925e+59  -2.54258e+62   1.44608e+61   1.12605e+68  2.40763e+135  9.24908e+201   1.01353e+68   1.27372e+67   3.00426e+67   6.98256e+67  -9.83216e+66   2.94143e+67  -5.33478e+65
   6.42431e+59  -2.54363e+62  -2.33747e+61   -1.4707e+68  3.75443e+135 -1.61583e+202   1.33698e+68  -1.14779e+67  -2.98825e+67   -1.0571e+68  -9.83129e+66   2.93953e+67   6.32544e+64
   1.64336e+50  -2.18614e+62  -2.14968e+61  -1.48753e+68  4.00933e+135  -1.9676e+202   1.34604e+68  -1.23676e+67  -3.03063e+67   -1.0608e+68   9.76338e+66  -2.82303e+67  -2.08288e+65
   1.27615e+50   -2.1851e+62    1.3345e+61   1.13166e+68  2.52474e+135  1.07032e+202   1.01399e+68   1.30614e+67   3.01366e+67   6.99679e+67   9.76221e+66  -2.82116e+67  -4.18889e+65
  -3.79009e+59  -2.17943e+62   1.33206e+61   1.13116e+68  2.51037e+135  9.97075e+201   1.01414e+68   1.30499e+67   3.01225e+67   6.99436e+67  -9.78819e+66   -2.8395e+67  -5.26045e+65
   6.37612e+59  -2.18047e+62  -2.15089e+61  -1.48821e+68  4.00425e+135  -1.9648e+202   1.34698e+68  -1.23833e+67  -3.03246e+67  -1.06113e+68  -9.78702e+66   -2.8414e+67    6.7392e+64
   1.46649e+50  -2.54819e+62   1.44851e+61   9.98845e+64 -2.49464e+135  2.49235e+202   4.99465e+67  -1.32256e+67  -3.05503e+67   4.38757e+67   9.80929e+66   2.96915e+67  -4.24698e+65
   1.05756e+50  -2.55614e+62   5.23378e+61   2.59756e+68  8.21013e+135  3.97093e+202    2.4344e+68   1.09797e+67   2.93704e+67   2.19406e+68   9.81314e+66   2.94738e+67  -6.32941e+65
  -1.40044e+60  -2.55052e+62   5.23016e+61    2.5976e+68  8.22133e+135  4.07616e+202   2.43421e+68   1.09805e+67   2.93797e+67   2.19399e+68  -9.83132e+66   2.92972e+67  -1.13067e+66
  -3.78925e+59  -2.54258e+62   1.44608e+61   8.52156e+64 -2.48398e+135  2.53228e+202   4.98396e+67   -1.3229e+67  -3.05452e+67   4.38594e+67  -9.83517e+66    2.9515e+67  -5.33478e+65
   1.27615e+50   -2.1851e+62    1.3345e+61   2.14849e+66  -2.3851e+135  2.24425e+202   4.88847e+67   -1.2558e+67   -2.9642e+67   4.43485e+67   9.76221e+66  -2.81133e+67  -4.18889e+65
   9.05426e+49  -2.19293e+62   4.81918e+61   2.64069e+68  9.12225e+135  5.63326e+202   2.46191e+68   1.28664e+67   3.08011e+67   2.20401e+68   9.76611e+66  -2.83311e+67  -6.29617e+65
  -1.39577e+60  -2.18726e+62   4.81553e+61   2.64073e+68  9.11282e+135  5.51403e+202   2.46215e+68   1.28674e+67   3.08109e+67   2.20395e+68  -9.78702e+66  -2.85147e+67  -1.11992e+66
  -3.79009e+59  -2.17943e+62   1.33206e+61   2.13525e+66 -2.39531e+135  2.20281e+202   4.89885e+67   -1.2561e+67  -2.96364e+67   4.43326e+67  -9.79092e+66  -2.82968e+67  -5.26045e+65
   6.42431e+59  -2.54363e+62  -2.33747e+61  -1.46927e+68  3.71909e+135 -1.58491e+202   1.33673e+68  -1.13914e+67  -2.98495e+67  -1.05686e+68   9.79982e+66   2.97225e+67  -2.19051e+65
  -3.78925e+59  -2.54258e+62   1.44608e+61   1.12639e+68  2.39172e+135  7.94277e+201   1.01469e+68   1.27838e+67   3.00505e+67   6.98052e+67   9.79947e+66   2.97415e+67  -1.38085e+66
  -7.56742e+59  -2.52573e+62   1.43881e+61   1.12513e+68  2.42325e+135  9.96435e+201   1.01173e+68   1.27547e+67   3.00206e+67    6.9738e+67  -9.85006e+66   2.90425e+67  -1.48998e+66
   1.28639e+60  -2.52679e+62  -2.34033e+61  -1.46998e+68  3.76508e+135 -1.61837e+202   1.33579e+68  -1.14079e+67  -2.98667e+67  -1.05724e+68  -9.84971e+66   2.90226e+67   4.91402e+64
   6.37612e+59  -2.18047e+62  -2.15089e+61   -1.4861e+68  3.99899e+135  -1.9486e+202   1.34484e+68  -1.22602e+67  -3.02758e+67  -1.06074e+68   9.75611e+66  -2.80882e+67  -2.13566e+65
  -3.79009e+59  -2.17943e+62   1.33206e+61   1.13153e+68  2.53251e+135  1.13123e+202   1.01347e+68   1.30978e+67   3.01311e+67   6.99243e+67   9.75497e+66  -2.80693e+67  -1.36218e+66
  -7.56876e+59  -2.16241e+62   1.32477e+61   1.13023e+68  2.48229e+135  9.03132e+201   1.01449e+68   1.30678e+67   3.00985e+67   6.98568e+67  -9.81495e+66   -2.8775e+67  -1.46967e+66
   1.27738e+60  -2.16346e+62  -2.15373e+61  -1.48686e+68  3.96412e+135 -1.90419e+202   1.34698e+68  -1.22778e+67   -3.0296e+67  -1.06113e+68  -9.81381e+66  -2.87948e+67   5.06225e+64
  -3.78925e+59  -2.54258e+62   1.44608e+61   1.19236e+65 -2.50251e+135  2.44309e+202   5.00252e+67  -1.31824e+67  -3.05374e+67    4.3839e+67   9.79646e+66   2.98422e+67  -1.38085e+66
  -1.40044e+60  -2.55052e+62   5.23016e+61   2.59681e+68  8.19181e+135  3.83481e+202   2.43398e+68   1.09854e+67   2.93616e+67   2.19334e+68   9.80574e+66   2.96245e+67  -2.54353e+66
  -2.80021e+60  -2.53368e+62   5.21846e+61   2.59569e+68  8.21829e+135  4.15671e+202   2.43224e+68   1.09596e+67   2.93562e+67   2.19254e+68  -9.84732e+66    2.8925e+67   -3.0304e+66
  -7.56742e+59  -2.52573e+62   1.43881e+61   6.18779e+64 -2.46045e+135  2.55171e+202    4.9603e+67  -1.31956e+67  -3.05302e+67   4.37877e+67   -9.8566e+66   2.91426e+67  -1.48998e+66
  -3.79009e+59  -2.17943e+62   1.33206e+61   2.17249e+66 -2.37601e+135  2.28022e+202   4.87928e+67  -1.25131e+67  -2.96278e+67   4.43134e+67   9.75223e+66  -2.79711e+67  -1.36218e+66
  -1.39577e+60  -2.18726e+62   4.81553e+61   2.63934e+68  9.10866e+135  5.70548e+202   2.46074e+68   1.28389e+67   3.07788e+67   2.20317e+68   9.76142e+66  -2.81889e+67  -2.51167e+66
  -2.79144e+60  -2.17024e+62   4.80379e+61   2.63825e+68  9.05387e+135  5.29747e+202   2.46069e+68   1.28137e+67   3.07742e+67   2.20237e+68  -9.81165e+66  -2.88951e+67  -2.99128e+66
  -7.56876e+59  -2.16241e+62   1.32477e+61   2.11732e+66  -2.4155e+135  2.16905e+202   4.91933e+67  -1.25258e+67    -2.962e+67   4.42631e+67  -9.82084e+66  -2.86775e+67  -1.46967e+66
   1.28639e+60  -2.52679e+62  -2.34033e+61  -1.46954e+68  3.72968e+135 -1.49137e+202   1.33663e+68  -1.14884e+67  -2.98565e+67  -1.05609e+68   9.81554e+66   2.96781e+67   1.61222e+66
  -7.56742e+59  -2.52573e+62   1.43881e+61   1.12576e+68  2.39069e+135  7.33015e+201   1.01403e+68   1.28446e+67    3.0035e+67   6.96963e+67   9.81039e+66   2.96978e+67  -2.33107e+66
   -1.1324e+60  -2.49765e+62   1.42671e+61   1.12336e+68  2.55857e+135   1.2199e+202   1.00303e+68   1.27891e+67   2.99683e+67   6.95783e+67  -9.74769e+66   2.64332e+67   -2.4399e+66
   1.92775e+60   -2.4987e+62  -2.33423e+61  -1.46659e+68  3.89052e+135 -1.87643e+202   1.32734e+68  -1.14203e+67  -2.97997e+67  -1.05439e+68  -9.74254e+66   2.64119e+67   1.86435e+66
   1.27738e+60  -2.16346e+62  -2.15373e+61  -1.48561e+68  3.99512e+135 -2.03912e+202   1.34444e+68  -1.23108e+67   -3.0267e+67  -1.05983e+68   9.77848e+66  -2.81417e+67   1.55893e+66
  -7.56876e+59  -2.16241e+62   1.32477e+61   1.13086e+68  2.52554e+135  1.16941e+202   1.01306e+68   1.31573e+67   3.01131e+67   6.98159e+67   9.77194e+66  -2.81221e+67   -2.2998e+66
  -1.13257e+60  -2.13402e+62   1.31266e+61   1.12839e+68  2.31658e+135  6.31634e+201   1.02059e+68   1.31001e+67   3.00414e+67   6.96971e+67   -9.7215e+66  -3.13609e+67  -2.40701e+66
   1.91535e+60  -2.13506e+62  -2.14781e+61  -1.48281e+68  3.78093e+135 -1.59089e+202   1.34931e+68  -1.22462e+67   -3.0217e+67  -1.05818e+68  -9.71497e+66   -3.1382e+67    1.8073e+66
  -7.56742e+59  -2.52573e+62   1.43881e+61   1.24487e+65  -2.4978e+135  2.37314e+202   4.99781e+67  -1.31057e+67  -3.05157e+67   4.37459e+67   9.80385e+66    2.9798e+67  -2.33107e+66
  -2.80021e+60  -2.53368e+62   5.21846e+61   2.59656e+68  8.21231e+135  3.64431e+202   2.43329e+68   1.12231e+67   2.93763e+67   2.19057e+68   9.82665e+66   2.95808e+67  -6.27566e+66
  -4.19302e+60  -2.50558e+62   5.18817e+61   2.59081e+68  8.32398e+135  4.47711e+202   2.42485e+68   1.10904e+67   2.92937e+67   2.18697e+68  -9.73395e+66    2.6316e+67   -6.7458e+66
   -1.1324e+60  -2.49765e+62   1.42671e+61    8.4226e+64  -2.3092e+135  2.39755e+202   4.80542e+67   -1.3115e+67  -3.04748e+67   4.36741e+67  -9.75676e+66   2.65327e+67   -2.4399e+66
  -7.56876e+59  -2.16241e+62   1.32477e+61   2.18061e+66 -2.37704e+135  2.32468e+202   4.88036e+67  -1.24363e+67  -2.96054e+67   4.42223e+67   9.76605e+66  -2.80246e+67   -2.2998e+66
  -2.79144e+60  -2.17024e+62   4.80379e+61   2.63832e+68  9.10778e+135  5.89888e+202   2.45966e+68   1.30287e+67   3.07757e+67   2.20027e+68   9.78837e+66  -2.82418e+67  -6.15991e+66
   -4.1809e+60  -2.14184e+62   4.77363e+61   2.63267e+68  8.84308e+135  4.80946e+202   2.45899e+68   1.28983e+67   3.06951e+67   2.19673e+68  -9.70728e+66  -3.14807e+67  -6.62304e+66
  -1.13257e+60  -2.13402e+62   1.31266e+61   2.14233e+66 -2.56476e+135  2.29366e+202   5.06888e+67  -1.24452e+67  -2.95643e+67   4.41518e+67   -9.7296e+66  -3.12641e+67  -2.40701e+66
   2.11631e+50  -2.94262e+62  -2.52579e+61  -1.49021e+68  3.82325e+135 -1.65592e+202   1.35588e+68  -1.14368e+67  -3.02892e+67  -1.07295e+68   9.85025e+66   3.00515e+67  -2.21912e+65
   1.66873e+50  -2.94155e+62   1.56427e+61   1.14306e+68  2.46989e+135  9.10432e+201   1.02937e+68   1.29263e+67   3.04786e+67   7.09011e+67   9.84959e+66   3.00723e+67  -4.30687e+65
  -3.78912e+59  -2.93601e+62   1.56185e+61   1.14259e+68  2.47708e+135  9.75551e+201   1.02849e+68   1.29154e+67   3.04662e+67   7.08769e+67  -9.87058e+66   2.98905e+67  -5.42548e+65
   6.46537e+59  -2.93707e+62  -2.52704e+61  -1.49064e+68   3.8374e+135 -1.65832e+202   1.35583e+68  -1.14466e+67  -3.03005e+67  -1.07317e+68  -9.86992e+66   2.98694e+67   4.83155e+64
   1.87291e+50  -2.54924e+62  -2.33623e+61  -1.50753e+68  4.09819e+135 -2.01838e+202   1.36486e+68  -1.23279e+67  -3.07306e+67  -1.07695e+68   9.81018e+66  -2.86627e+67   -2.1661e+65
   1.46649e+50  -2.54819e+62   1.44851e+61   1.14832e+68   2.5996e+135  1.12875e+202   1.02892e+68    1.3251e+67   3.05583e+67   7.10224e+67   9.80931e+66  -2.86419e+67  -4.24698e+65
  -3.78925e+59  -2.54258e+62   1.44608e+61   1.14783e+68  2.58511e+135  1.05348e+202   1.02908e+68   1.32398e+67   3.05452e+67   7.09982e+67  -9.83214e+66  -2.88272e+67  -5.34864e+65
   6.42431e+59  -2.54363e+62  -2.33747e+61  -1.50797e+68  4.09091e+135 -2.01496e+202   1.36561e+68  -1.23379e+67  -3.07426e+67  -1.07717e+68  -9.83127e+66  -2.88482e+67   4.95238e+64
   1.66873e+50  -2.94155e+62   1.56427e+61    1.5123e+65 -2.57066e+135   2.6171e+202   5.07019e+67  -1.34171e+67  -3.09893e+67   4.45576e+67   9.84959e+66   3.01761e+67  -4.30687e+65
   1.21855e+50  -2.94962e+62   5.65487e+61   2.63478e+68  8.40158e+135  4.07373e+202    2.4702e+68   1.09398e+67   2.97783e+67   2.22759e+68   9.85347e+66   2.99507e+67  -6.39596e+65
  -1.40453e+60  -2.94407e+62   5.65127e+61   2.63457e+68  8.41014e+135   4.1779e+202   2.46981e+68   1.09351e+67    2.9782e+67    2.2274e+68  -9.86997e+66   2.97687e+67  -1.13385e+66
  -3.78912e+59  -2.93601e+62   1.56185e+61   1.35708e+65 -2.55945e+135  2.65835e+202   5.05912e+67  -1.34207e+67  -3.09845e+67   4.45409e+67  -9.87384e+66   2.99941e+67  -5.42548e+65
   1.46649e+50  -2.54819e+62   1.44851e+61   2.27766e+66 -2.45544e+135  2.34944e+202   4.96048e+67   -1.2723e+67  -3.00477e+67   4.50484e+67   9.80931e+66   -2.8541e+67  -4.24698e+65
   1.05756e+50  -2.55614e+62   5.23378e+61   2.67864e+68  9.34381e+135  5.80001e+202   2.49814e+68   1.28507e+67   3.12414e+67   2.23772e+68   9.81315e+66  -2.87665e+67  -6.32933e+65
  -1.40044e+60  -2.55052e+62   5.23016e+61   2.67844e+68  9.33086e+135  5.67395e+202   2.49819e+68   1.28462e+67   3.12453e+67   2.23753e+68  -9.83131e+66  -2.89518e+67   -1.1197e+66
  -3.78925e+59  -2.54258e+62   1.44608e+61   2.26299e+66 -2.46586e+135  2.30696e+202    4.9709e+67  -1.27264e+67  -3.00426e+67    4.5032e+67  -9.83515e+66  -2.87264e+67  -5.34864e+65
   6.46537e+59  -2.93707e+62  -2.52704e+61  -1.48962e+68  3.80602e+135 -1.63494e+202   1.35586e+68  -1.13824e+67  -3.02769e+67  -1.07303e+68   9.83796e+66   3.01979e+67   -2.3067e+65
  -3.78912e+59  -2.93601e+62   1.56185e+61   1.14293e+68  2.46083e+135  8.40087e+201   1.02966e+68   1.29625e+67   3.04741e+67   7.08562e+67   9.83816e+66   3.02189e+67  -1.40194e+66
  -7.56721e+59  -2.91935e+62   1.55458e+61   1.14165e+68  2.49457e+135  1.05215e+202    1.0266e+68   1.29331e+67   3.04452e+67   7.07872e+67  -9.88281e+66   2.94931e+67  -1.51354e+66
   1.29422e+60  -2.92042e+62  -2.52986e+61  -1.48974e+68  3.84947e+135  -1.6642e+202   1.35439e+68  -1.13851e+67  -3.02792e+67  -1.07309e+68  -9.88301e+66   2.94714e+67   3.25579e+64
   6.42431e+59  -2.54363e+62  -2.33747e+61  -1.50654e+68   4.0933e+135 -2.00779e+202   1.36394e+68  -1.22515e+67  -3.07096e+67  -1.07693e+68   9.79986e+66   -2.8521e+67  -2.32793e+65
  -3.78925e+59  -2.54258e+62   1.44608e+61   1.14817e+68  2.60738e+135  1.19185e+202   1.02838e+68   1.32864e+67    3.0553e+67   7.09778e+67   9.79951e+66     -2.85e+67  -1.38224e+66
  -7.56742e+59  -2.52573e+62   1.43881e+61   1.14688e+68   2.5557e+135  9.56354e+201   1.02945e+68   1.32566e+67   3.05224e+67   7.09089e+67  -9.85001e+66  -2.92232e+67  -1.49215e+66
   1.28639e+60  -2.52679e+62  -2.34033e+61   -1.5067e+68  4.05192e+135 -1.95936e+202   1.36563e+68  -1.22551e+67  -3.07139e+67  -1.07701e+68  -9.84966e+66  -2.92449e+67   2.64461e+64
  -3.78912e+59  -2.93601e+62   1.56185e+61   1.69929e+65 -2.57836e+135  2.56582e+202   5.07778e+67  -1.33736e+67  -3.09766e+67   4.45201e+67    9.8349e+66   3.03226e+67  -1.40194e+66
  -1.40453e+60  -2.94407e+62   5.65127e+61    2.6342e+68  8.38844e+135  3.94529e+202   2.46986e+68   1.09633e+67   2.97735e+67   2.22684e+68   9.84441e+66   3.00972e+67  -2.57399e+66
  -2.80803e+60  -2.92741e+62   5.63955e+61   2.63244e+68  8.40846e+135  4.26782e+202   2.46757e+68   1.09225e+67   2.97533e+67   2.22568e+68  -9.88037e+66   2.93711e+67  -3.06076e+66
  -7.56721e+59  -2.91935e+62   1.55458e+61   1.08155e+65 -2.53385e+135  2.67714e+202   5.03375e+67  -1.33878e+67  -3.09703e+67   4.44663e+67  -9.88989e+66   2.95962e+67  -1.51354e+66
  -3.78925e+59  -2.54258e+62   1.44608e+61     2.297e+66 -2.44621e+135  2.38751e+202   4.95125e+67  -1.26798e+67  -3.00348e+67   4.50116e+67   9.79651e+66  -2.83992e+67  -1.38224e+66
  -1.40044e+60  -2.55052e+62   5.23016e+61   2.67766e+68  9.33919e+135  5.89508e+202   2.49719e+68   1.28512e+67   3.12273e+67   2.23688e+68   9.80579e+66  -2.86246e+67  -2.53254e+66
  -2.80021e+60  -2.53368e+62   5.21846e+61   2.67593e+68   9.2739e+135  5.46479e+202   2.49663e+68   1.28111e+67   3.12077e+67   2.23574e+68  -9.84727e+66  -2.93481e+67  -3.01194e+66
  -7.56742e+59  -2.52573e+62   1.43881e+61   2.23657e+66 -2.48708e+135  2.27456e+202   4.99208e+67  -1.26937e+67  -3.00283e+67   4.49586e+67  -9.85656e+66  -2.91231e+67  -1.49215e+66
   1.29422e+60  -2.92042e+62  -2.52986e+61   -1.4898e+68  3.81919e+135 -1.54229e+202   1.35557e+68   -1.1496e+67  -3.02806e+67  -1.07203e+68   9.84995e+66   3.01292e+67    1.6451e+66
  -7.56721e+59  -2.91935e+62   1.55458e+61    1.1423e+68  2.46149e+135  7.79311e+201   1.02893e+68   1.30249e+67   3.04601e+67   7.07451e+67   9.84563e+66   3.01507e+67  -2.36711e+66
  -1.13236e+60  -2.89159e+62   1.54249e+61   1.13982e+68  2.63508e+135  1.28685e+202   1.01768e+68   1.29675e+67   3.03934e+67   7.06206e+67  -9.77438e+66   2.68244e+67  -2.47791e+66
   1.93882e+60  -2.89265e+62  -2.52359e+61  -1.48668e+68  3.98456e+135 -1.94089e+202   1.34601e+68  -1.14239e+67  -3.02179e+67  -1.07026e+68  -9.77007e+66    2.6802e+67   1.89806e+66
   1.28639e+60  -2.52679e+62  -2.34033e+61  -1.50626e+68  4.09299e+135 -2.11151e+202   1.36364e+68  -1.23357e+67  -3.07038e+67  -1.07586e+68    9.8156e+66  -2.85894e+67   1.58954e+66
  -7.56742e+59  -2.52573e+62   1.43881e+61   1.14751e+68  2.59964e+135  1.23112e+202   1.02801e+68   1.33464e+67   3.05369e+67   7.08672e+67   9.81045e+66  -2.85678e+67  -2.33324e+66
   -1.1324e+60  -2.49765e+62   1.42671e+61   1.14499e+68   2.3839e+135  6.72753e+201   1.03567e+68   1.32883e+67   3.04675e+67    7.0743e+67  -9.74763e+66  -3.18652e+67  -2.44235e+66
   1.92775e+60   -2.4987e+62  -2.33423e+61  -1.50325e+68  3.87013e+135 -1.64641e+202   1.36849e+68  -1.22664e+67  -3.06458e+67  -1.07413e+68  -9.74248e+66  -3.18877e+67   1.83867e+66
  -7.56721e+59  -2.91935e+62   1.55458e+61   1.72837e+65 -2.57194e+135  2.49181e+202   5.07146e+67   -1.3296e+67  -3.09553e+67   4.44242e+67   9.83856e+66   3.02538e+67  -2.36711e+66
  -2.80803e+60  -2.92741e+62   5.63955e+61   2.63386e+68   8.4135e+135  3.75847e+202   2.46898e+68   1.12205e+67   2.97861e+67   2.22379e+68   9.86193e+66   3.00292e+67  -6.38041e+66
  -4.20405e+60  -2.89963e+62   5.60911e+61   2.62772e+68  8.52544e+135   4.6163e+202   2.46016e+68   1.10789e+67   2.96951e+67   2.21998e+68  -9.76079e+66   2.67031e+67  -6.85519e+66
  -1.13236e+60  -2.89159e+62   1.54249e+61   1.19224e+65 -2.37664e+135  2.51457e+202    4.8751e+67  -1.33084e+67  -3.09171e+67   4.43447e+67  -9.78417e+66    2.6927e+67  -2.47791e+66
  -7.56742e+59  -2.52573e+62   1.43881e+61   2.29917e+66 -2.44794e+135  2.43545e+202     4.953e+67  -1.26039e+67  -3.00139e+67   4.49169e+67   9.80391e+66  -2.84677e+67  -2.33324e+66
  -2.80021e+60  -2.53368e+62   5.21846e+61    2.6768e+68   9.3455e+135  6.11755e+202   2.49614e+68   1.30747e+67   3.12278e+67   2.23377e+68   9.82671e+66  -2.86923e+67  -6.25719e+66
  -4.19302e+60  -2.50558e+62   5.18817e+61   2.67076e+68  9.06814e+135  4.98616e+202   2.49523e+68   1.29355e+67   3.11388e+67   2.23002e+68  -9.73389e+66  -3.19897e+67  -6.72478e+66
   -1.1324e+60  -2.49765e+62   1.42671e+61   2.24735e+66  -2.6418e+135  2.40833e+202   5.14476e+67  -1.26158e+67  -2.99756e+67   4.48388e+67   -9.7567e+66  -3.17657e+67  -2.44235e+66
   2.37247e+50  -3.36676e+62  -2.71841e+61  -1.51112e+68  3.91362e+135 -1.70855e+202   1.37554e+68  -1.14281e+67  -3.07266e+67  -1.08957e+68   9.88609e+66   3.05419e+67  -2.25407e+65
   1.88224e+50  -3.36568e+62   1.68183e+61   1.16015e+68  2.54271e+135  9.62719e+201   1.04484e+68   1.31102e+67   3.09182e+67   7.19869e+67   9.88556e+66   3.05644e+67  -4.37021e+65
  -3.78924e+59   -3.3602e+62   1.67941e+61   1.15967e+68   2.5503e+135  1.03066e+202   1.04394e+68    1.3099e+67   3.09059e+67   7.19621e+67  -9.90551e+66   3.03776e+67  -5.51104e+65
   6.50212e+59  -3.36128e+62  -2.71966e+61   -1.5114e+68   3.9271e+135 -1.70936e+202   1.37536e+68  -1.14347e+67  -3.07342e+67  -1.08971e+68  -9.90499e+66   3.03549e+67   4.06377e+64
   2.11631e+50  -2.94262e+62  -2.52579e+61  -1.52855e+68  4.19639e+135 -2.08265e+202   1.38449e+68  -1.23215e+67  -3.11739e+67  -1.09359e+68   9.85026e+66  -2.91079e+67  -2.21917e+65
   1.66873e+50  -2.94155e+62   1.56427e+61   1.16553e+68  2.67837e+135  1.19241e+202   1.04433e+68   1.34449e+67   3.09972e+67   7.21111e+67    9.8496e+66  -2.90853e+67  -4.30686e+65
  -3.78912e+59  -2.93601e+62   1.56185e+61   1.16505e+68  2.66355e+135  1.11474e+202    1.0445e+68   1.34337e+67   3.09846e+67   7.20864e+67  -9.87057e+66  -2.92731e+67  -5.43013e+65
   6.46537e+59  -2.93707e+62  -2.52704e+61  -1.52884e+68  4.18761e+135 -2.07865e+202   1.38513e+68  -1.23281e+67  -3.11819e+67  -1.09374e+68  -9.86991e+66  -2.92958e+67   4.00343e+64
   1.88224e+50  -3.36568e+62   1.68183e+61   1.98375e+65 -2.64995e+135   2.7507e+202   5.14781e+67  -1.36168e+67  -3.14448e+67     4.526e+67   9.88556e+66   3.06713e+67  -4.37021e+65
    1.3888e+50  -3.37387e+62   6.08262e+61   2.67325e+68  8.60546e+135  4.19249e+202   2.50713e+68   1.09148e+67   3.01998e+67    2.2621e+68    9.8895e+66   3.04381e+67  -6.48754e+65
  -1.40824e+60  -3.36839e+62   6.07903e+61   2.67288e+68  8.61219e+135  4.29702e+202    2.5066e+68   1.09062e+67   3.01996e+67   2.26182e+68  -9.90505e+66   3.02513e+67  -1.14323e+66
  -3.78924e+59   -3.3602e+62   1.67941e+61   1.81118e+65 -2.63822e+135  2.79327e+202   5.13639e+67  -1.36208e+67  -3.14403e+67   4.52422e+67  -9.90899e+66   3.04844e+67  -5.51104e+65
   1.66873e+50  -2.94155e+62   1.56427e+61   2.39845e+66 -2.52901e+135  2.46331e+202   5.03464e+67  -1.28985e+67  -3.04707e+67   4.57677e+67    9.8496e+66  -2.89815e+67  -4.30686e+65
   1.21855e+50  -2.94962e+62   5.65487e+61   2.71807e+68  9.58335e+135  5.99696e+202   2.53566e+68   1.28621e+67   3.17005e+67   2.27245e+68   9.85348e+66  -2.92147e+67   -6.3959e+65
  -1.40453e+60  -2.94407e+62   5.65127e+61   2.71771e+68  9.56775e+135  5.86433e+202   2.53558e+68   1.28537e+67   3.17005e+67   2.27217e+68  -9.86996e+66  -2.94026e+67  -1.12646e+66
  -3.78912e+59  -2.93601e+62   1.56185e+61   2.38182e+66 -2.53969e+135  2.41977e+202   5.04515e+67  -1.29023e+67  -3.04662e+67   4.57503e+67  -9.87383e+66  -2.91695e+67  -5.43013e+65
   6.50212e+59  -3.36128e+62  -2.71966e+61  -1.51063e+68  3.89803e+135 -1.69023e+202   1.37558e+68  -1.13842e+67  -3.07165e+67  -1.08963e+68   9.87252e+66   3.06846e+67  -2.31969e+65
  -3.78924e+59   -3.3602e+62   1.67941e+61   1.16003e+68  2.53382e+135  8.90415e+201   1.04512e+68   1.31473e+67   3.09141e+67   7.19412e+67   9.87307e+66   3.07073e+67  -1.42331e+66
  -7.56738e+59  -3.34375e+62   1.67214e+61   1.15871e+68  2.56948e+135  1.11206e+202   1.04196e+68    1.3117e+67    3.0885e+67   7.18694e+67  -9.91411e+66   2.99565e+67  -1.53694e+66
   1.30133e+60  -3.34483e+62  -2.72242e+61  -1.51039e+68  3.94065e+135 -1.71831e+202   1.37376e+68  -1.13785e+67  -3.07096e+67  -1.08951e+68  -9.91465e+66   2.99334e+67   2.97642e+64
   6.46537e+59  -2.93707e+62  -2.52704e+61  -1.52782e+68  4.19481e+135 -2.07756e+202   1.38374e+68  -1.22639e+67  -3.11584e+67  -1.09359e+68   9.83799e+66  -2.89674e+67  -2.38959e+65
  -3.78912e+59  -2.93601e+62   1.56185e+61   1.16539e+68  2.68625e+135  1.25777e+202   1.04379e+68   1.34808e+67   3.09925e+67   7.20656e+67   9.83819e+66  -2.89447e+67   -1.4024e+66
  -7.56721e+59  -2.91935e+62   1.55458e+61   1.16407e+68  2.63269e+135  1.01377e+202   1.04489e+68   1.34505e+67   3.09626e+67   7.19944e+67  -9.88278e+66  -2.96868e+67  -1.51428e+66
   1.29422e+60  -2.92042e+62  -2.52986e+61   -1.5276e+68  4.14853e+135 -2.02478e+202   1.38517e+68  -1.22588e+67  -3.11529e+67  -1.09348e+68  -9.88298e+66  -2.97099e+67   1.87478e+64
  -3.78924e+59   -3.3602e+62   1.67941e+61   2.16676e+65  -2.6575e+135  2.69723e+202   5.15514e+67  -1.35725e+67  -3.14321e+67   4.52214e+67   9.86959e+66   3.08141e+67  -1.42331e+66
  -1.40824e+60  -3.36839e+62   6.07903e+61   2.67279e+68  8.59586e+135  4.06777e+202   2.50683e+68   1.09505e+67   3.01975e+67   2.26131e+68   9.87939e+66   3.05811e+67  -2.61533e+66
   -2.8152e+60  -3.35193e+62   6.06726e+61   2.67056e+68  8.61166e+135  4.39495e+202   2.50415e+68   1.08992e+67   3.01672e+67    2.2599e+68  -9.91179e+66   2.98301e+67  -3.10457e+66
  -7.56738e+59  -3.34375e+62   1.67214e+61   1.49705e+65 -2.61061e+135   2.8112e+202   5.10943e+67   -1.3588e+67  -3.14267e+67   4.51644e+67  -9.92159e+66   3.00628e+67  -1.53694e+66
  -3.78912e+59  -2.93601e+62   1.56185e+61   2.41604e+66 -2.51966e+135  2.50306e+202   5.02543e+67  -1.28552e+67  -3.04583e+67   4.57296e+67   9.83493e+66   -2.8841e+67   -1.4024e+66
  -1.40453e+60  -2.94407e+62   5.65127e+61   2.71734e+68  9.58487e+135  6.10955e+202   2.53485e+68   1.28819e+67    3.1692e+67    2.2716e+68   9.84444e+66   -2.9074e+67  -2.56659e+66
  -2.80803e+60  -2.92741e+62   5.63955e+61   2.71515e+68  9.51135e+135  5.65725e+202   2.53395e+68   1.28314e+67   3.16622e+67   2.27022e+68  -9.88034e+66  -2.98164e+67  -3.04831e+66
  -7.56721e+59  -2.91935e+62   1.55458e+61   2.35019e+66 -2.56208e+135  2.38819e+202   5.06715e+67  -1.28704e+67  -3.04529e+67   4.56735e+67  -9.88986e+66  -2.95837e+67  -1.51428e+66
   1.30133e+60  -3.34483e+62  -2.72242e+61  -1.51076e+68   3.9135e+135 -1.59714e+202   1.37515e+68  -1.15094e+67  -3.07183e+67  -1.08848e+68   9.88255e+66   3.05933e+67   1.68902e+66
  -7.56738e+59  -3.34375e+62   1.67214e+61   1.15939e+68  2.53593e+135  8.29645e+201   1.04431e+68   1.32111e+67   3.09005e+67   7.18271e+67   9.87868e+66   3.06162e+67  -2.40387e+66
  -1.13237e+60  -3.31632e+62   1.66006e+61   1.15683e+68  2.71491e+135  1.35787e+202   1.03284e+68   1.31521e+67   3.08332e+67   7.16975e+67  -9.80136e+66   2.72367e+67  -2.51657e+66
   1.94906e+60  -3.31739e+62  -2.71597e+61  -1.50752e+68  4.08346e+135 -2.01076e+202   1.36538e+68  -1.14345e+67  -3.06516e+67  -1.08666e+68  -9.79749e+66   2.72133e+67   1.94382e+66
   1.29422e+60  -2.92042e+62  -2.52986e+61  -1.52766e+68  4.19629e+135 -2.19098e+202   1.38351e+68  -1.23697e+67  -3.11543e+67  -1.09242e+68   9.84998e+66  -2.90521e+67   1.63129e+66
  -7.56721e+59  -2.91935e+62   1.55458e+61   1.16472e+68  2.67757e+135  1.29775e+202   1.04346e+68   1.35423e+67   3.09775e+67   7.19523e+67   9.84567e+66  -2.90292e+67  -2.36785e+66
  -1.13236e+60  -2.89159e+62   1.54249e+61   1.16216e+68  2.45517e+135   7.1773e+201   1.05124e+68   1.34832e+67   3.09091e+67   7.18238e+67  -9.77434e+66  -3.23779e+67  -2.47882e+66
   1.93882e+60  -2.89265e+62  -2.52359e+61   -1.5245e+68  3.96545e+135 -1.70748e+202   1.38837e+68  -1.22969e+67  -3.10908e+67  -1.09062e+68  -9.77003e+66  -3.24012e+67   1.88218e+66
  -7.56738e+59  -3.34375e+62   1.67214e+61   2.17025e+65 -2.64944e+135  2.61887e+202   5.14732e+67  -1.34939e+67  -3.14112e+67   4.51221e+67   9.87119e+66   3.07226e+67  -2.40387e+66
   -2.8152e+60  -3.35193e+62   6.06726e+61   2.67236e+68  8.62448e+135  3.88108e+202    2.5058e+68   1.12222e+67   3.02085e+67   2.25805e+68   9.89516e+66   3.04904e+67  -6.49765e+66
  -4.21434e+60  -3.32448e+62   6.03665e+61   2.66593e+68  8.73738e+135  4.76654e+202   2.49668e+68   1.10738e+67   3.01113e+67   2.25408e+68   -9.7877e+66   2.71111e+67  -6.97802e+66
  -1.13237e+60  -3.31632e+62   1.66006e+61   1.54013e+65  -2.4478e+135  2.64001e+202   4.94755e+67  -1.35084e+67  -3.13746e+67    4.5037e+67  -9.81166e+66   2.73427e+67  -2.51657e+66
  -7.56721e+59  -2.91935e+62   1.55458e+61   2.41487e+66  -2.5222e+135   2.5542e+202   5.02795e+67  -1.27786e+67  -3.04379e+67   4.56314e+67    9.8386e+66  -2.89261e+67  -2.36785e+66
  -2.80803e+60  -2.92741e+62   5.63955e+61   2.71657e+68  9.59577e+135  6.35464e+202   2.53381e+68   1.31294e+67   3.16949e+67   2.26833e+68   9.86197e+66  -2.91583e+67  -6.36795e+66
  -4.20405e+60  -2.89963e+62   5.60911e+61   2.71025e+68  9.30703e+135  5.17906e+202   2.53274e+68   1.29836e+67   3.15997e+67   2.26442e+68  -9.76075e+66  -3.25068e+67  -6.84093e+66
  -1.13236e+60  -2.89159e+62   1.54249e+61    2.3538e+66 -2.72205e+135  2.53013e+202   5.22263e+67  -1.27927e+67  -3.04014e+67   4.55479e+67  -9.78413e+66  -3.22752e+67  -2.47882e+66
   2.64443e+50  -3.82216e+62  -2.91418e+61  -1.53276e+68  4.00952e+135  -1.7673e+202   1.39585e+68  -1.14304e+67  -3.11782e+67  -1.10667e+68   9.91921e+66   3.10452e+67  -2.27743e+65
   2.10631e+50  -3.82107e+62   1.80124e+61   1.17782e+68  2.61942e+135  1.01956e+202   1.06081e+68   1.33004e+67   3.13736e+67   7.31076e+67   9.91877e+66   3.10691e+67   -4.4372e+65
  -3.78939e+59  -3.81565e+62   1.79882e+61   1.17732e+68  2.62736e+135  1.09028e+202   1.05988e+68    1.3289e+67   3.13613e+67   7.30819e+67  -9.93822e+66   3.08777e+67  -5.59674e+65
   6.53624e+59  -3.81674e+62  -2.91542e+61  -1.53295e+68  4.02274e+135 -1.76722e+202   1.39559e+68  -1.14349e+67  -3.11835e+67  -1.10677e+68  -9.93778e+66   3.08537e+67   3.73881e+64
   2.37247e+50  -3.36676e+62  -2.71841e+61  -1.55047e+68  4.30243e+135 -2.15746e+202   1.40489e+68  -1.23363e+67  -3.16347e+67  -1.11076e+68   9.88609e+66  -2.95664e+67   -2.2541e+65
   1.88224e+50  -3.36568e+62   1.68183e+61   1.18333e+68  2.76123e+135  1.26141e+202   1.06025e+68    1.3645e+67   3.14529e+67   7.32347e+67   9.88557e+66  -2.95425e+67   -4.3702e+65
  -3.78924e+59   -3.3602e+62   1.67941e+61   1.18283e+68  2.74598e+135  1.18103e+202   1.06042e+68   1.36336e+67   3.14404e+67   7.32093e+67  -9.90551e+66  -2.97334e+67  -5.51162e+65
   6.50212e+59  -3.36128e+62  -2.71966e+61  -1.55067e+68  4.29253e+135  -2.1528e+202   1.40546e+68  -1.23408e+67  -3.16404e+67  -1.11086e+68  -9.90498e+66  -2.97574e+67   3.55782e+64
   2.10631e+50  -3.82107e+62   1.80124e+61   2.42442e+65 -2.73282e+135  2.89356e+202   5.22769e+67   -1.3824e+67  -3.19167e+67   4.59832e+67   9.91877e+66   3.11794e+67   -4.4372e+65
   1.56436e+50  -3.82938e+62   6.51723e+61   2.71299e+68    8.821e+135  4.32461e+202   2.54524e+68   1.08996e+67   3.06349e+67   2.29765e+68    9.9228e+66   3.09383e+67  -6.59805e+65
  -1.41169e+60  -3.82397e+62   6.51363e+61    2.7125e+68  8.82651e+135  4.43063e+202    2.5446e+68   1.08883e+67    3.0632e+67    2.2973e+68  -9.93784e+66   3.07469e+67  -1.15708e+66
  -3.78939e+59  -3.81565e+62   1.79882e+61   2.23512e+65 -2.72056e+135  2.93745e+202   5.21595e+67  -1.38284e+67  -3.19126e+67   4.59645e+67  -9.94187e+66   3.09879e+67  -5.59674e+65
   1.88224e+50  -3.36568e+62   1.68183e+61   2.51578e+66 -2.60598e+135  2.58564e+202   5.11107e+67   -1.3082e+67    -3.091e+67   4.65078e+67   9.88557e+66  -2.94356e+67   -4.3702e+65
    1.3888e+50  -3.37387e+62   6.08262e+61   2.75896e+68  9.83941e+135  6.21985e+202   2.57448e+68   1.28929e+67   3.21778e+67   2.30826e+68   9.88951e+66  -2.96767e+67  -6.48749e+65
  -1.40824e+60  -3.36839e+62   6.07903e+61   2.75848e+68  9.82174e+135  6.08072e+202   2.57431e+68   1.28818e+67   3.21751e+67   2.30791e+68  -9.90504e+66  -2.98676e+67  -1.13825e+66
  -3.78924e+59   -3.3602e+62   1.67941e+61    2.4974e+66 -2.61695e+135  2.54096e+202   5.12171e+67  -1.30862e+67  -3.09058e+67   4.64895e+67  -9.90899e+66  -2.96266e+67  -5.51162e+65
   6.53624e+59  -3.81674e+62  -2.91542e+61  -1.53235e+68    3.995e+135 -1.75036e+202   1.39592e+68  -1.13933e+67  -3.11695e+67  -1.10672e+68   9.90477e+66   3.11844e+67  -2.26663e+65
  -3.78939e+59  -3.81565e+62   1.79882e+61   1.17769e+68  2.61067e+135  9.45134e+201   1.06108e+68   1.33384e+67   3.13698e+67   7.30609e+67   9.90551e+66   3.12085e+67  -1.44541e+66
  -7.56761e+59   -3.7994e+62   1.79156e+61   1.17634e+68  2.64817e+135  1.17645e+202   1.05781e+68   1.33072e+67   3.13402e+67   7.29865e+67  -9.94442e+66   3.04336e+67  -1.56088e+66
     1.308e+60  -3.80049e+62  -2.91811e+61  -1.53186e+68  4.03779e+135 -1.77912e+202   1.39385e+68  -1.13821e+67  -3.11567e+67  -1.10647e+68  -9.94517e+66   3.04094e+67   3.56851e+64
   6.50212e+59  -3.36128e+62  -2.71966e+61   -1.5499e+68  4.30286e+135 -2.15612e+202   1.40424e+68  -1.22903e+67  -3.16226e+67  -1.11077e+68   9.87254e+66  -2.94278e+67  -2.37034e+65
  -3.78924e+59   -3.3602e+62   1.67941e+61   1.18319e+68  2.76921e+135  1.32905e+202   1.05972e+68   1.36818e+67   3.14486e+67   7.31884e+67   9.87309e+66  -2.94038e+67  -1.42337e+66
  -7.56738e+59  -3.34375e+62   1.67214e+61   1.18185e+68  2.71352e+135  1.07564e+202   1.06085e+68   1.36508e+67   3.14188e+67   7.31149e+67  -9.91409e+66  -3.01659e+67  -1.53704e+66
   1.30133e+60  -3.34483e+62  -2.72242e+61  -1.54943e+68  4.25258e+135 -2.09857e+202   1.40552e+68  -1.22796e+67  -3.16107e+67  -1.11053e+68  -9.91463e+66  -3.01902e+67    2.1215e+64
  -3.78939e+59  -3.81565e+62   1.79882e+61   2.60528e+65 -2.74022e+135  2.83776e+202   5.23478e+67  -1.37789e+67   -3.1904e+67   4.59435e+67   9.90186e+66   3.13186e+67  -1.44541e+66
  -1.41169e+60  -3.82397e+62   6.51363e+61    2.7126e+68  8.81389e+135  4.20091e+202   2.54496e+68    1.0944e+67   3.06344e+67   2.29682e+68   9.91197e+66   3.10778e+67  -2.66475e+66
  -2.82193e+60  -3.80771e+62   6.50179e+61   2.71006e+68  8.82708e+135  4.53586e+202   2.54199e+68   1.08853e+67   3.05968e+67   2.29523e+68  -9.94212e+66   3.03029e+67  -3.15826e+66
  -7.56761e+59   -3.7994e+62   1.79156e+61   1.89243e+65 -2.69097e+135  2.95435e+202   5.18749e+67  -1.37954e+67  -3.18993e+67   4.58839e+67  -9.95223e+66   3.05434e+67  -1.56088e+66
  -3.78924e+59   -3.3602e+62   1.67941e+61   2.53296e+66 -2.59653e+135  2.62695e+202   5.10191e+67   -1.3038e+67  -3.08976e+67   4.64686e+67   9.86961e+66   -2.9297e+67  -1.42337e+66
  -1.40824e+60  -3.36839e+62   6.07903e+61   2.75839e+68  9.84515e+135  6.34637e+202   2.57375e+68   1.29261e+67   3.21731e+67    2.3074e+68   9.87941e+66  -2.95378e+67  -2.61034e+66
   -2.8152e+60  -3.35193e+62   6.06726e+61   2.75588e+68  9.76488e+135  5.87188e+202   2.57263e+68   1.28682e+67   3.21361e+67   2.30584e+68  -9.91178e+66  -3.03001e+67  -3.09613e+66
  -7.56738e+59  -3.34375e+62   1.67214e+61   2.46278e+66 -2.64068e+135  2.50995e+202   5.14465e+67  -1.30542e+67  -3.08929e+67   4.64099e+67  -9.92157e+66  -3.00596e+67  -1.53704e+66
     1.308e+60  -3.80049e+62  -2.91811e+61  -1.53244e+68  4.01261e+135 -1.65594e+202   1.39539e+68  -1.15272e+67  -3.11701e+67  -1.10547e+68   9.91393e+66   3.10714e+67   1.74051e+66
  -7.56761e+59   -3.7994e+62   1.79156e+61   1.17704e+68  2.61413e+135  8.84108e+201   1.06019e+68   1.34036e+67   3.13563e+67   7.29438e+67   9.91024e+66   3.10955e+67  -2.44173e+66
  -1.13239e+60  -3.77231e+62   1.77948e+61   1.17441e+68  2.79845e+135  1.43351e+202   1.04852e+68   1.33431e+67    3.1288e+67   7.28103e+67  -9.82841e+66   2.76678e+67  -2.55632e+66
   1.95878e+60   -3.7734e+62  -2.91147e+61  -1.52909e+68   4.1872e+135 -2.08572e+202   1.38542e+68  -1.14498e+67  -3.11005e+67  -1.10358e+68  -9.82472e+66   2.76435e+67   1.99783e+66
   1.30133e+60  -3.34483e+62  -2.72242e+61  -1.54981e+68  4.30504e+135 -2.27715e+202   1.40407e+68  -1.24105e+67  -3.16194e+67  -1.10951e+68   9.88257e+66  -2.95303e+67   1.68047e+66
  -7.56738e+59  -3.34375e+62   1.67214e+61   1.18252e+68  2.75945e+135  1.36941e+202   1.05944e+68   1.37449e+67   3.14343e+67   7.30726e+67    9.8787e+66  -2.95062e+67  -2.40396e+66
  -1.13237e+60  -3.31632e+62   1.66006e+61   1.17992e+68  2.53037e+135  7.66598e+201   1.06732e+68   1.36849e+67   3.13661e+67   7.29407e+67  -9.80133e+66  -3.29017e+67  -2.51676e+66
   1.94906e+60  -3.31739e+62  -2.71597e+61  -1.54653e+68  4.06649e+135 -1.77381e+202   1.40894e+68  -1.23348e+67  -3.15519e+67  -1.10766e+68  -9.79746e+66   -3.2926e+67   1.93377e+66
  -7.56761e+59   -3.7994e+62   1.79156e+61   2.58935e+65 -2.73056e+135  2.75476e+202   5.22554e+67   -1.3699e+67  -3.18832e+67   4.58411e+67   9.90243e+66   3.12052e+67  -2.44173e+66
  -2.82193e+60  -3.80771e+62   6.50179e+61   2.71211e+68  8.84553e+135  4.01207e+202   2.54381e+68   1.12272e+67   3.06442e+67   2.29339e+68   9.92702e+66   3.09652e+67  -6.62474e+66
  -4.22412e+60  -3.78061e+62     6.471e+61   2.70544e+68  8.95996e+135  4.92754e+202   2.53445e+68   1.10734e+67    3.0542e+67   2.28929e+68  -9.81453e+66   2.75378e+67  -7.11137e+66
  -1.13239e+60  -3.77231e+62   1.77948e+61    1.8976e+65 -2.52271e+135  2.77424e+202    5.0227e+67   -1.3715e+67  -3.18475e+67   4.57523e+67  -9.83912e+66   2.77772e+67  -2.55632e+66
  -7.56738e+59  -3.34375e+62   1.67214e+61   2.53009e+66 -2.60003e+135  2.68127e+202   5.10532e+67  -1.29601e+67  -3.08774e+67   4.63675e+67   9.87122e+66  -2.93998e+67  -2.40396e+66
   -2.8152e+60  -3.35193e+62   6.06726e+61   2.75768e+68  9.85882e+135  6.60985e+202   2.57272e+68   1.31912e+67   3.21775e+67   2.30399e+68   9.89518e+66  -2.96399e+67  -6.48921e+66
  -4.21434e+60  -3.32448e+62   6.03665e+61   2.75113e+68  9.55942e+135  5.38772e+202   2.57153e+68   1.30401e+67   3.20774e+67   2.29995e+68  -9.78767e+66  -3.30352e+67  -6.96823e+66
  -1.13237e+60  -3.31632e+62   1.66006e+61   2.46297e+66 -2.80585e+135  2.65972e+202   5.30275e+67  -1.29756e+67  -3.08417e+67   4.62803e+67  -9.81164e+66  -3.27958e+67  -2.51676e+66
   2.92822e+50  -4.30932e+62  -3.11319e+61  -1.55515e+68  4.11074e+135  -1.8315e+202   1.41683e+68  -1.14401e+67  -3.16446e+67   -1.1243e+68   9.95057e+66   3.15631e+67  -2.29275e+65
   2.33715e+50  -4.30822e+62   1.92256e+61   1.19606e+68  2.70009e+135  1.08099e+202   1.07729e+68   1.34972e+67    3.1845e+67   7.42641e+67   9.95017e+66   3.15883e+67  -4.50755e+65
   -3.7895e+59  -4.30287e+62   1.92014e+61   1.19556e+68  2.70839e+135  1.15459e+202   1.07634e+68   1.34855e+67   3.18324e+67   7.42377e+67  -9.96946e+66   3.13923e+67    -5.685e+65
   6.56871e+59  -4.30398e+62  -3.11442e+61  -1.55528e+68  4.12394e+135 -1.83096e+202   1.41651e+68  -1.14432e+67  -3.16484e+67  -1.12436e+68  -9.96906e+66   3.13672e+67   3.68939e+64
   2.64443e+50  -3.82216e+62  -2.91418e+61  -1.57326e+68  4.41551e+135 -2.24109e+202   1.42604e+68   -1.2365e+67  -3.21127e+67  -1.12848e+68   9.91922e+66  -3.00393e+67  -2.27745e+65
   2.10631e+50  -3.82107e+62   1.80124e+61   1.20172e+68  2.84838e+135  1.33597e+202    1.0767e+68    1.3852e+67   3.19252e+67   7.43947e+67   9.91877e+66  -3.00142e+67  -4.43719e+65
  -3.78939e+59  -3.81565e+62   1.79882e+61   1.20122e+68  2.83264e+135  1.25261e+202   1.07687e+68   1.38404e+67   3.19127e+67   7.43685e+67  -9.93821e+66  -3.02085e+67  -5.59595e+65
   6.53624e+59  -3.81674e+62  -2.91542e+61  -1.57339e+68   4.4047e+135  -2.2357e+202   1.42657e+68  -1.23681e+67  -3.21167e+67  -1.12854e+68  -9.93777e+66  -3.02337e+67   3.41991e+64
   2.33715e+50  -4.30822e+62   1.92256e+61   2.84398e+65 -2.81955e+135  3.04628e+202   5.31002e+67  -1.40386e+67  -3.24053e+67   4.67283e+67   9.95017e+66   3.17021e+67  -4.50755e+65
    1.7437e+50  -4.31666e+62   6.95891e+61   2.75405e+68  9.04797e+135  4.46861e+202   2.58457e+68   1.08912e+67    3.1084e+67    2.3343e+68   9.95431e+66   3.14529e+67  -6.72335e+65
  -1.41497e+60  -4.31131e+62   6.95529e+61   2.75347e+68  9.05267e+135  4.57695e+202   2.58386e+68   1.08779e+67   3.10792e+67    2.3339e+68  -9.96914e+66    3.1257e+67  -1.17421e+66
   -3.7895e+59  -4.30287e+62   1.92014e+61   2.64149e+65 -2.80678e+135  3.09152e+202   5.29797e+67  -1.40433e+67  -3.24014e+67   4.67089e+67  -9.97327e+66   3.15061e+67    -5.685e+65
   2.10631e+50  -3.82107e+62   1.80124e+61   2.63281e+66 -2.68656e+135  2.71657e+202   5.18988e+67  -1.32724e+67  -3.13651e+67   4.72703e+67   9.91877e+66  -2.99039e+67  -4.43719e+65
   1.56436e+50  -3.82938e+62   6.51723e+61   2.80131e+68  1.01113e+136  6.46621e+202   2.61462e+68   1.29378e+67    3.2673e+67    2.3452e+68    9.9228e+66  -3.01531e+67  -6.59801e+65
  -1.41169e+60  -3.82397e+62   6.51363e+61   2.80075e+68  1.00919e+136  6.32053e+202   2.61438e+68   1.29248e+67   3.26684e+67   2.34481e+68  -9.93784e+66  -3.03474e+67  -1.15371e+66
  -3.78939e+59  -3.81565e+62   1.79882e+61   2.61308e+66 -2.69789e+135  2.67067e+202   5.20069e+67  -1.32769e+67  -3.13611e+67   4.72512e+67  -9.94187e+66  -3.00984e+67  -5.59595e+65
   6.56871e+59  -4.30398e+62  -3.11442e+61  -1.55478e+68  4.09698e+135 -1.81516e+202   1.41691e+68  -1.14078e+67  -3.16369e+67  -1.12433e+68   9.93547e+66   3.16989e+67  -2.16899e+65
   -3.7895e+59  -4.30287e+62   1.92014e+61   1.19594e+68  2.69145e+135   1.0043e+202   1.07756e+68   1.35361e+67   3.18413e+67   7.42165e+67   9.93633e+66   3.17241e+67  -1.46838e+66
  -7.56777e+59  -4.28683e+62   1.91288e+61   1.19455e+68  2.73085e+135  1.24565e+202   1.07418e+68   1.35041e+67    3.1811e+67   7.41399e+67  -9.97403e+66   3.09255e+67  -1.58568e+66
   1.31438e+60  -4.28793e+62  -3.11702e+61  -1.55412e+68  4.14052e+135 -1.84579e+202   1.41466e+68  -1.13926e+67    -3.162e+67    -1.124e+68  -9.97489e+66   3.09002e+67     4.735e+64
   6.53624e+59  -3.81674e+62  -2.91542e+61  -1.57278e+68  4.41718e+135 -2.24252e+202   1.42546e+68  -1.23266e+67  -3.21027e+67  -1.12849e+68   9.90478e+66   -2.9903e+67  -2.29857e+65
  -3.78939e+59  -3.81565e+62   1.79882e+61   1.20159e+68  2.85644e+135   1.4059e+202   1.07618e+68   1.38899e+67   3.19212e+67   7.43475e+67   9.90553e+66  -2.98778e+67  -1.44533e+66
  -7.56761e+59   -3.7994e+62   1.79156e+61   1.20021e+68  2.79843e+135  1.14225e+202   1.07734e+68   1.38582e+67   3.18911e+67   7.42721e+67  -9.94441e+66   -3.0661e+67  -1.56076e+66
     1.308e+60  -3.80049e+62  -2.91811e+61  -1.57214e+68  4.36333e+135 -2.17971e+202   1.42664e+68  -1.23118e+67  -3.20864e+67  -1.12816e+68  -9.94516e+66  -3.06863e+67   3.01972e+64
   -3.7895e+59  -4.30287e+62   1.92014e+61   3.02402e+65 -2.82682e+135  2.98804e+202   5.31687e+67  -1.39927e+67  -3.23926e+67   4.66877e+67   9.93252e+66   3.18378e+67  -1.46838e+66
  -1.41497e+60  -4.31131e+62   6.95529e+61   2.75371e+68   9.0427e+135   4.3441e+202    2.5843e+68   1.09421e+67   3.10847e+67   2.33344e+68   9.94297e+66   3.15889e+67  -2.72042e+66
  -2.82836e+60  -4.29527e+62   6.94337e+61   2.75092e+68  9.05435e+135  4.68921e+202   2.58111e+68   1.08778e+67    3.1042e+67   2.33172e+68  -9.97166e+66   3.07903e+67  -3.21945e+66
  -7.56777e+59  -4.28683e+62   1.91288e+61   2.27996e+65 -2.77517e+135   3.1072e+202   5.26804e+67  -1.40098e+67  -3.23882e+67    4.6626e+67  -9.98212e+66   3.10389e+67  -1.58568e+66
  -3.78939e+59  -3.81565e+62   1.79882e+61    2.6501e+66 -2.67706e+135  2.75949e+202   5.18081e+67  -1.32275e+67  -3.13526e+67   4.72302e+67   9.90187e+66  -2.97676e+67  -1.44533e+66
  -1.41169e+60  -3.82397e+62   6.51363e+61   2.80085e+68  1.01199e+136  6.60437e+202   2.61395e+68   1.29805e+67   3.26708e+67   2.34433e+68   9.91198e+66  -3.00166e+67  -2.66137e+66
  -2.82193e+60  -3.80771e+62   6.50179e+61    2.7981e+68  1.00338e+136  6.10712e+202   2.61266e+68   1.29172e+67   3.26287e+67   2.34264e+68   -9.9421e+66  -3.07998e+67  -3.15248e+66
  -7.56761e+59   -3.7994e+62   1.79156e+61   2.57679e+66 -2.72308e+135  2.64015e+202   5.22467e+67  -1.32444e+67  -3.13483e+67   4.71695e+67  -9.95222e+66  -3.05512e+67  -1.56076e+66
   1.31438e+60  -4.28793e+62  -3.11702e+61  -1.55485e+68  4.11665e+135 -1.71878e+202    1.4163e+68  -1.15486e+67  -3.16367e+67    -1.123e+68   9.94444e+66   3.15642e+67   1.79755e+66
  -7.56777e+59  -4.28683e+62   1.91288e+61   1.19527e+68  2.69628e+135  9.42895e+201   1.07658e+68   1.36024e+67   3.18275e+67   7.40967e+67   9.94079e+66   3.15893e+67  -2.48088e+66
  -1.13241e+60  -4.26009e+62    1.9008e+61   1.19259e+68  2.88596e+135  1.51424e+202   1.06475e+68   1.35407e+67   3.17583e+67   7.39603e+67  -9.85537e+66   2.81163e+67  -2.59736e+66
   1.96815e+60  -4.26119e+62   -3.1102e+61  -1.55139e+68   4.2959e+135 -2.16577e+202   1.40614e+68  -1.14688e+67  -3.15645e+67  -1.12106e+68  -9.85172e+66   2.80911e+67   2.05786e+66
     1.308e+60  -3.80049e+62  -2.91811e+61  -1.57273e+68  4.41936e+135 -2.36996e+202   1.42532e+68  -1.24569e+67  -3.20998e+67  -1.12716e+68   9.91394e+66  -3.00243e+67   1.73502e+66
  -7.56761e+59   -3.7994e+62   1.79156e+61   1.20091e+68  2.84542e+135  1.44636e+202   1.07594e+68   1.39546e+67   3.19072e+67   7.42293e+67   9.91026e+66  -2.99991e+67  -2.44161e+66
  -1.13239e+60  -3.77231e+62   1.77948e+61   1.19827e+68  2.60958e+135  8.19508e+201   1.08393e+68   1.38936e+67   3.18386e+67   7.40949e+67  -9.82839e+66   -3.3439e+67  -2.55624e+66
   1.95878e+60   -3.7734e+62  -2.91147e+61  -1.56933e+68  4.17315e+135 -1.84538e+202   1.43021e+68  -1.23786e+67  -3.20292e+67  -1.12525e+68  -9.82471e+66  -3.34642e+67    1.9912e+66
  -7.56777e+59  -4.28683e+62   1.91288e+61    2.9963e+65 -2.81553e+135  2.90009e+202   5.30625e+67  -1.39115e+67  -3.23716e+67   4.65828e+67    9.9327e+66   3.17027e+67  -2.48088e+66
  -2.82836e+60  -4.29527e+62   6.94337e+61   2.75316e+68  9.07711e+135  4.15158e+202   2.58306e+68   1.12349e+67   3.10937e+67   2.32988e+68   9.95796e+66   3.14546e+67  -6.76003e+66
  -4.23354e+60  -4.26851e+62   6.91239e+61    2.7463e+68  9.19345e+135  5.09926e+202   2.57348e+68   1.10765e+67   3.09875e+67   2.32566e+68  -9.84117e+66    2.7982e+67  -7.25341e+66
  -1.13241e+60  -4.26009e+62    1.9008e+61   2.26462e+65  -2.6015e+135   2.9178e+202   5.10054e+67  -1.39284e+67  -3.23363e+67   4.64912e+67  -9.86642e+66   2.82294e+67  -2.59736e+66
  -7.56761e+59   -3.7994e+62   1.79156e+61   2.64648e+66 -2.68164e+135  2.81712e+202   5.18522e+67   -1.3148e+67  -3.13322e+67   4.71267e+67   9.90245e+66  -2.98893e+67  -2.44161e+66
  -2.82193e+60  -3.80771e+62   6.50179e+61   2.80016e+68  1.01352e+136  6.88354e+202   2.61292e+68   1.32592e+67   3.26761e+67    2.3408e+68   9.92704e+66  -3.01375e+67  -6.61897e+66
  -4.22412e+60  -3.78061e+62     6.471e+61   2.79341e+68  9.82541e+135  5.61232e+202   2.61163e+68   1.31035e+67   3.25721e+67   2.33666e+68  -9.81451e+66   -3.3577e+67  -7.10452e+66
  -1.13239e+60  -3.77231e+62   1.77948e+61   2.57536e+66 -2.89352e+135  2.79778e+202    5.3853e+67  -1.31645e+67   -3.1297e+67   4.70368e+67   -9.8391e+66  -3.33296e+67  -2.55624e+66
   3.22882e+50  -4.82877e+62  -3.31554e+61  -1.57831e+68  4.21729e+135 -1.90087e+202   1.43851e+68  -1.14551e+67  -3.21265e+67  -1.14249e+68   9.98073e+66    3.2097e+67  -2.30191e+65
   2.57725e+50  -4.82766e+62   2.04586e+61   1.21492e+68  2.78487e+135  1.14721e+202   1.09432e+68   1.37009e+67   3.23325e+67   7.54583e+67   9.98036e+66   3.21233e+67  -4.58091e+65
  -3.78956e+59  -4.82238e+62   2.04344e+61    1.2144e+68  2.79354e+135  1.22381e+202   1.09335e+68    1.3689e+67   3.23198e+67   7.54312e+67  -9.99971e+66   3.19227e+67   -5.7767e+65
   6.60008e+59   -4.8235e+62  -3.31675e+61  -1.57839e+68   4.2306e+135 -1.90017e+202   1.43815e+68  -1.14571e+67  -3.21292e+67  -1.14253e+68  -9.99934e+66   3.18965e+67   3.81934e+64
   2.92822e+50  -4.30932e+62  -3.11319e+61  -1.59689e+68   4.5353e+135 -2.33272e+202   1.44794e+68  -1.24035e+67  -3.26079e+67  -1.14678e+68   9.95057e+66  -3.05272e+67  -2.29277e+65
   2.33715e+50  -4.30822e+62   1.92256e+61   1.22073e+68  2.94005e+135  1.41637e+202    1.0937e+68   1.40666e+67   3.24143e+67   7.55925e+67   9.95018e+66  -3.05009e+67  -4.50754e+65
   -3.7895e+59  -4.30287e+62   1.92014e+61   1.22022e+68  2.92377e+135  1.32979e+202   1.09388e+68   1.40548e+67   3.24017e+67   7.55658e+67  -9.96946e+66  -3.06991e+67  -5.68404e+65
   6.56871e+59  -4.30398e+62  -3.11442e+61  -1.59698e+68  4.52367e+135 -2.32648e+202   1.44844e+68  -1.24055e+67  -3.26107e+67  -1.14682e+68  -9.96906e+66  -3.07254e+67   3.47789e+64
   2.57725e+50  -4.82766e+62   2.04586e+61   3.24975e+65 -2.91046e+135  3.20965e+202   5.39497e+67  -1.42607e+67  -3.29111e+67   4.74968e+67   9.98036e+66   3.22408e+67  -4.58091e+65
    1.9245e+50  -4.83623e+62   7.40787e+61   2.79647e+68  9.28647e+135  4.62373e+202   2.62518e+68   1.08874e+67   3.15477e+67   2.37211e+68   9.98461e+66   3.19832e+67  -6.86089e+65
  -1.41812e+60  -4.83095e+62   7.40424e+61   2.79582e+68  9.29064e+135  4.73505e+202   2.62442e+68   1.08725e+67   3.15415e+67   2.37168e+68  -9.99941e+66   3.17827e+67  -1.19384e+66
  -3.78956e+59  -4.82238e+62   2.04344e+61   3.03761e+65 -2.89716e+135  3.25624e+202   5.38261e+67  -1.42656e+67  -3.29074e+67   4.74767e+67  -1.00037e+67   3.20402e+67   -5.7767e+65
   2.33715e+50  -4.30822e+62   1.92256e+61   2.75147e+66   -2.771e+135  2.85654e+202   5.27121e+67  -1.34693e+67   -3.1836e+67   4.80567e+67   9.95018e+66  -3.03871e+67  -4.50754e+65
    1.7437e+50  -4.31666e+62   6.95891e+61   2.84515e+68  1.03988e+136  6.73487e+202   2.65612e+68   1.29936e+67   3.31863e+67   2.38335e+68   9.95431e+66  -3.06447e+67  -6.72332e+65
  -1.41497e+60  -4.31131e+62   6.95529e+61   2.84452e+68   1.0378e+136  6.58245e+202   2.65584e+68    1.2979e+67   3.31803e+67   2.38292e+68  -9.96913e+66  -3.08429e+67  -1.17189e+66
   -3.7895e+59  -4.30287e+62   1.92014e+61   2.73075e+66 -2.78273e+135  2.80935e+202   5.28222e+67   -1.3474e+67  -3.18322e+67    4.8037e+67  -9.97327e+66  -3.05854e+67  -5.68404e+65
   6.60008e+59   -4.8235e+62  -3.31675e+61  -1.57797e+68   4.2041e+135 -1.88463e+202    1.4386e+68  -1.14263e+67  -3.21195e+67  -1.14251e+68   9.96513e+66   3.22292e+67  -2.03889e+65
  -3.78956e+59  -4.82238e+62   2.04344e+61   1.21479e+68  2.77634e+135  1.06812e+202   1.09457e+68   1.37406e+67   3.23289e+67   7.54098e+67   9.96604e+66   3.22555e+67  -1.49226e+66
  -7.56786e+59  -4.80655e+62   2.03618e+61   1.21337e+68  2.81772e+135  1.31997e+202    1.0911e+68   1.37078e+67   3.22979e+67   7.53314e+67  -1.00031e+67   3.14329e+67  -1.61143e+66
   1.32057e+60  -4.80766e+62  -3.31925e+61  -1.57718e+68  4.24878e+135   -1.918e+202   1.43619e+68  -1.14081e+67  -3.20995e+67  -1.14211e+68   -1.0004e+67   3.14066e+67   6.30575e+64
   6.56871e+59  -4.30398e+62  -3.11442e+61  -1.59648e+68  4.53775e+135 -2.33636e+202    1.4474e+68  -1.23701e+67  -3.25992e+67  -1.14679e+68   9.93548e+66  -3.03936e+67  -2.19017e+65
   -3.7895e+59  -4.30287e+62   1.92014e+61   1.22061e+68  2.94812e+135  1.48861e+202   1.09319e+68   1.41054e+67   3.24105e+67   7.55447e+67   9.93634e+66  -3.03674e+67  -1.46829e+66
  -7.56777e+59  -4.28683e+62   1.91288e+61   1.21921e+68  2.88766e+135  1.21394e+202   1.09439e+68   1.40731e+67     3.238e+67   7.54675e+67  -9.97402e+66  -3.11724e+67  -1.58553e+66
   1.31438e+60  -4.28793e+62  -3.11702e+61  -1.59571e+68  4.48052e+135 -2.26777e+202   1.44853e+68  -1.23523e+67  -3.25796e+67  -1.14639e+68  -9.97488e+66  -3.11988e+67   4.36234e+64
  -3.78956e+59  -4.82238e+62   2.04344e+61   3.42996e+65 -2.91759e+135  3.14882e+202   5.40158e+67  -1.42139e+67  -3.28983e+67   4.74553e+67   9.96209e+66    3.2373e+67  -1.49226e+66
  -1.41812e+60  -4.83095e+62   7.40424e+61   2.79616e+68  9.28265e+135  4.49719e+202   2.62492e+68   1.09435e+67   3.15492e+67   2.37123e+68   9.97291e+66   3.21156e+67  -2.78117e+66
  -2.83458e+60  -4.81512e+62   7.39222e+61   2.79318e+68  9.29347e+135  4.85434e+202   2.62155e+68   1.08749e+67   3.15026e+67   2.36941e+68  -1.00006e+67   3.12931e+67  -3.28664e+66
  -7.56786e+59  -4.80655e+62   2.03618e+61    2.6644e+65 -2.86348e+135  3.27054e+202   5.35121e+67  -1.42316e+67   -3.2894e+67    4.7392e+67  -1.00114e+67   3.15501e+67  -1.61143e+66
   -3.7895e+59  -4.30287e+62   1.92014e+61     2.769e+66 -2.76148e+135  2.90116e+202   5.26227e+67  -1.34234e+67  -3.18234e+67   4.80158e+67   9.93253e+66  -3.02536e+67  -1.46829e+66
  -1.41497e+60  -4.31131e+62   6.95529e+61   2.84475e+68  1.04096e+136  6.88328e+202    2.6555e+68   1.30432e+67   3.31857e+67   2.38246e+68   9.94298e+66   -3.0511e+67  -2.71809e+66
  -2.82836e+60  -4.29527e+62   6.94337e+61   2.84183e+68  1.03181e+136  6.36237e+202   2.65408e+68   1.29757e+67   3.31398e+67   2.38067e+68  -9.97165e+66  -3.13161e+67  -3.21541e+66
  -7.56777e+59  -4.28683e+62   1.91288e+61   2.69352e+66 -2.80953e+135  2.77932e+202   5.30734e+67  -1.34409e+67  -3.18192e+67   4.79536e+67  -9.98211e+66  -3.10591e+67  -1.58553e+66
   1.32057e+60  -4.80766e+62  -3.31925e+61  -1.57802e+68  4.22581e+135 -1.78588e+202    1.4379e+68  -1.15731e+67  -3.21188e+67   -1.1411e+68   9.97432e+66   3.20726e+67     1.859e+66
  -7.56786e+59  -4.80655e+62   2.03618e+61    1.2141e+68  2.78258e+135  1.00628e+202   1.09352e+68    1.3808e+67   3.23148e+67   7.52876e+67    9.9706e+66   3.20987e+67  -2.52141e+66
  -1.13242e+60  -4.78016e+62    2.0241e+61   1.21138e+68  2.97771e+135  1.60053e+202   1.08152e+68   1.37452e+67   3.22445e+67   7.51486e+67  -9.88215e+66    2.8582e+67  -2.63982e+66
   1.97729e+60  -4.78127e+62  -3.31224e+61  -1.57446e+68  4.40981e+135 -2.25111e+202   1.42756e+68  -1.14909e+67  -3.20442e+67  -1.13911e+68  -9.87843e+66   2.85558e+67   2.12262e+66
   1.31438e+60  -4.28793e+62  -3.11702e+61  -1.59644e+68  4.53948e+135 -2.46955e+202   1.44729e+68  -1.25083e+67  -3.25964e+67  -1.14539e+68   9.94445e+66  -3.05348e+67   1.79382e+66
  -7.56777e+59  -4.28683e+62   1.91288e+61   1.21992e+68  2.93571e+135  1.52891e+202     1.093e+68   1.41714e+67   3.23965e+67   7.54243e+67    9.9408e+66  -3.05086e+67  -2.48074e+66
  -1.13241e+60  -4.26009e+62    1.9008e+61   1.21724e+68  2.69293e+135  8.76703e+201   1.10108e+68   1.41096e+67   3.23271e+67   7.52875e+67  -9.85536e+66  -3.39914e+67  -2.59723e+66
   1.96815e+60  -4.26119e+62   -3.1102e+61  -1.59294e+68  4.28551e+135 -1.92234e+202    1.4522e+68  -1.24275e+67  -3.25232e+67  -1.14343e+68  -9.85171e+66  -3.40175e+67   2.05319e+66
  -7.56786e+59  -4.80655e+62   2.03618e+61   3.39674e+65 -2.90463e+135  3.05558e+202   5.38957e+67  -1.41314e+67  -3.28771e+67   4.73482e+67   9.96226e+66   3.22159e+67  -2.52141e+66
  -2.83458e+60  -4.81512e+62   7.39222e+61   2.79557e+68  9.31976e+135  4.29996e+202   2.62359e+68   1.12449e+67   3.15577e+67   2.36755e+68   9.98823e+66   3.19594e+67  -6.90252e+66
  -4.24271e+60  -4.78871e+62   7.36105e+61   2.78853e+68  9.43824e+135   5.2819e+202   2.61382e+68   1.10824e+67   3.14481e+67   2.36323e+68  -9.86754e+66    2.8443e+67  -7.40307e+66
  -1.13242e+60  -4.78016e+62    2.0241e+61   2.63776e+65 -2.68431e+135  3.07139e+202    5.1811e+67  -1.41489e+67  -3.28418e+67   4.72545e+67  -9.89352e+66   2.86988e+67  -2.63982e+66
  -7.56777e+59  -4.28683e+62   1.91288e+61   2.76516e+66 -2.76728e+135  2.96233e+202   5.26775e+67  -1.33425e+67  -3.18027e+67   4.79103e+67   9.93271e+66  -3.03952e+67  -2.48074e+66
  -2.82836e+60  -4.29527e+62   6.94337e+61   2.84407e+68  1.04255e+136  7.17655e+202   2.65446e+68   1.33328e+67   3.31915e+67   2.37882e+68   9.95797e+66  -3.06517e+67  -6.75599e+66
  -4.23354e+60  -4.26851e+62   6.91239e+61   2.83715e+68  1.01054e+136  5.85348e+202   2.65309e+68   1.31731e+67    3.3084e+67   2.37458e+68  -9.84116e+66  -3.41341e+67  -7.24846e+66
  -1.13241e+60  -4.26009e+62    1.9008e+61   2.69125e+66 -2.98534e+135  2.94506e+202   5.47045e+67  -1.33596e+67  -3.17675e+67   4.78184e+67  -9.86641e+66  -3.38784e+67  -2.59723e+66
   3.53753e+50  -5.38105e+62  -3.52133e+61  -1.60226e+68  4.32929e+135  -1.9754e+202   1.46093e+68  -1.14742e+67  -3.26247e+67  -1.16127e+68   1.00101e+67    3.2648e+67  -2.30587e+65
   2.82641e+50  -5.37992e+62    2.1712e+61    1.2344e+68  2.87395e+135  1.21849e+202   1.11192e+68   1.39116e+67   3.28368e+67    7.6692e+67   1.00097e+67   3.26753e+67  -4.65707e+65
  -3.78958e+59  -5.37471e+62   2.16877e+61   1.23388e+68  2.88302e+135  1.29825e+202   1.11092e+68   1.38994e+67    3.2824e+67   7.66643e+67  -1.00292e+67     3.247e+67  -5.87207e+65
   6.63067e+59  -5.37584e+62  -3.52253e+61  -1.60231e+68  4.34282e+135 -1.97472e+202   1.46052e+68  -1.14754e+67  -3.26266e+67  -1.16129e+68  -1.00289e+67   3.24427e+67   4.07449e+64
   3.22882e+50  -4.82877e+62  -3.31554e+61  -1.62139e+68  4.66177e+135 -2.43206e+202   1.47062e+68  -1.24493e+67  -3.31206e+67  -1.16569e+68   9.98073e+66  -3.10309e+67  -2.30192e+65
   2.57725e+50  -4.82766e+62   2.04586e+61    1.2404e+68  3.03647e+135  1.50297e+202   1.11128e+68   1.42889e+67   3.29205e+67   7.68303e+67   9.98036e+66  -3.10036e+67   -4.5809e+65
  -3.78956e+59  -4.82238e+62   2.04344e+61   1.23988e+68  3.01961e+135  1.41294e+202   1.11146e+68   1.42769e+67   3.29078e+67    7.6803e+67   -9.9997e+66  -3.12059e+67  -5.77599e+65
   6.60008e+59   -4.8235e+62  -3.31675e+61  -1.62144e+68  4.64936e+135 -2.42485e+202   1.47109e+68  -1.24504e+67  -3.31225e+67  -1.16571e+68  -9.99934e+66  -3.12333e+67   3.66916e+64
   2.82641e+50  -5.37992e+62    2.1712e+61   3.64678e+65 -3.00586e+135  3.38453e+202    5.4827e+67  -1.44905e+67  -3.34347e+67   4.82899e+67   1.00097e+67   3.27969e+67  -4.65707e+65
   2.11135e+50  -5.38863e+62   7.86435e+61    2.8403e+68  9.53684e+135  4.78976e+202   2.66714e+68   1.08869e+67   3.20266e+67   2.41117e+68   1.00141e+67   3.25305e+67  -7.00927e+65
   -1.4212e+60  -5.38342e+62   7.86071e+61   2.83961e+68  9.54065e+135  4.90458e+202   2.66633e+68   1.08708e+67   3.20193e+67   2.41071e+68   -1.0029e+67   3.23252e+67  -1.21547e+66
  -3.78958e+59  -5.37471e+62   2.16877e+61   3.42749e+65   -2.992e+135   3.4325e+202   5.47002e+67  -1.44956e+67   -3.3431e+67   4.82693e+67  -1.00333e+67   3.25915e+67  -5.87207e+65
   2.57725e+50  -4.82766e+62   2.04586e+61   2.87291e+66 -2.85957e+135  3.00616e+202   5.35521e+67  -1.36727e+67  -3.23231e+67   4.88687e+67   9.98036e+66   -3.0886e+67   -4.5809e+65
    1.9245e+50  -4.83623e+62   7.40787e+61   2.89052e+68  1.07023e+136  7.02562e+202   2.69905e+68   1.30579e+67   3.37181e+67   2.42276e+68   9.98461e+66  -3.11523e+67  -6.86086e+65
  -1.41812e+60  -4.83095e+62   7.40424e+61   2.88983e+68  1.06801e+136  6.86614e+202   2.69872e+68   1.30421e+67   3.37109e+67    2.4223e+68  -9.99941e+66  -3.13547e+67  -1.19219e+66
  -3.78956e+59  -4.82238e+62   2.04344e+61   2.85147e+66 -2.87173e+135   2.9576e+202   5.36644e+67  -1.36776e+67  -3.23195e+67   4.88485e+67  -1.00037e+67  -3.10884e+67  -5.77599e+65
   6.63067e+59  -5.37584e+62  -3.52253e+61  -1.60195e+68  4.31659e+135 -1.95894e+202   1.46102e+68  -1.14483e+67  -3.26182e+67  -1.16129e+68   9.99403e+66   3.27764e+67  -1.88303e+65
  -3.78958e+59  -5.37471e+62   2.16877e+61   1.23428e+68  2.86554e+135  1.13687e+202   1.11215e+68    1.3952e+67   3.28332e+67   7.66426e+67   9.99495e+66   3.28038e+67  -1.51703e+66
   -7.5679e+59  -5.35909e+62   2.16151e+61   1.23283e+68  2.90901e+135   1.3998e+202   1.10859e+68   1.39185e+67   3.28016e+67   7.65626e+67  -1.00317e+67   3.19568e+67  -1.63815e+66
   1.32662e+60  -5.36023e+62  -3.52492e+61  -1.60105e+68  4.36265e+135 -1.99572e+202   1.45846e+68  -1.14276e+67  -3.25957e+67  -1.16082e+68  -1.00326e+67   3.19294e+67    8.1857e+64
   6.60008e+59   -4.8235e+62  -3.31675e+61  -1.62101e+68  4.66473e+135 -2.43764e+202   1.47011e+68  -1.24196e+67  -3.31128e+67  -1.16569e+68   9.96514e+66  -3.09005e+67  -2.05394e+65
  -3.78956e+59  -4.82238e+62   2.04344e+61   1.24027e+68  3.04452e+135  1.57756e+202   1.11077e+68   1.43285e+67   3.29168e+67   7.67816e+67   9.96605e+66  -3.08732e+67  -1.49219e+66
  -7.56786e+59  -4.80655e+62   2.03618e+61   1.23884e+68  2.98146e+135  1.29109e+202   1.11202e+68   1.42956e+67   3.28858e+67    7.6703e+67  -1.00031e+67  -3.17011e+67  -1.61132e+66
   1.32057e+60  -4.80766e+62  -3.31925e+61  -1.62013e+68  4.60414e+135  -2.3627e+202   1.47119e+68  -1.23993e+67  -3.30906e+67  -1.16523e+68   -1.0004e+67  -3.17284e+67    6.0337e+64
  -3.78958e+59  -5.37471e+62   2.16877e+61   3.82789e+65 -3.01284e+135  3.32097e+202   5.48906e+67   -1.4443e+67  -3.34218e+67   4.82476e+67   9.99086e+66   3.29252e+67  -1.51703e+66
   -1.4212e+60  -5.38342e+62   7.86071e+61   2.84002e+68  9.53427e+135  4.66035e+202   2.66689e+68   1.09475e+67   3.20288e+67   2.41026e+68   1.00021e+67   3.26591e+67   -2.8463e+66
  -2.84065e+60   -5.3678e+62   7.84858e+61   2.83689e+68  9.54472e+135  5.03106e+202   2.66336e+68   1.08753e+67   3.19791e+67   2.40835e+68  -1.00291e+67   3.18122e+67  -3.35888e+66
   -7.5679e+59  -5.35909e+62   2.16151e+61   3.04715e+65 -2.95616e+135  3.44523e+202   5.43714e+67   -1.4461e+67  -3.34173e+67   4.81831e+67  -1.00403e+67   3.20779e+67  -1.63815e+66
  -3.78956e+59  -4.82238e+62   2.04344e+61    2.8907e+66 -2.85006e+135  3.05262e+202   5.34642e+67   -1.3626e+67  -3.23104e+67   4.88271e+67   9.96209e+66  -3.07557e+67  -1.49219e+66
  -1.41812e+60  -4.83095e+62   7.40424e+61   2.89017e+68  1.07145e+136  7.18354e+202   2.69845e+68    1.3113e+67   3.37187e+67   2.42185e+68   9.97292e+66  -3.10218e+67  -2.77951e+66
  -2.83458e+60  -4.81512e+62   7.39222e+61   2.88709e+68   1.0618e+136  6.63779e+202   2.69694e+68   1.30419e+67   3.36696e+67   2.41997e+68  -1.00006e+67  -3.18497e+67  -3.28369e+66
  -7.56786e+59  -4.80655e+62   2.03618e+61   2.81367e+66 -2.90027e+135  2.92815e+202   5.39277e+67  -1.36438e+67  -3.23062e+67   4.87636e+67  -1.00114e+67  -3.15839e+67  -1.61132e+66
   1.32662e+60  -5.36023e+62  -3.52492e+61  -1.60198e+68  4.34037e+135 -1.85749e+202   1.46024e+68  -1.16004e+67   -3.2617e+67  -1.15981e+68   1.00037e+67   3.25973e+67   1.92425e+66
   -7.5679e+59  -5.35909e+62   2.16151e+61   1.23357e+68  2.87326e+135  1.07461e+202   1.11103e+68   1.40205e+67   3.28188e+67   7.65181e+67   9.99986e+66   3.26245e+67  -2.56335e+66
  -1.13242e+60  -5.33306e+62   2.14944e+61   1.23081e+68  3.07399e+135  1.69285e+202   1.09886e+68   1.39566e+67   3.27473e+67   7.63767e+67  -9.90867e+66   2.90647e+67  -2.68373e+66
   1.98624e+60  -5.33419e+62  -3.51772e+61  -1.59832e+68  4.52925e+135 -2.34204e+202   1.44972e+68  -1.15159e+67  -3.25402e+67  -1.15776e+68  -9.90484e+66   2.90376e+67   2.19144e+66
   1.32057e+60  -4.80766e+62  -3.31925e+61  -1.62097e+68  4.66568e+135 -2.57624e+202   1.47002e+68  -1.25642e+67  -3.31099e+67  -1.16423e+68   9.97433e+66  -3.10625e+67   1.85628e+66
  -7.56786e+59  -4.80655e+62   2.03618e+61   1.23958e+68  3.03056e+135  1.61748e+202   1.11063e+68   1.43958e+67   3.29027e+67   7.66591e+67   9.97061e+66  -3.10353e+67   -2.5213e+66
  -1.13242e+60  -4.78016e+62    2.0241e+61   1.23685e+68  2.78063e+135  9.38497e+201   1.11881e+68    1.4333e+67   3.28323e+67   7.65201e+67  -9.88214e+66  -3.45604e+67  -2.63971e+66
   1.97729e+60  -4.78127e+62  -3.31224e+61  -1.61736e+68  4.40377e+135 -2.00496e+202   1.47495e+68   -1.2481e+67  -3.30343e+67  -1.16221e+68  -9.87842e+66  -3.45875e+67   2.11909e+66
   -7.5679e+59  -5.35909e+62   2.16151e+61   3.79344e+65 -2.99813e+135  3.22205e+202   5.47565e+67   -1.4359e+67  -3.34001e+67   4.81385e+67   9.99127e+66   3.27456e+67  -2.56335e+66
  -2.84065e+60   -5.3678e+62   7.84858e+61    2.8394e+68   9.5741e+135   4.4577e+202   2.66548e+68   1.12569e+67    3.2037e+67   2.40646e+68    1.0018e+67   3.24804e+67  -7.05167e+66
  -4.25168e+60  -5.34175e+62   7.81722e+61   2.83219e+68  9.69489e+135  5.47587e+202   2.65552e+68   1.10905e+67   3.19241e+67   2.40204e+68  -9.89361e+66    2.8921e+67  -7.55973e+66
  -1.13242e+60  -5.33306e+62   2.14944e+61   3.01354e+65 -2.77138e+135   3.2358e+202   5.26447e+67   -1.4377e+67  -3.33646e+67    4.8043e+67  -9.92036e+66   2.91854e+67  -2.68373e+66
  -7.56786e+59  -4.80655e+62   2.03618e+61    2.8869e+66 -2.85719e+135  3.11756e+202   5.35306e+67  -1.35436e+67  -3.22893e+67   4.87197e+67   9.96227e+66  -3.09181e+67   -2.5213e+66
  -2.83458e+60  -4.81512e+62   7.39222e+61   2.88947e+68  1.07307e+136   7.4901e+202   2.69741e+68    1.3412e+67   3.37247e+67   2.41811e+68   9.98824e+66  -3.11834e+67  -6.89957e+66
  -4.24271e+60  -4.78871e+62   7.36105e+61   2.88239e+68     1.04e+136  6.11218e+202   2.69595e+68   1.32484e+67    3.3614e+67   2.41376e+68  -9.86753e+66  -3.47081e+67  -7.39931e+66
  -1.13242e+60  -4.78016e+62    2.0241e+61   2.81084e+66 -3.08162e+135  3.10235e+202   5.55834e+67  -1.35611e+67   -3.2254e+67    4.8626e+67  -9.89351e+66  -3.44436e+67  -2.63971e+66
   3.85825e+50  -5.96671e+62  -3.73069e+61  -1.62705e+68  4.44697e+135 -2.05523e+202   1.48411e+68  -1.14968e+67  -3.31399e+67  -1.18068e+68   1.00388e+67   3.32173e+67  -2.30509e+65
   3.08125e+50  -5.96556e+62   2.29864e+61   1.25455e+68  2.96759e+135  1.29519e+202   1.13011e+68   1.41296e+67   3.33586e+67   7.79672e+67   1.00384e+67   3.32457e+67  -4.73596e+65
  -3.78959e+59  -5.96043e+62   2.29621e+61   1.25402e+68  2.97709e+135   1.3783e+202   1.12909e+68   1.41172e+67   3.33456e+67    7.7939e+67  -1.00582e+67   3.30353e+67  -5.97115e+65
   6.66065e+59  -5.96157e+62  -3.73187e+61  -1.62707e+68  4.46078e+135 -2.05472e+202   1.48367e+68  -1.14972e+67   -3.3141e+67  -1.18069e+68  -1.00579e+67   3.30069e+67   4.42502e+64
   3.53753e+50  -5.38105e+62  -3.52133e+61  -1.64676e+68  4.79508e+135 -2.53919e+202   1.49409e+68   -1.2501e+67  -3.36515e+67  -1.18523e+68   1.00101e+67  -3.15512e+67  -2.30588e+65
   2.82641e+50  -5.37992e+62    2.1712e+61   1.26074e+68  3.13793e+135  1.59622e+202   1.12945e+68   1.45193e+67   3.34445e+67   7.81098e+67   1.00097e+67  -3.15228e+67  -4.65706e+65
  -3.78958e+59  -5.37471e+62   2.16877e+61   1.26021e+68  3.12045e+135   1.5025e+202   1.12964e+68   1.45071e+67   3.34316e+67   7.80821e+67  -1.00292e+67  -3.17297e+67  -5.87167e+65
   6.63067e+59  -5.37584e+62  -3.52253e+61  -1.64677e+68  4.78188e+135 -2.53087e+202   1.49455e+68  -1.25014e+67  -3.36526e+67  -1.18523e+68  -1.00289e+67  -3.17581e+67   3.95915e+64
   3.08125e+50  -5.96556e+62   2.29864e+61   4.03811e+65 -3.10609e+135  3.57195e+202   5.57338e+67  -1.47285e+67  -3.39768e+67   4.91091e+67   1.00384e+67   3.33714e+67  -4.73596e+65
   2.30196e+50  -5.97442e+62   8.32861e+61   2.88563e+68  9.79963e+135  4.96687e+202   2.71052e+68    1.0889e+67   3.25215e+67   2.45153e+68   1.00429e+67   3.30958e+67  -7.16788e+65
   -1.4242e+60  -5.96928e+62   8.32495e+61   2.88489e+68  9.80317e+135   5.0856e+202   2.70966e+68   1.08719e+67   3.25132e+67   2.45104e+68  -1.00579e+67   3.28855e+67   -1.2388e+66
  -3.78959e+59  -5.96043e+62   2.29621e+61   3.81315e+65 -3.09163e+135  3.62131e+202   5.56038e+67  -1.47337e+67  -3.39731e+67   4.90881e+67  -1.00624e+67   3.31609e+67  -5.97115e+65
   2.82641e+50  -5.37992e+62    2.1712e+61   2.99788e+66 -2.95256e+135  3.16619e+202   5.44201e+67  -1.38828e+67   -3.2827e+67   4.97077e+67   1.00097e+67  -3.14013e+67  -4.65706e+65
   2.11135e+50  -5.38863e+62   7.86435e+61   2.93747e+68  1.10223e+136  7.33895e+202   2.74345e+68   1.31294e+67    3.4269e+67   2.46349e+68   1.00141e+67  -3.16768e+67  -7.00925e+65
   -1.4212e+60  -5.38342e+62   7.86071e+61   2.93674e+68  1.09988e+136  7.17204e+202    2.7431e+68   1.31126e+67   3.42609e+67   2.46301e+68   -1.0029e+67  -3.18837e+67  -1.21424e+66
  -3.78958e+59  -5.37471e+62   2.16877e+61   2.97586e+66  -2.9652e+135  3.11619e+202   5.45349e+67  -1.38879e+67  -3.28234e+67   4.96871e+67  -1.00333e+67  -3.16083e+67  -5.87167e+65
   6.66065e+59  -5.96157e+62  -3.73187e+61  -1.62676e+68  4.43473e+135 -2.03833e+202   1.48421e+68  -1.14733e+67  -3.31339e+67  -1.18069e+68   1.00223e+67   3.33416e+67   -1.7049e+65
  -3.78959e+59  -5.96043e+62   2.29621e+61   1.25443e+68  2.95931e+135  1.21092e+202   1.13033e+68   1.41707e+67    3.3355e+67   7.79169e+67   1.00233e+67     3.337e+67   -1.5427e+66
   -7.5679e+59  -5.94503e+62   2.28896e+61   1.25295e+68  3.00498e+135  1.48556e+202   1.12667e+68   1.41366e+67   3.33227e+67   7.78354e+67  -1.00599e+67    3.2498e+67  -1.66585e+66
   1.33256e+60  -5.94617e+62  -3.73414e+61  -1.62576e+68  4.48237e+135 -2.07911e+202   1.48151e+68  -1.14503e+67  -3.31091e+67  -1.18017e+68  -1.00608e+67   3.24695e+67   1.03239e+65
   6.63067e+59  -5.37584e+62  -3.52253e+61  -1.64641e+68  4.79838e+135 -2.54662e+202    1.4936e+68  -1.24744e+67  -3.36443e+67  -1.18523e+68   9.99403e+66  -3.14244e+67   -1.8946e+65
  -3.78958e+59  -5.37471e+62   2.16877e+61   1.26061e+68  3.14592e+135   1.6732e+202   1.12896e+68   1.45597e+67   3.34409e+67   7.80604e+67   9.99496e+66   -3.1396e+67  -1.51699e+66
   -7.5679e+59  -5.35909e+62   2.16151e+61   1.25916e+68  3.08009e+135  1.37415e+202   1.13025e+68   1.45262e+67   3.34092e+67   7.79803e+67  -1.00317e+67  -3.22476e+67  -1.63808e+66
   1.32662e+60  -5.36023e+62  -3.52492e+61  -1.64543e+68  4.73439e+135 -2.46472e+202   1.49466e+68  -1.24517e+67  -3.36198e+67  -1.18472e+68  -1.00326e+67  -3.22761e+67   7.97073e+64
  -3.78959e+59  -5.96043e+62   2.29621e+61   4.22069e+65 -3.11288e+135  3.50547e+202   5.57948e+67  -1.46802e+67  -3.39637e+67    4.9066e+67    1.0019e+67   3.34956e+67   -1.5427e+66
   -1.4242e+60  -5.96928e+62   8.32495e+61   2.88537e+68  9.79821e+135  4.83402e+202   2.71026e+68   1.09536e+67   3.25243e+67   2.45059e+68   1.00307e+67   3.32203e+67  -2.91547e+66
   -2.8466e+60  -5.95388e+62   8.31271e+61    2.8821e+68  9.80857e+135   5.2196e+202   2.70659e+68   1.08782e+67   3.24718e+67    2.4486e+68  -1.00571e+67   3.23483e+67  -3.43569e+66
   -7.5679e+59  -5.94503e+62   2.28896e+61   3.42826e+65 -3.05352e+135  3.63226e+202   5.52597e+67  -1.46985e+67  -3.39591e+67   4.90004e+67  -1.00687e+67   3.26232e+67  -1.66585e+66
  -3.78958e+59  -5.37471e+62   2.16877e+61    3.0159e+66 -2.94309e+135  3.21462e+202    5.4334e+67  -1.38353e+67  -3.28141e+67   4.96654e+67   9.99086e+66  -3.12746e+67  -1.51699e+66
   -1.4212e+60  -5.38342e+62   7.86071e+61   2.93716e+68  1.10357e+136  7.50614e+202   2.74287e+68   1.31892e+67   3.42704e+67   2.46256e+68   1.00021e+67  -3.15499e+67  -2.84507e+66
  -2.84065e+60   -5.3678e+62   7.84858e+61   2.93394e+68   1.0934e+136  6.93411e+202   2.74128e+68    1.3115e+67   3.42187e+67   2.46061e+68  -1.00291e+67  -3.24014e+67  -3.35661e+66
   -7.5679e+59  -5.35909e+62   2.16151e+61   2.93766e+66 -2.99561e+135  3.08743e+202   5.48109e+67  -1.38534e+67  -3.28097e+67   4.96008e+67  -1.00403e+67  -3.21265e+67  -1.63808e+66
   1.33256e+60  -5.94617e+62  -3.73414e+61  -1.62677e+68  4.46065e+135 -1.93394e+202   1.48334e+68  -1.16305e+67  -3.31322e+67  -1.17914e+68   1.00326e+67   3.31393e+67     1.993e+66
   -7.5679e+59  -5.94503e+62   2.28896e+61   1.25371e+68  2.96861e+135  1.14828e+202   1.12912e+68   1.42403e+67   3.33402e+67   7.77901e+67   1.00287e+67   3.31676e+67  -2.60676e+66
  -1.13242e+60  -5.91935e+62   2.27688e+61   1.25089e+68   3.1751e+135  1.79174e+202   1.11679e+68   1.41753e+67   3.32674e+67   7.76464e+67  -9.93489e+66   2.95649e+67  -2.72918e+66
   1.99503e+60   -5.9205e+62  -3.72674e+61    -1.623e+68  4.65456e+135 -2.43895e+202   1.47264e+68  -1.15436e+67  -3.30531e+67  -1.17703e+68  -9.93091e+66   2.95367e+67   2.26396e+66
   1.32662e+60  -5.36023e+62  -3.52492e+61  -1.64636e+68  4.79833e+135 -2.69049e+202   1.49354e+68  -1.26246e+67  -3.36411e+67   -1.1837e+68   1.00037e+67  -3.16082e+67    1.9221e+66
   -7.5679e+59  -5.35909e+62   2.16151e+61    1.2599e+68  3.13027e+135  1.71254e+202   1.12886e+68   1.46281e+67   3.34264e+67   7.79358e+67   9.99987e+66  -3.15799e+67  -2.56329e+66
  -1.13242e+60  -5.33306e+62   2.14944e+61   1.25714e+68  2.87292e+135  1.00526e+202   1.13715e+68   1.45643e+67   3.33549e+67   7.77945e+67  -9.90866e+66  -3.51472e+67  -2.68367e+66
   1.98624e+60  -5.33419e+62  -3.51772e+61  -1.64265e+68  4.52824e+135 -2.09362e+202   1.49849e+68   -1.2539e+67  -3.35633e+67  -1.18163e+68  -9.90483e+66  -3.51754e+67   2.18853e+66
   -7.5679e+59  -5.94503e+62   2.28896e+61   4.18769e+65 -3.09634e+135  3.40044e+202   5.56463e+67  -1.45948e+67  -3.39416e+67   4.89551e+67   1.00198e+67   3.32928e+67  -2.60676e+66
   -2.8466e+60  -5.95388e+62   8.31271e+61   2.88472e+68  9.84084e+135  4.62539e+202   2.70879e+68    1.1271e+67   3.25322e+67   2.44669e+68   1.00474e+67   3.30185e+67  -7.20725e+66
   -4.2605e+60  -5.92819e+62   8.28115e+61   2.87734e+68  9.96403e+135  5.68178e+202   2.69864e+68   1.11007e+67   3.24161e+67   2.44217e+68  -9.91934e+66   2.94162e+67  -7.72317e+66
  -1.13242e+60  -5.91935e+62   2.27688e+61   3.38948e+65 -2.86293e+135  3.41194e+202   5.35075e+67  -1.46132e+67  -3.39058e+67   4.88579e+67   -9.9469e+66   2.96898e+67  -2.72918e+66
   -7.5679e+59  -5.35909e+62   2.16151e+61   3.01229e+66 -2.95165e+135  3.28361e+202   5.44126e+67  -1.37514e+67  -3.27925e+67   4.95562e+67   9.99127e+66  -3.14588e+67  -2.56329e+66
  -2.84065e+60   -5.3678e+62   7.84858e+61   2.93645e+68  1.10517e+136  7.82568e+202   2.74182e+68   1.34966e+67   3.42766e+67   2.45872e+68    1.0018e+67  -3.17332e+67  -7.04939e+66
  -4.25168e+60  -5.34175e+62   7.81722e+61    2.9292e+68  1.07101e+136  6.38971e+202   2.74029e+68   1.33293e+67   3.41627e+67   2.45428e+68  -9.89361e+66  -3.53001e+67  -7.55671e+66
  -1.13242e+60  -5.33306e+62   2.14944e+61   2.93436e+66 -3.18266e+135  3.27054e+202   5.64913e+67  -1.37694e+67   -3.2757e+67   4.94608e+67  -9.92035e+66  -3.50265e+67  -2.68367e+66
    4.1833e+50  -6.58633e+62  -3.94372e+61  -1.65271e+68  4.57063e+135 -2.14064e+202   1.50811e+68  -1.15225e+67   -3.3673e+67  -1.20075e+68    1.0067e+67   3.38058e+67   -2.2997e+65
   3.33884e+50  -6.58516e+62   2.42826e+61    1.2754e+68  3.06607e+135  1.37773e+202   1.14893e+68   1.43551e+67   3.38987e+67    7.9286e+67   1.00666e+67   3.38353e+67  -4.81763e+65
  -3.78958e+59   -6.5801e+62   2.42583e+61   1.27485e+68  3.07604e+135   1.4644e+202   1.14789e+68   1.43425e+67   3.38855e+67   7.92574e+67  -1.00867e+67   3.36196e+67  -6.07398e+65
   6.69014e+59  -6.58127e+62  -3.94488e+61   -1.6527e+68  4.58478e+135 -2.14043e+202   1.50762e+68  -1.15222e+67  -3.36734e+67  -1.20074e+68  -1.00864e+67   3.35901e+67   4.85511e+64
   3.85825e+50  -5.96671e+62  -3.73069e+61  -1.67304e+68  4.93554e+135 -2.65445e+202   1.51839e+68  -1.25581e+67  -3.42012e+67  -1.20545e+68   1.00388e+67  -3.20891e+67   -2.3051e+65
   3.08125e+50  -5.96556e+62   2.29864e+61   1.28178e+68  3.24475e+135  1.69665e+202   1.14826e+68    1.4758e+67    3.3987e+67   7.94334e+67   1.00384e+67  -3.20596e+67  -4.73595e+65
  -3.78959e+59  -5.96043e+62   2.29621e+61   1.28125e+68  3.22659e+135  1.59898e+202   1.14845e+68   1.47456e+67    3.3974e+67   7.94052e+67  -1.00582e+67  -3.22714e+67  -5.97101e+65
   6.66065e+59  -5.96157e+62  -3.73187e+61  -1.67303e+68  4.92153e+135 -2.64486e+202   1.51884e+68  -1.25578e+67  -3.42016e+67  -1.20543e+68  -1.00579e+67  -3.23009e+67   4.32903e+64
   3.33884e+50  -6.58516e+62   2.42826e+61    4.4253e+65 -3.21149e+135    3.773e+202   5.66717e+67  -1.49751e+67  -3.45383e+67   4.99559e+67   1.00666e+67   3.39654e+67  -4.81763e+65
    2.4912e+50  -6.59417e+62   8.80091e+61   2.93252e+68  1.00755e+136  5.15551e+202   2.75538e+68   1.08932e+67   3.30332e+67   2.49326e+68   1.00713e+67   3.36802e+67  -7.33667e+65
  -1.42716e+60  -6.58911e+62   8.79722e+61   2.93174e+68  1.00788e+136  5.27849e+202   2.75449e+68    1.0875e+67    3.3024e+67   2.49275e+68  -1.00865e+67   3.34645e+67  -1.26368e+66
  -3.78958e+59   -6.5801e+62   2.42583e+61   4.19535e+65  -3.1964e+135  3.82379e+202   5.65383e+67  -1.49804e+67  -3.45346e+67   4.99345e+67  -1.00911e+67   3.37496e+67  -6.07398e+65
   3.08125e+50  -5.96556e+62   2.29864e+61   3.12688e+66 -3.05027e+135  3.33748e+202   5.53177e+67  -1.41001e+67  -3.33484e+67   5.05754e+67   1.00384e+67  -3.19339e+67  -4.73595e+65
   2.30196e+50  -5.97442e+62   8.32861e+61    2.9861e+68  1.13596e+136  7.67596e+202   2.78941e+68   1.32075e+67   3.48399e+67   2.50562e+68   1.00429e+67  -3.22191e+67  -7.16785e+65
   -1.4242e+60  -5.96928e+62   8.32495e+61   2.98532e+68  1.13347e+136  7.50116e+202   2.78903e+68   1.31897e+67   3.48309e+67   2.50512e+68  -1.00579e+67  -3.24308e+67  -1.23782e+66
  -3.78959e+59  -5.96043e+62   2.29621e+61   3.10435e+66 -3.06343e+135  3.28601e+202   5.54352e+67  -1.41053e+67  -3.33448e+67   5.05544e+67  -1.00624e+67  -3.21458e+67  -5.97101e+65
   6.69014e+59  -6.58127e+62  -3.94488e+61  -1.65243e+68  4.55885e+135 -2.12314e+202   1.50819e+68  -1.15013e+67  -3.36673e+67  -1.20075e+68   1.00502e+67   3.39257e+67  -1.50616e+65
  -3.78958e+59   -6.5801e+62   2.42583e+61   1.27527e+68  3.05795e+135  1.29071e+202   1.14914e+68   1.43969e+67    3.3895e+67   7.92349e+67   1.00511e+67   3.39553e+67  -1.56929e+66
  -7.56789e+59  -6.56492e+62   2.41858e+61   1.27376e+68  3.10595e+135  1.57776e+202   1.14537e+68   1.43621e+67    3.3862e+67    7.9152e+67  -1.00877e+67   3.30573e+67  -1.69455e+66
    1.3384e+60  -6.56608e+62  -3.94703e+61  -1.65135e+68  4.60824e+135 -2.16847e+202   1.50536e+68  -1.14762e+67  -3.36405e+67  -1.20018e+68  -1.00886e+67   3.30278e+67   1.26948e+65
   6.66065e+59  -5.96157e+62  -3.73187e+61  -1.67272e+68  4.93908e+135 -2.66372e+202   1.51792e+68   -1.2534e+67  -3.41945e+67  -1.20543e+68   1.00223e+67  -3.19662e+67  -1.71454e+65
  -3.78959e+59  -5.96043e+62   2.29621e+61   1.28166e+68  3.25263e+135  1.77608e+202   1.14777e+68   1.47991e+67   3.39834e+67   7.93831e+67   1.00233e+67  -3.19367e+67  -1.54269e+66
   -7.5679e+59  -5.94503e+62   2.28896e+61   1.28018e+68  3.18388e+135  1.46361e+202   1.14911e+68    1.4765e+67   3.39511e+67   7.93016e+67  -1.00599e+67   -3.2813e+67  -1.66582e+66
   1.33256e+60  -5.94617e+62  -3.73414e+61  -1.67165e+68  4.87156e+135 -2.57421e+202   1.51896e+68  -1.25092e+67  -3.41679e+67  -1.20487e+68  -1.00608e+67  -3.28425e+67   1.01406e+65
  -3.78958e+59   -6.5801e+62   2.42583e+61   4.60989e+65 -3.21808e+135   3.7034e+202     5.673e+67   -1.4926e+67  -3.45251e+67    4.9912e+67   1.00467e+67   3.40852e+67  -1.56929e+66
  -1.42716e+60  -6.58911e+62   8.79722e+61   2.93228e+68  1.00752e+136  5.01878e+202   2.75513e+68   1.09617e+67   3.30365e+67    2.4923e+68   1.00588e+67   3.38003e+67  -2.98855e+66
  -2.85245e+60  -6.57392e+62   8.78486e+61   2.92888e+68  1.00856e+136  5.42042e+202   2.75132e+68   1.08833e+67   3.29815e+67   2.49023e+68  -1.00847e+67   3.29024e+67  -3.51684e+66
  -7.56789e+59  -6.56492e+62   2.41858e+61   3.80724e+65 -3.15588e+135  3.83272e+202   5.61785e+67  -1.49445e+67  -3.45201e+67   4.98453e+67  -1.00968e+67   3.31869e+67  -1.69455e+66
  -3.78959e+59  -5.96043e+62   2.29621e+61    3.1451e+66 -3.04086e+135  3.38802e+202   5.52336e+67  -1.40518e+67  -3.33354e+67   5.05322e+67    1.0019e+67  -3.18111e+67  -1.54269e+66
   -1.4242e+60  -5.96928e+62   8.32495e+61    2.9858e+68   1.1374e+136  7.85251e+202   2.78884e+68   1.32714e+67    3.4842e+67   2.50467e+68   1.00307e+67   -3.2096e+67  -2.91449e+66
   -2.8466e+60  -5.95388e+62   8.31271e+61   2.98246e+68   1.1267e+136  7.25256e+202   2.78718e+68   1.31942e+67   3.47877e+67   2.50264e+68  -1.00571e+67  -3.29722e+67  -3.43382e+66
   -7.5679e+59  -5.94503e+62   2.28896e+61   3.06582e+66 -3.09583e+135  3.25805e+202   5.57246e+67  -1.40701e+67  -3.33307e+67   5.04666e+67  -1.00687e+67  -3.26877e+67  -1.66582e+66
    1.3384e+60  -6.56608e+62  -3.94703e+61  -1.65242e+68  4.58703e+135 -2.01562e+202   1.50725e+68  -1.16635e+67  -3.36653e+67  -1.19913e+68   1.00612e+67   3.36995e+67   2.06515e+66
  -7.56789e+59  -6.56492e+62   2.41858e+61   1.27453e+68  3.06892e+135  1.22774e+202   1.14784e+68   1.44677e+67   3.38798e+67   7.91059e+67   1.00571e+67   3.37288e+67  -2.65168e+66
  -1.13242e+60  -6.53961e+62    2.4065e+61   1.27167e+68  3.28137e+135  1.89777e+202   1.13534e+68   1.44016e+67   3.38057e+67   7.89597e+67  -9.96078e+66   3.00831e+67  -2.77621e+66
    2.0037e+60  -6.54077e+62  -3.93943e+61  -1.64855e+68  4.78613e+135  -2.5423e+202   1.49636e+68  -1.15741e+67  -3.35839e+67  -1.19697e+68  -9.95663e+66   3.00539e+67   2.34004e+66
   1.33256e+60  -5.94617e+62  -3.73414e+61  -1.67265e+68  4.93784e+135 -2.81285e+202   1.51788e+68  -1.26894e+67  -3.41911e+67  -1.20384e+68   1.00327e+67  -3.21727e+67   1.99117e+66
   -7.5679e+59  -5.94503e+62   2.28896e+61   1.28094e+68  3.23516e+135  1.81462e+202   1.14773e+68   1.48687e+67   3.39686e+67   7.92564e+67   1.00287e+67  -3.21434e+67  -2.60673e+66
  -1.13242e+60  -5.91935e+62   2.27688e+61   1.27812e+68  2.97011e+135  1.07744e+202   1.15611e+68   1.48038e+67   3.38958e+67   7.91127e+67  -9.93489e+66   -3.5753e+67  -2.72915e+66
   1.99503e+60   -5.9205e+62  -3.72674e+61  -1.66884e+68  4.65926e+135  -2.1888e+202   1.52286e+68  -1.26015e+67   -3.4111e+67  -1.20171e+68  -9.93091e+66  -3.57822e+67    2.2614e+66
  -7.56789e+59  -6.56492e+62   2.41858e+61   4.57992e+65 -3.19957e+135   3.5918e+202   5.65666e+67   -1.4839e+67  -3.45023e+67   4.97993e+67    1.0048e+67   3.38584e+67  -2.65168e+66
  -2.85245e+60  -6.57392e+62   8.78486e+61    2.9316e+68  1.01208e+136  4.80373e+202   2.75358e+68    1.1287e+67   3.30443e+67   2.48829e+68   1.00764e+67   3.35745e+67  -7.36928e+66
  -4.26918e+60   -6.5486e+62    8.7531e+61   2.92405e+68  1.02464e+136  5.90041e+202   2.74325e+68   1.11127e+67    3.2925e+67   2.48367e+68  -9.94469e+66   2.99293e+67  -7.89336e+66
  -1.13242e+60  -6.53961e+62    2.4065e+61   3.76402e+65 -2.95928e+135  3.60084e+202   5.44006e+67  -1.48578e+67  -3.44661e+67   4.97003e+67  -9.97313e+66   3.02124e+67  -2.77621e+66
   -7.5679e+59  -5.94503e+62   2.28896e+61   3.14176e+66 -3.05099e+135  3.46138e+202    5.5325e+67  -1.39664e+67  -3.33132e+67   5.04213e+67   1.00198e+67  -3.20181e+67  -2.60673e+66
   -2.8466e+60  -5.95388e+62   8.31271e+61   2.98508e+68  1.13895e+136  8.18508e+202   2.78778e+68    1.3587e+67   3.48482e+67   2.50072e+68   1.00474e+67  -3.23021e+67  -7.20538e+66
   -4.2605e+60  -5.92819e+62   8.28115e+61   2.97766e+68  1.10367e+136   6.6876e+202   2.78617e+68   1.34158e+67   3.47311e+67   2.49619e+68  -9.91933e+66  -3.59113e+67  -7.72057e+66
  -1.13242e+60  -5.91935e+62   2.27688e+61   3.06206e+66  -3.2888e+135  3.45058e+202   5.74298e+67  -1.39848e+67  -3.32774e+67   5.03242e+67   -9.9469e+66  -3.56281e+67  -2.72915e+66
   4.51015e+50   -7.2405e+62  -4.16056e+61  -1.67928e+68  4.70066e+135 -2.23202e+202   1.53295e+68  -1.15512e+67  -3.42249e+67  -1.22152e+68   1.00947e+67   3.44148e+67  -2.28968e+65
   3.59792e+50  -7.23932e+62   2.56013e+61   1.29697e+68  3.16971e+135  1.46661e+202   1.16841e+68   1.45885e+67    3.4458e+67   8.06509e+67   1.00944e+67   3.44455e+67  -4.90225e+65
  -3.78958e+59  -7.23434e+62   2.55771e+61   1.29642e+68  3.18018e+135  1.55705e+202   1.16734e+68   1.45757e+67   3.44445e+67   8.06218e+67  -1.01148e+67   3.42241e+67  -6.18074e+65
   6.71919e+59  -7.23551e+62  -4.16169e+61  -1.67924e+68  4.71518e+135 -2.23224e+202   1.53243e+68  -1.15503e+67  -3.42246e+67  -1.22149e+68  -1.01145e+67   3.41934e+67   5.35653e+64
    4.1833e+50  -6.58633e+62  -3.94372e+61  -1.70028e+68  5.08356e+135 -2.77836e+202   1.54356e+68  -1.26202e+67  -3.47707e+67  -1.22637e+68    1.0067e+67  -3.26454e+67  -2.29972e+65
   3.33884e+50  -6.58516e+62   2.42826e+61   1.30358e+68  3.35729e+135  1.80486e+202   1.16773e+68   1.50054e+67    3.4549e+67   8.08033e+67   1.00666e+67  -3.26147e+67  -4.81762e+65
  -3.78958e+59   -6.5801e+62   2.42583e+61   1.30303e+68   3.3384e+135  1.70298e+202   1.16793e+68   1.49928e+67   3.45357e+67   8.07746e+67  -1.00867e+67  -3.28318e+67  -6.07407e+65
   6.69014e+59  -6.58127e+62  -3.94488e+61  -1.70024e+68  5.06869e+135 -2.76732e+202     1.544e+68  -1.26193e+67  -3.47705e+67  -1.22634e+68  -1.00864e+67  -3.28624e+67   4.76905e+64
   3.59792e+50  -7.23932e+62   2.56013e+61   4.80889e+65 -3.32244e+135  3.98894e+202   5.76426e+67  -1.52307e+67  -3.51201e+67   5.08317e+67   1.00944e+67   3.45801e+67  -4.90225e+65
   2.68572e+50  -7.24848e+62   9.28152e+61   2.98105e+68  1.03652e+136  5.35629e+202   2.80181e+68   1.08992e+67   3.35624e+67   2.53644e+68   1.00992e+67   3.42848e+67  -7.51601e+65
  -1.43007e+60  -7.24349e+62   9.27781e+61   2.98022e+68  1.03684e+136  5.48388e+202   2.80087e+68     1.088e+67   3.35524e+67    2.5359e+68  -1.01146e+67   3.40634e+67  -1.29007e+66
  -3.78958e+59  -7.23434e+62   2.55771e+61    4.5739e+65 -3.30667e+135  4.04119e+202   5.75055e+67  -1.52361e+67  -3.51164e+67   5.08099e+67  -1.01194e+67   3.43586e+67  -6.18074e+65
   3.33884e+50  -6.58516e+62   2.42826e+61   3.26033e+66 -3.15305e+135  3.52101e+202   5.62466e+67  -1.43248e+67   -3.3888e+67   5.14731e+67   1.00666e+67  -3.24846e+67  -4.81762e+65
    2.4912e+50  -6.59417e+62   8.80091e+61   3.03646e+68  1.17152e+136  8.03825e+202     2.837e+68   1.32918e+67   3.54317e+67   2.54922e+68   1.00713e+67    -3.278e+67  -7.33664e+65
  -1.42716e+60  -6.58911e+62   8.79722e+61   3.03564e+68  1.16889e+136  7.85499e+202   2.83659e+68    1.3273e+67   3.54219e+67    2.5487e+68  -1.00865e+67   -3.2997e+67  -1.26285e+66
  -3.78958e+59   -6.5801e+62   2.42583e+61   3.23728e+66 -3.16676e+135  3.46802e+202    5.6367e+67  -1.43301e+67  -3.38844e+67   5.14517e+67  -1.00911e+67  -3.27018e+67  -6.07407e+65
   6.71919e+59  -7.23551e+62  -4.16169e+61  -1.67902e+68  4.68935e+135 -2.21379e+202   1.53303e+68  -1.15323e+67  -3.42195e+67   -1.2215e+68   1.00776e+67   3.45299e+67  -1.28741e+65
  -3.78958e+59  -7.23434e+62   2.55771e+61   1.29684e+68  3.16177e+135  1.37672e+202    1.1686e+68   1.46311e+67   3.44543e+67   8.05989e+67   1.00785e+67   3.45606e+67  -1.59684e+66
  -7.56789e+59  -7.21937e+62   2.55045e+61    1.2953e+68  3.21223e+135  1.67695e+202   1.16473e+68   1.45956e+67   3.44205e+67   8.05144e+67  -1.01151e+67   3.36359e+67  -1.72431e+66
   1.34415e+60  -7.22055e+62  -4.16372e+61  -1.67784e+68  4.74064e+135 -2.26423e+202   1.53006e+68  -1.15051e+67  -3.41906e+67  -1.22089e+68   -1.0116e+67   3.36052e+67   1.52869e+65
   6.69014e+59  -6.58127e+62  -3.94488e+61  -1.69997e+68  5.08727e+135 -2.78954e+202   1.54311e+68  -1.25985e+67  -3.47644e+67  -1.22634e+68   1.00502e+67  -3.25268e+67   -1.5148e+65
  -3.78958e+59   -6.5801e+62   2.42583e+61   1.30345e+68  3.36502e+135  1.88681e+202   1.16725e+68   1.50472e+67   3.45453e+67   8.07521e+67   1.00511e+67  -3.24961e+67   -1.5693e+66
  -7.56789e+59  -6.56492e+62   2.41858e+61   1.30194e+68  3.29316e+135  1.56003e+202   1.16864e+68   1.50124e+67   3.45122e+67   8.06692e+67  -1.00877e+67  -3.33981e+67  -1.69456e+66
    1.3384e+60  -6.56608e+62  -3.94703e+61  -1.69881e+68  5.01606e+135 -2.69171e+202   1.54414e+68  -1.25716e+67  -3.47358e+67  -1.22574e+68  -1.00886e+67  -3.34288e+67   1.25275e+65
  -3.78958e+59  -7.23434e+62   2.55771e+61   4.99609e+65 -3.32879e+135  3.91598e+202   5.76979e+67  -1.51807e+67  -3.51067e+67    5.0787e+67   1.00739e+67   3.46952e+67  -1.59684e+66
  -1.43007e+60  -7.24349e+62   9.27781e+61   2.98083e+68  1.03662e+136  5.21539e+202   2.80156e+68   1.09717e+67   3.35663e+67   2.53545e+68   1.00865e+67   3.44001e+67  -3.06557e+66
  -2.85822e+60  -7.22852e+62   9.26532e+61    2.9773e+68  1.03767e+136  5.63423e+202   2.79761e+68   1.08902e+67   3.35089e+67   2.53331e+68  -1.01119e+67   3.34755e+67  -3.60232e+66
  -7.56789e+59  -7.21937e+62   2.55045e+61   4.18323e+65  -3.2636e+135  4.04782e+202   5.71295e+67  -1.51995e+67  -3.51015e+67   5.07193e+67  -1.01245e+67   3.37701e+67  -1.72431e+66
  -3.78958e+59   -6.5801e+62   2.42583e+61   3.27874e+66 -3.14372e+135  3.57382e+202   5.61647e+67  -1.42757e+67  -3.38748e+67   5.14292e+67   1.00467e+67  -3.23662e+67   -1.5693e+66
  -1.42716e+60  -6.58911e+62   8.79722e+61   3.03619e+68  1.17305e+136  8.22446e+202   2.83644e+68   1.33597e+67   3.54344e+67   2.54825e+68   1.00588e+67  -3.26612e+67  -2.98771e+66
  -2.85245e+60  -6.57392e+62   8.78486e+61   3.03271e+68  1.16181e+136  7.59473e+202    2.8347e+68   1.32796e+67   3.53777e+67   2.54614e+68  -1.00847e+67  -3.35631e+67   -3.5152e+66
  -7.56789e+59  -6.56492e+62   2.41858e+61   3.19841e+66  -3.2013e+135  3.44102e+202   5.66703e+67  -1.42942e+67  -3.38699e+67   5.13625e+67  -1.00968e+67  -3.32685e+67  -1.69456e+66
   1.34415e+60  -7.22055e+62  -4.16372e+61  -1.67899e+68   4.7199e+135 -2.10296e+202   1.53199e+68  -1.16994e+67   -3.4217e+67  -1.21982e+68   1.00895e+67   3.42787e+67   2.14067e+66
  -7.56789e+59  -7.21937e+62   2.55045e+61   1.29609e+68  3.17455e+135  1.31353e+202   1.16722e+68    1.4703e+67   3.44386e+67   8.04675e+67   1.00851e+67   3.43092e+67   -2.6982e+66
  -1.13242e+60  -7.19443e+62   2.53837e+61   1.29318e+68  3.39315e+135  2.01157e+202   1.15455e+68   1.46357e+67   3.43631e+67   8.03188e+67  -9.98632e+66   3.06202e+67  -2.82492e+66
   2.01224e+60  -7.19561e+62  -4.15592e+61  -1.67501e+68  4.92439e+135  -2.6526e+202   1.52093e+68  -1.16076e+67  -3.41334e+67   -1.2176e+68  -9.98198e+66   3.05899e+67   2.41967e+66
    1.3384e+60  -6.56608e+62  -3.94703e+61  -1.69989e+68  5.08466e+135 -2.94401e+202    1.5431e+68  -1.27589e+67  -3.47606e+67  -1.22469e+68   1.00612e+67  -3.27571e+67   2.06347e+66
  -7.56789e+59  -6.56492e+62   2.41858e+61   1.30271e+68  3.34559e+135  1.92434e+202   1.16726e+68   1.51179e+67   3.45301e+67   8.06231e+67   1.00571e+67  -3.27266e+67  -2.65169e+66
  -1.13242e+60  -6.53961e+62    2.4065e+61   1.29985e+68  3.07251e+135  1.15552e+202   1.17573e+68   1.50518e+67    3.4456e+67   8.04769e+67  -9.96077e+66  -3.63789e+67  -2.77622e+66
    2.0037e+60  -6.54077e+62  -3.93943e+61  -1.69597e+68  4.79728e+135 -2.29104e+202   1.54809e+68  -1.26686e+67  -3.46784e+67   -1.2225e+68  -9.95662e+66  -3.64092e+67   2.33766e+66
  -7.56789e+59  -7.21937e+62   2.55045e+61   4.97009e+65 -3.30818e+135  3.79729e+202   5.75189e+67  -1.50921e+67  -3.50833e+67   5.06724e+67   1.00757e+67   3.44434e+67   -2.6982e+66
  -2.85822e+60  -7.22852e+62   9.26532e+61   2.98012e+68  1.04148e+136  4.99355e+202   2.79993e+68    1.1305e+67    3.3574e+67   2.53133e+68   1.01051e+67   3.41494e+67  -7.53789e+66
  -4.27774e+60  -7.20357e+62   9.23336e+61   2.97239e+68  1.05429e+136  6.13265e+202   2.78941e+68   1.11266e+67   3.34514e+67   2.52661e+68  -9.96966e+66   3.04609e+67  -8.07044e+66
  -1.13242e+60  -7.19443e+62   2.53837e+61   4.13605e+65 -3.06075e+135  3.80363e+202   5.53256e+67  -1.51114e+67  -3.50467e+67   5.05717e+67  -9.99903e+66    3.0754e+67  -2.82492e+66
  -7.56789e+59  -6.56492e+62   2.41858e+61   3.27568e+66 -3.15552e+135  3.65187e+202   5.62695e+67  -1.41887e+67  -3.38521e+67   5.13165e+67    1.0048e+67   -3.2597e+67  -2.65169e+66
  -2.85245e+60  -6.57392e+62   8.78486e+61   3.03543e+68  1.17453e+136  8.57034e+202   2.83537e+68   1.36833e+67   3.54405e+67    2.5442e+68   1.00764e+67  -3.28911e+67  -7.36764e+66
  -4.26918e+60   -6.5486e+62    8.7531e+61   3.02784e+68  1.13808e+136  7.00762e+202   2.83368e+68   1.35081e+67   3.53203e+67   2.53956e+68  -9.94468e+66  -3.65428e+67    -7.891e+66
  -1.13242e+60  -6.53961e+62    2.4065e+61   3.19419e+66 -3.40041e+135  3.64352e+202   5.84005e+67  -1.42075e+67  -3.38159e+67   5.12176e+67  -9.97313e+66  -3.62497e+67  -2.77622e+66
   4.83572e+50  -7.92984e+62  -4.38134e+61  -1.70682e+68  4.83747e+135 -2.32983e+202   1.55868e+68  -1.15831e+67  -3.47966e+67  -1.24302e+68   1.01221e+67   3.50453e+67  -2.27495e+65
    3.8612e+50  -7.92865e+62   2.69434e+61   1.31932e+68  3.27885e+135  1.56238e+202   1.18858e+68   1.48301e+67   3.50374e+67   8.20643e+67   1.01217e+67   3.50772e+67   -4.9901e+65
   -3.7896e+59  -7.92374e+62   2.69192e+61   1.31875e+68  3.28986e+135  1.65685e+202   1.18749e+68   1.48171e+67   3.50238e+67   8.20346e+67  -1.01425e+67   3.48497e+67  -6.29175e+65
   6.74781e+59  -7.92493e+62  -4.38244e+61  -1.70675e+68  4.85241e+135  -2.3306e+202   1.55813e+68  -1.15814e+67  -3.47956e+67  -1.24298e+68  -1.01422e+67   3.48178e+67   5.92484e+64
   4.51015e+50   -7.2405e+62  -4.16056e+61  -1.72851e+68  5.23961e+135 -2.91156e+202   1.56965e+68  -1.26873e+67   -3.5361e+67  -1.24803e+68   1.00947e+67  -3.32211e+67  -2.28969e+65
   3.59792e+50  -7.23932e+62   2.56013e+61   1.32615e+68  3.47593e+135  1.92155e+202   1.18789e+68   1.52619e+67   3.51313e+67    8.2222e+67   1.00944e+67  -3.31892e+67  -4.90224e+65
  -3.78958e+59  -7.23434e+62   2.55771e+61    1.3256e+68  3.45626e+135  1.81517e+202    1.1881e+68   1.52491e+67   3.51178e+67   8.21928e+67  -1.01148e+67  -3.34119e+67  -6.18106e+65
   6.71919e+59  -7.23551e+62  -4.16169e+61  -1.72845e+68  5.22383e+135  -2.8989e+202   1.57008e+68  -1.26858e+67  -3.53601e+67  -1.24799e+68  -1.01145e+67  -3.34438e+67   5.27435e+64
    3.8612e+50  -7.92865e+62   2.69434e+61   5.18876e+65 -3.43934e+135  4.22115e+202   5.86482e+67  -1.54959e+67  -3.57234e+67   5.17382e+67   1.01217e+67   3.52167e+67   -4.9901e+65
    2.8848e+50  -7.93797e+62   9.77074e+61   3.03131e+68  1.06697e+136  5.57002e+202   2.84989e+68   1.09069e+67   3.41102e+67   2.58114e+68   1.01267e+67   3.49107e+67  -7.70656e+65
  -1.43295e+60  -7.93305e+62     9.767e+61   3.03044e+68  1.06727e+136  5.70253e+202   2.84891e+68   1.08867e+67   3.40993e+67   2.58058e+68  -1.01423e+67   3.46832e+67  -1.31799e+66
   -3.7896e+59  -7.92374e+62   2.69192e+61   4.94812e+65 -3.42284e+135  4.27489e+202   5.85072e+67  -1.55015e+67  -3.57197e+67    5.1716e+67  -1.01472e+67   3.49891e+67  -6.29175e+65
   3.59792e+50  -7.23932e+62   2.56013e+61   3.39862e+66 -3.26124e+135  3.71788e+202   5.72083e+67  -1.45573e+67  -3.44468e+67   5.24028e+67   1.00944e+67  -3.30546e+67  -4.90224e+65
   2.68572e+50  -7.24848e+62   9.28152e+61   3.08866e+68  1.20903e+136  8.42778e+202    2.8863e+68   1.33824e+67   3.60455e+67   2.59438e+68   1.00992e+67  -3.33606e+67  -7.51598e+65
  -1.43007e+60  -7.24349e+62   9.27781e+61    3.0878e+68  1.20625e+136  8.23545e+202   2.88587e+68   1.33625e+67   3.60348e+67   2.59382e+68  -1.01146e+67  -3.35832e+67  -1.28933e+66
  -3.78958e+59  -7.23434e+62   2.55771e+61   3.37499e+66 -3.27555e+135  3.66332e+202   5.73319e+67  -1.45628e+67  -3.44431e+67   5.23809e+67  -1.01194e+67  -3.32774e+67  -6.18106e+65
   6.74781e+59  -7.92493e+62  -4.38244e+61  -1.70657e+68  4.82667e+135 -2.31076e+202   1.55876e+68  -1.15664e+67  -3.47915e+67  -1.24299e+68   1.01046e+67   3.51552e+67  -1.04877e+65
   -3.7896e+59  -7.92374e+62   2.69192e+61   1.31919e+68  3.27114e+135  1.46951e+202   1.18875e+68   1.48736e+67   3.50337e+67   8.20113e+67   1.01055e+67   3.51872e+67  -1.62545e+66
  -7.56792e+59    -7.909e+62   2.68466e+61   1.31762e+68  3.32419e+135  1.78376e+202   1.18477e+68   1.48373e+67   3.49991e+67   8.19251e+67  -1.01422e+67   3.42346e+67   -1.7552e+66
   1.34983e+60  -7.91019e+62  -4.38434e+61   -1.7053e+68     4.88e+135 -2.36688e+202   1.55566e+68  -1.15372e+67  -3.47606e+67  -1.24233e+68  -1.01431e+67   3.42027e+67   1.80964e+65
   6.71919e+59  -7.23551e+62  -4.16169e+61  -1.72823e+68  5.24344e+135 -2.92478e+202   1.56921e+68  -1.26679e+67   -3.5355e+67    -1.248e+68   1.00776e+67  -3.31073e+67  -1.29567e+65
  -3.78958e+59  -7.23434e+62   2.55771e+61   1.32602e+68  3.48349e+135   2.0061e+202   1.18742e+68   1.53044e+67   3.51276e+67   8.21699e+67   1.00785e+67  -3.30754e+67  -1.59687e+66
  -7.56789e+59  -7.21937e+62   2.55045e+61   1.32448e+68  3.40831e+135  1.66406e+202   1.18887e+68   1.52689e+67   3.50937e+67   8.20853e+67  -1.01151e+67   -3.4004e+67  -1.72435e+66
   1.34415e+60  -7.22055e+62  -4.16372e+61  -1.72698e+68  5.16836e+135 -2.81787e+202   1.57023e+68   -1.2639e+67  -3.53245e+67  -1.24734e+68   -1.0116e+67  -3.40359e+67   1.51259e+65
   -3.7896e+59  -7.92374e+62   2.69192e+61   5.37943e+65 -3.44542e+135  4.14458e+202   5.87002e+67   -1.5445e+67  -3.57097e+67   5.16927e+67   1.01007e+67   3.53266e+67  -1.62545e+66
  -1.43295e+60  -7.93305e+62     9.767e+61   3.03111e+68   1.0672e+136   5.4247e+202   2.84963e+68   1.09835e+67   3.41147e+67   2.58012e+68   1.01139e+67   3.50208e+67  -3.14669e+66
  -2.86391e+60  -7.91831e+62   9.75438e+61   3.02744e+68  1.06827e+136  5.86189e+202   2.84555e+68   1.08989e+67   3.40547e+67    2.5779e+68  -1.01387e+67   3.40684e+67  -3.69226e+66
  -7.56792e+59    -7.909e+62   2.68466e+61   4.55498e+65 -3.37705e+135  4.27892e+202   5.81142e+67  -1.54641e+67  -3.57042e+67   5.16237e+67  -1.01519e+67   3.43737e+67   -1.7552e+66
  -3.78958e+59  -7.23434e+62   2.55771e+61   3.41721e+66 -3.25204e+135   3.7731e+202   5.71289e+67  -1.45074e+67  -3.44334e+67    5.2358e+67   1.00739e+67  -3.29408e+67  -1.59687e+66
  -1.43007e+60  -7.24349e+62   9.27781e+61    3.0884e+68  1.21065e+136  8.62416e+202   2.88575e+68   1.34542e+67   3.60488e+67   2.59337e+68   1.00866e+67  -3.32465e+67  -3.06482e+66
  -2.85822e+60  -7.22852e+62   9.26532e+61   3.08479e+68  1.19883e+136  7.96256e+202   2.88394e+68    1.3371e+67   3.59895e+67   2.59119e+68  -1.01119e+67   -3.4175e+67  -3.60082e+66
  -7.56789e+59  -7.21937e+62   2.55045e+61   3.33569e+66 -3.31236e+135  3.63746e+202   5.76497e+67  -1.45262e+67  -3.44282e+67   5.22901e+67  -1.01245e+67  -3.38698e+67  -1.72435e+66
   1.34983e+60  -7.91019e+62  -4.38434e+61  -1.70651e+68  4.85971e+135 -2.19644e+202   1.55763e+68  -1.17383e+67  -3.47885e+67  -1.24125e+68   1.01174e+67   3.48781e+67   2.21964e+66
  -7.56792e+59    -7.909e+62   2.68466e+61   1.31842e+68  3.28585e+135  1.40622e+202   1.18728e+68   1.49468e+67   3.50176e+67   8.18775e+67   1.01129e+67   3.49098e+67  -2.74642e+66
  -1.13242e+60  -7.88443e+62   2.67258e+61   1.31545e+68  3.51084e+135  2.13385e+202   1.17444e+68   1.48782e+67   3.49406e+67    8.1726e+67  -1.00115e+67   3.11771e+67  -2.87539e+66
   2.02067e+60  -7.88562e+62  -4.37633e+61  -1.70243e+68  5.06979e+135 -2.77043e+202   1.54638e+68   -1.1644e+67  -3.47026e+67  -1.23896e+68   -1.0007e+67   3.11456e+67   2.50291e+66
   1.34415e+60  -7.22055e+62  -4.16372e+61  -1.72812e+68  5.23933e+135 -3.08471e+202   1.56922e+68  -1.28333e+67  -3.53509e+67  -1.24628e+68   1.00895e+67  -3.33624e+67   2.13906e+66
  -7.56789e+59  -7.21937e+62   2.55045e+61   1.32527e+68  3.46193e+135  2.04239e+202   1.18749e+68   1.53763e+67   3.51119e+67   8.20384e+67   1.00851e+67  -3.33306e+67  -2.69825e+66
  -1.13242e+60  -7.19443e+62   2.53837e+61   1.32235e+68   3.1805e+135  1.24005e+202   1.19606e+68    1.5309e+67   3.50363e+67   8.18896e+67  -9.98631e+66   -3.7026e+67  -2.82495e+66
   2.01224e+60  -7.19561e+62  -4.15592e+61   -1.7241e+68  4.94279e+135   -2.401e+202   1.57425e+68  -1.27406e+67  -3.52664e+67  -1.24403e+68  -9.98198e+66  -3.70575e+67   2.41735e+66
  -7.56792e+59    -7.909e+62   2.68466e+61   5.35799e+65 -3.42255e+135  4.01821e+202   5.85051e+67  -1.53546e+67  -3.56856e+67   5.15761e+67   1.01032e+67   3.50488e+67  -2.74642e+66
  -2.86391e+60  -7.91831e+62   9.75438e+61   3.03037e+68  1.07238e+136  5.19574e+202   2.84794e+68    1.1325e+67   3.41223e+67   2.57589e+68   1.01335e+67   3.47442e+67  -7.71334e+66
  -4.28618e+60  -7.89372e+62   9.72221e+61   3.02245e+68  1.08545e+136  6.37955e+202   2.83721e+68   1.11424e+67   3.39963e+67   2.57107e+68  -9.99422e+66    3.1012e+67  -8.25468e+66
  -1.13242e+60  -7.88443e+62   2.67258e+61   4.50447e+65 -3.16769e+135  4.02159e+202    5.6284e+67  -1.53743e+67  -3.56487e+67   5.14734e+67  -1.00246e+67   3.13157e+67  -2.87539e+66
  -7.56789e+59  -7.21937e+62   2.55045e+61   3.41437e+66 -3.26563e+135   3.8562e+202   5.72476e+67  -1.44188e+67  -3.44101e+67   5.22433e+67   1.00757e+67  -3.31964e+67  -2.69825e+66
  -2.85822e+60  -7.22852e+62   9.26532e+61   3.08762e+68  1.21205e+136  8.98379e+202   2.88467e+68   1.37858e+67   3.60547e+67   2.58921e+68   1.01051e+67  -3.35011e+67  -7.53638e+66
  -4.27774e+60  -7.20357e+62   9.23336e+61   3.07985e+68  1.17437e+136  7.35178e+202   2.88289e+68   1.36065e+67   3.59312e+67   2.58447e+68  -9.96965e+66  -3.71959e+67  -8.06822e+66
  -1.13242e+60  -7.19443e+62   2.53837e+61   3.33095e+66 -3.51787e+135  3.85053e+202   5.94051e+67  -1.44381e+67  -3.43735e+67   5.21425e+67  -9.99902e+66  -3.68922e+67  -2.82495e+66
   5.14912e+50    -8.655e+62  -4.60619e+61  -1.73537e+68  4.98155e+135 -2.43463e+202   1.58536e+68  -1.16182e+67  -3.53891e+67   -1.2653e+68    1.0149e+67   3.56985e+67  -2.25548e+65
   4.12642e+50  -8.65378e+62   2.83096e+61   1.34247e+68   3.3939e+135  1.66568e+202   1.20948e+68   1.50804e+67   3.56381e+67   8.35289e+67   1.01487e+67   3.57316e+67  -5.08164e+65
  -3.78964e+59  -8.64895e+62   2.82854e+61    1.3419e+68  3.40548e+135  1.76444e+202   1.20836e+68   1.50671e+67   3.56242e+67   8.34985e+67  -1.01699e+67   3.54977e+67  -6.40749e+65
     6.776e+59  -8.65016e+62  -4.60727e+61  -1.73527e+68  4.99695e+135  -2.4361e+202   1.58476e+68  -1.16159e+67  -3.53875e+67  -1.26524e+68  -1.01695e+67   3.54645e+67   6.55764e+64
   4.83572e+50  -7.92984e+62  -4.38134e+61   -1.7578e+68  5.40425e+135 -3.05487e+202    1.5967e+68  -1.27596e+67  -3.59731e+67  -1.27048e+68   1.01221e+67  -3.38173e+67  -2.27496e+65
    3.8612e+50  -7.92865e+62   2.69434e+61   1.34955e+68  3.60113e+135  2.04751e+202   1.20879e+68   1.55279e+67   3.57351e+67   8.36922e+67   1.01217e+67  -3.37842e+67  -4.99009e+65
   -3.7896e+59  -7.92374e+62   2.69192e+61   1.34899e+68   3.5806e+135  1.93631e+202   1.20901e+68   1.55148e+67   3.57214e+67   8.36623e+67  -1.01425e+67  -3.40129e+67  -6.29226e+65
   6.74781e+59  -7.92493e+62  -4.38244e+61  -1.75771e+68  5.38752e+135  -3.0404e+202   1.59712e+68  -1.27574e+67  -3.59715e+67  -1.27042e+68  -1.01422e+67  -3.40461e+67   5.84293e+64
   4.12642e+50  -8.65378e+62   2.83096e+61   5.56493e+65 -3.56265e+135  4.47118e+202   5.96905e+67  -1.57713e+67  -3.63493e+67   5.26771e+67   1.01487e+67   3.58763e+67  -5.08164e+65
   3.10466e+50  -8.66327e+62   1.02689e+62    3.0834e+68  1.09899e+136  5.79764e+202   2.89971e+68   1.09162e+67   3.46776e+67   2.62746e+68   1.01539e+67    3.5559e+67  -7.90931e+65
  -1.43578e+60  -8.65843e+62   1.02651e+62   3.08247e+68  1.09927e+136  5.93539e+202   2.89868e+68   1.08949e+67   3.46657e+67   2.62687e+68  -1.01696e+67   3.53251e+67  -1.34751e+66
  -3.78964e+59  -8.64895e+62   2.82854e+61   5.31731e+65 -3.54536e+135  4.52645e+202   5.95453e+67   -1.5777e+67  -3.63456e+67   5.26543e+67  -1.01748e+67   3.56422e+67  -6.40749e+65
    3.8612e+50  -7.92865e+62   2.69434e+61   3.54219e+66 -3.37525e+135  3.92929e+202   5.82048e+67  -1.47982e+67  -3.50257e+67   5.33661e+67   1.01217e+67  -3.36446e+67  -4.99009e+65
    2.8848e+50  -7.93797e+62   9.77074e+61   3.14278e+68  1.24865e+136  8.84695e+202   2.93742e+68   1.34793e+67   3.66825e+67   2.64116e+68   1.01267e+67  -3.39619e+67  -7.70652e+65
  -1.43295e+60  -7.93305e+62     9.767e+61   3.14187e+68   1.2457e+136  8.64483e+202   2.93695e+68   1.34584e+67   3.66709e+67   2.64058e+68  -1.01423e+67  -3.41906e+67   -1.3173e+66
   -3.7896e+59  -7.92374e+62   2.69192e+61   3.51782e+66 -3.39021e+135  3.87314e+202   5.83317e+67  -1.48038e+67  -3.50221e+67   5.33437e+67  -1.01472e+67  -3.38735e+67  -6.29226e+65
     6.776e+59  -8.65016e+62  -4.60727e+61  -1.73514e+68  4.97128e+135 -2.41461e+202   1.58542e+68  -1.16037e+67  -3.53843e+67  -1.26526e+68   1.01312e+67   3.58029e+67  -7.90251e+64
  -3.78964e+59  -8.64895e+62   2.82854e+61   1.34234e+68  3.38646e+135  1.56972e+202   1.20964e+68   1.51248e+67   3.56344e+67   8.34749e+67   1.01321e+67   3.58361e+67  -1.65521e+66
  -7.56798e+59  -8.63443e+62   2.82128e+61   1.34073e+68  3.44224e+135  1.89888e+202   1.20555e+68   1.50877e+67   3.55989e+67   8.33867e+67  -1.01688e+67   3.48547e+67  -1.78735e+66
   1.35542e+60  -8.63564e+62  -4.60903e+61  -1.73378e+68  5.02681e+135 -2.47702e+202   1.58219e+68  -1.15724e+67  -3.53514e+67  -1.26454e+68  -1.01697e+67   3.48215e+67   2.11216e+65
   6.74781e+59  -7.92493e+62  -4.38244e+61  -1.75753e+68  5.40817e+135 -3.07026e+202   1.59627e+68  -1.27424e+67  -3.59674e+67  -1.27043e+68   1.01046e+67  -3.37086e+67    -1.057e+65
   -3.7896e+59  -7.92374e+62   2.69192e+61   1.34942e+68  3.60848e+135  2.13475e+202   1.20834e+68   1.55712e+67   3.57313e+67   8.36391e+67   1.01055e+67  -3.36754e+67  -1.62549e+66
  -7.56792e+59    -7.909e+62   2.68466e+61   1.34784e+68  3.52975e+135  1.77639e+202   1.20983e+68   1.55348e+67   3.56966e+67   8.35525e+67  -1.01422e+67  -3.46317e+67  -1.75527e+66
   1.34983e+60  -7.91019e+62  -4.38434e+61   -1.7562e+68  5.32903e+135 -2.95349e+202   1.59729e+68  -1.27116e+67   -3.5935e+67  -1.26973e+68   -1.0143e+67  -3.46649e+67   1.79358e+65
  -3.78964e+59  -8.64895e+62   2.82854e+61   5.76005e+65 -3.56841e+135  4.39069e+202   5.97389e+67  -1.57194e+67  -3.63353e+67   5.26307e+67   1.01272e+67   3.59806e+67  -1.65521e+66
  -1.43578e+60  -8.65843e+62   1.02651e+62   3.08321e+68  1.09936e+136  5.64771e+202   2.89945e+68   1.09972e+67   3.46826e+67   2.62641e+68   1.01409e+67   3.56636e+67  -3.23216e+66
  -2.86953e+60  -8.64391e+62   1.02523e+62    3.0794e+68  1.10045e+136  6.10442e+202   2.89521e+68   1.09094e+67   3.46201e+67   2.62411e+68  -1.01651e+67   3.46824e+67  -3.78691e+66
  -7.56798e+59  -8.63443e+62   2.82128e+61   4.92089e+65 -3.49666e+135  4.52753e+202   5.91346e+67  -1.57387e+67  -3.63294e+67   5.25603e+67  -1.01789e+67   3.49988e+67  -1.78735e+66
   -3.7896e+59  -7.92374e+62   2.69192e+61   3.56095e+66 -3.36619e+135  3.98709e+202   5.81281e+67  -1.47474e+67  -3.50121e+67   5.33205e+67   1.01007e+67   -3.3536e+67  -1.62549e+66
  -1.43295e+60  -7.93305e+62     9.767e+61   3.14254e+68  1.25035e+136  9.05413e+202   2.93687e+68   1.35552e+67   3.66863e+67   2.64013e+68   1.01139e+67   -3.3853e+67  -3.14599e+66
  -2.86391e+60  -7.91831e+62   9.75438e+61    3.1388e+68  1.23791e+136  8.35831e+202   2.93498e+68   1.34688e+67   3.66245e+67   2.63786e+68  -1.01387e+67  -3.48091e+67  -3.69083e+66
  -7.56792e+59    -7.909e+62   2.68466e+61   3.47785e+66 -3.42944e+135   3.8486e+202   5.86646e+67  -1.47666e+67  -3.50067e+67   5.32511e+67  -1.01519e+67  -3.44927e+67  -1.75527e+66
   1.35542e+60  -8.63564e+62  -4.60903e+61  -1.73505e+68  5.00697e+135 -2.29662e+202   1.58421e+68  -1.17805e+67  -3.53808e+67  -1.26344e+68    1.0145e+67   3.54987e+67   2.30212e+66
  -7.56798e+59  -8.63443e+62   2.82128e+61   1.34156e+68  3.40325e+135  1.50646e+202   1.20808e+68   1.51994e+67   3.56179e+67   8.33383e+67   1.01403e+67   3.55317e+67  -2.79648e+66
  -1.13242e+60  -8.61024e+62    2.8092e+61   1.33853e+68  3.63486e+135   2.2654e+202   1.19506e+68   1.51295e+67   3.55394e+67   8.31839e+67  -1.00362e+67   3.17548e+67  -2.92778e+66
   2.02897e+60  -8.61145e+62  -4.60081e+61  -1.73086e+68  5.22286e+135 -2.89644e+202   1.57276e+68  -1.16836e+67  -3.52925e+67  -1.26109e+68  -1.00315e+67    3.1722e+67   2.58982e+66
   1.34983e+60  -7.91019e+62  -4.38434e+61   -1.7574e+68  5.40242e+135 -3.23582e+202   1.59632e+68  -1.29128e+67  -3.59629e+67  -1.26865e+68   1.01174e+67  -3.39896e+67   2.21803e+66
  -7.56792e+59    -7.909e+62   2.68466e+61   1.34864e+68  3.58463e+135  2.16954e+202   1.20846e+68   1.56443e+67   3.57151e+67   8.35049e+67   1.01129e+67  -3.39565e+67  -2.74649e+66
  -1.13242e+60  -7.88443e+62   2.67258e+61   1.34567e+68  3.29446e+135  1.33164e+202   1.21712e+68   1.55756e+67    3.5638e+67   8.33532e+67  -1.00115e+67  -3.76955e+67  -2.87545e+66
   2.02067e+60  -7.88562e+62  -4.37633e+61  -1.75328e+68  5.09634e+135 -2.51941e+202   1.60136e+68  -1.28177e+67  -3.58762e+67  -1.26634e+68   -1.0007e+67  -3.77283e+67    2.5006e+66
  -7.56798e+59  -8.63443e+62   2.82128e+61   5.74338e+65 -3.54312e+135    4.256e+202   5.95268e+67  -1.56271e+67  -3.63105e+67   5.25119e+67   1.01302e+67   3.56758e+67  -2.79648e+66
  -2.86953e+60  -8.64391e+62   1.02523e+62   3.08244e+68   1.1049e+136  5.41134e+202   2.89767e+68   1.13472e+67   3.46901e+67   2.62206e+68   1.01616e+67     3.536e+67  -7.89601e+66
  -4.29452e+60   -8.6197e+62     1.022e+62   3.07433e+68  1.11822e+136  6.64226e+202   2.88674e+68   1.11601e+67   3.45607e+67   2.61712e+68  -1.00184e+67   3.15836e+67  -8.44646e+66
  -1.13242e+60  -8.61024e+62    2.8092e+61   4.86757e+65  -3.2805e+135  4.25613e+202   5.72777e+67  -1.56473e+67  -3.62731e+67   5.24071e+67  -1.00498e+67   3.18985e+67  -2.92778e+66
  -7.56792e+59    -7.909e+62   2.68466e+61   3.55815e+66 -3.38172e+135  4.07564e+202   5.82613e+67  -1.46571e+67  -3.49882e+67   5.32035e+67   1.01032e+67  -3.38175e+67  -2.74649e+66
  -2.86391e+60  -7.91831e+62   9.75438e+61   3.14172e+68  1.25165e+136  9.42805e+202   2.93577e+68   1.38948e+67    3.6692e+67   2.63585e+68   1.01335e+67  -3.41334e+67  -7.71191e+66
  -4.28618e+60  -7.89372e+62   9.72221e+61   3.13377e+68  1.21268e+136  7.72233e+202   2.93391e+68   1.37112e+67   3.65651e+67     2.631e+68  -9.99421e+66  -3.78717e+67  -8.25253e+66
  -1.13242e+60  -7.88443e+62   2.67258e+61   3.47244e+66 -3.64159e+135  4.07291e+202   6.04454e+67  -1.46769e+67  -3.49513e+67   5.31006e+67  -1.00246e+67  -3.75569e+67  -2.87545e+66
   5.44449e+50  -9.41662e+62  -4.83527e+61  -1.76499e+68  5.13339e+135 -2.54703e+202   1.61303e+68  -1.16566e+67  -3.60036e+67  -1.28839e+68   1.01756e+67   3.63756e+67  -2.23136e+65
   4.38687e+50  -9.41539e+62    2.9701e+61   1.36649e+68   3.5153e+135  1.77723e+202   1.23116e+68   1.53399e+67   3.62612e+67   8.50476e+67   1.01753e+67   3.64101e+67  -5.17756e+65
  -3.78971e+59  -9.41063e+62   2.96768e+61    1.3659e+68  3.52749e+135  1.88058e+202   1.23001e+68   1.53263e+67   3.62471e+67   8.50164e+67  -1.01968e+67   3.61693e+67  -6.52832e+65
   6.80377e+59  -9.41186e+62  -4.83632e+61  -1.76486e+68  5.14932e+135 -2.54934e+202   1.61239e+68  -1.16537e+67  -3.60013e+67  -1.28831e+68  -1.01965e+67   3.61348e+67   7.25556e+64
   5.14912e+50    -8.655e+62  -4.60619e+61   -1.7882e+68   5.5781e+135  -3.2092e+202   1.62476e+68  -1.28373e+67  -3.66082e+67  -1.29374e+68    1.0149e+67  -3.44351e+67  -2.25549e+65
   4.12642e+50  -8.65378e+62   2.83096e+61   1.37382e+68  3.73338e+135  2.18364e+202   1.23047e+68   1.58039e+67   3.63616e+67   8.52169e+67   1.01487e+67  -3.44007e+67  -5.08163e+65
  -3.78964e+59  -8.64895e+62   2.82854e+61   1.37324e+68  3.71191e+135  2.06726e+202   1.23069e+68   1.57905e+67   3.63475e+67   8.51862e+67  -1.01699e+67  -3.46358e+67  -6.40783e+65
     6.776e+59  -8.65016e+62  -4.60727e+61  -1.78808e+68  5.56035e+135 -3.19271e+202   1.62517e+68  -1.28345e+67   -3.6606e+67  -1.29367e+68  -1.01695e+67  -3.46703e+67   6.47657e+64
   4.38687e+50  -9.41539e+62    2.9701e+61   5.93912e+65 -3.69284e+135  4.74071e+202   6.07717e+67  -1.60574e+67  -3.69991e+67   5.36503e+67   1.01753e+67   3.65603e+67  -5.17756e+65
   3.33713e+50  -9.42504e+62   1.07763e+62    3.1374e+68  1.13271e+136  6.04034e+202   2.95137e+68   1.09273e+67   3.52654e+67   2.67547e+68   1.01807e+67   3.62311e+67  -8.12557e+65
  -1.43859e+60  -9.42028e+62   1.07724e+62   3.13643e+68  1.13297e+136  6.18367e+202   2.95029e+68   1.09048e+67   3.52526e+67   2.67485e+68  -1.01966e+67   3.59903e+67  -1.37874e+66
  -3.78971e+59  -9.41063e+62   2.96768e+61   5.68257e+65 -3.67469e+135  4.79756e+202   6.06219e+67  -1.60633e+67  -3.69953e+67   5.36268e+67   -1.0202e+67   3.63193e+67  -6.52832e+65
   4.12642e+50  -8.65378e+62   2.83096e+61    3.6915e+66 -3.49552e+135  4.15661e+202    5.9238e+67  -1.50478e+67  -3.56258e+67   5.43652e+67   1.01487e+67   -3.4256e+67  -5.08163e+65
   3.10466e+50  -8.66327e+62   1.02689e+62   3.19894e+68  1.29051e+136  9.29851e+202   2.99044e+68   1.35828e+67   3.73441e+67   2.68968e+68   1.01539e+67  -3.45852e+67  -7.90927e+65
  -1.43578e+60  -8.65843e+62   1.02651e+62   3.19799e+68  1.28738e+136  9.08578e+202   2.98994e+68   1.35607e+67   3.73314e+67   2.68907e+68  -1.01696e+67  -3.48203e+67  -1.34681e+66
  -3.78964e+59  -8.64895e+62   2.82854e+61   3.66616e+66 -3.51117e+135  4.09883e+202   5.93685e+67  -1.50537e+67  -3.56222e+67   5.43421e+67  -1.01748e+67  -3.44913e+67  -6.40783e+65
   6.80377e+59  -9.41186e+62  -4.83632e+61  -1.76477e+68   5.1237e+135 -2.52594e+202   1.61308e+68  -1.16443e+67  -3.59991e+67  -1.28833e+68   1.01575e+67    3.6474e+67  -5.11919e+64
  -3.78971e+59  -9.41063e+62   2.96768e+61   1.36635e+68  3.50818e+135  1.67806e+202    1.2313e+68   1.53853e+67   3.62576e+67   8.49925e+67   1.01584e+67   3.65086e+67  -1.68631e+66
  -7.56807e+59  -9.39634e+62   2.96041e+61    1.3647e+68  3.56682e+135  2.02311e+202   1.22708e+68   1.53472e+67   3.62211e+67   8.49019e+67  -1.01951e+67   3.54973e+67   -1.8209e+66
   1.36092e+60  -9.39757e+62  -4.83794e+61  -1.76333e+68  5.18162e+135 -2.59532e+202   1.60971e+68   -1.1611e+67  -3.59642e+67  -1.28757e+68   -1.0196e+67   3.54628e+67   2.43626e+65
     6.776e+59  -8.65016e+62  -4.60727e+61  -1.78794e+68  5.58208e+135 -3.22692e+202   1.62435e+68  -1.28223e+67  -3.66029e+67  -1.29369e+68   1.01312e+67   -3.4332e+67  -7.98398e+64
  -3.78964e+59  -8.64895e+62   2.82854e+61   1.37369e+68  3.74048e+135  2.27366e+202   1.23003e+68   1.58482e+67   3.63578e+67   8.51626e+67   1.01321e+67  -3.42975e+67  -1.65525e+66
  -7.56798e+59  -8.63443e+62   2.82128e+61   1.37206e+68  3.65794e+135   1.8978e+202   1.23157e+68   1.58107e+67   3.63219e+67   8.50737e+67  -1.01688e+67  -3.52825e+67  -1.78739e+66
   1.35542e+60  -8.63564e+62  -4.60903e+61  -1.78653e+68  5.49869e+135 -3.09944e+202   1.62536e+68  -1.27897e+67  -3.65686e+67  -1.29294e+68  -1.01697e+67  -3.53171e+67   2.09618e+65
  -3.78971e+59  -9.41063e+62   2.96768e+61   6.13886e+65 -3.69823e+135  4.65597e+202   6.08162e+67  -1.60043e+67  -3.69848e+67   5.36029e+67   1.01532e+67   3.66585e+67  -1.68631e+66
  -1.43859e+60  -9.42028e+62   1.07724e+62   3.13723e+68  1.13323e+136  5.88557e+202    2.9511e+68   1.10128e+67   3.52712e+67   2.67439e+68   1.01677e+67   3.63297e+67  -3.32232e+66
  -2.87508e+60  -9.40598e+62   1.07595e+62   3.13327e+68  1.13434e+136  6.36303e+202    2.9467e+68   1.09215e+67   3.52059e+67     2.672e+68  -1.01911e+67   3.53186e+67   -3.8866e+66
  -7.56807e+59  -9.39634e+62   2.96041e+61    5.2798e+65 -3.62288e+135  4.79532e+202   6.01927e+67  -1.60241e+67  -3.69786e+67   5.35306e+67  -1.02056e+67   3.56468e+67   -1.8209e+66
  -3.78964e+59  -8.64895e+62   2.82854e+61   3.71044e+66 -3.48663e+135  4.21715e+202   5.91642e+67   -1.4996e+67   -3.5612e+67   5.43185e+67   1.01272e+67  -3.41529e+67  -1.65525e+66
  -1.43578e+60  -8.65843e+62   1.02651e+62   3.19872e+68   1.2923e+136  9.51727e+202    2.9899e+68    1.3663e+67   3.73484e+67   2.68861e+68    1.0141e+67  -3.44818e+67  -3.23145e+66
  -2.86953e+60  -8.64391e+62   1.02523e+62   3.19483e+68   1.2792e+136  8.78457e+202   2.98793e+68   1.35731e+67   3.72837e+67   2.68626e+68  -1.01651e+67  -3.54667e+67  -3.78547e+66
  -7.56798e+59  -8.63443e+62   2.82128e+61   3.62511e+66 -3.55297e+135  4.07582e+202   5.97169e+67  -1.50157e+67  -3.56064e+67   5.42473e+67  -1.01789e+67  -3.51384e+67  -1.78739e+66
   1.36092e+60  -9.39757e+62  -4.83794e+61  -1.76466e+68  5.16219e+135 -2.40409e+202   1.61177e+68   -1.1826e+67  -3.59949e+67  -1.28645e+68   1.01722e+67   3.61417e+67   2.38815e+66
  -7.56807e+59  -9.39634e+62   2.96041e+61   1.36555e+68  3.52719e+135  1.61499e+202   1.22964e+68   1.54614e+67   3.62406e+67   8.48528e+67   1.01674e+67   3.61761e+67  -2.84856e+66
  -1.13243e+60  -9.37252e+62   2.94833e+61   1.36245e+68  3.76566e+135  2.40706e+202   1.21644e+68     1.539e+67   3.61605e+67   8.46949e+67  -1.00606e+67   3.23544e+67  -2.98226e+66
   2.03716e+60  -9.37375e+62  -4.82951e+61  -1.76035e+68  5.38415e+135 -3.03135e+202   1.60013e+68  -1.17266e+67  -3.59043e+67  -1.28404e+68  -1.00558e+67   3.23202e+67   2.68048e+66
   1.35542e+60  -8.63564e+62  -4.60903e+61   -1.7878e+68  5.57454e+135  -3.3983e+202   1.62443e+68  -1.29978e+67   -3.6598e+67  -1.29184e+68    1.0145e+67  -3.46399e+67   2.30052e+66
  -7.56798e+59  -8.63443e+62   2.82128e+61   1.37289e+68  3.71415e+135  2.30665e+202    1.2302e+68   1.59224e+67   3.63409e+67   8.50253e+67   1.01403e+67  -3.46055e+67  -2.79652e+66
  -1.13242e+60  -8.61024e+62    2.8092e+61   1.36985e+68   3.4148e+135  1.43097e+202   1.23895e+68   1.58522e+67   3.62621e+67   8.48702e+67  -1.00362e+67  -3.83886e+67  -2.92778e+66
   2.02897e+60  -8.61145e+62  -4.60081e+61  -1.78357e+68  5.25858e+135 -2.64714e+202    1.6295e+68  -1.29003e+67  -3.65091e+67  -1.28948e+68  -1.00315e+67  -3.84229e+67   2.58753e+66
  -7.56807e+59  -9.39634e+62   2.96041e+61   6.12605e+65 -3.67032e+135  4.51224e+202   6.05863e+67  -1.59099e+67   -3.6959e+67   5.34815e+67   1.01569e+67   3.63256e+67  -2.84856e+66
  -2.87508e+60  -9.40598e+62   1.07595e+62   3.13642e+68  1.13914e+136  5.64149e+202   2.94924e+68   1.13716e+67   3.52786e+67   2.66992e+68   1.01895e+67   3.59979e+67  -8.08637e+66
  -4.30274e+60  -9.38215e+62    1.0727e+62   3.12812e+68  1.15271e+136  6.92209e+202    2.9381e+68   1.11799e+67   3.51456e+67   2.66486e+68   -1.0042e+67   3.21769e+67  -8.64624e+66
  -1.13243e+60  -9.37252e+62   2.94833e+61   5.22209e+65 -3.39961e+135  4.50883e+202   5.83085e+67  -1.59308e+67  -3.69212e+67   5.33742e+67  -1.00746e+67   3.25034e+67  -2.98226e+66
  -7.56798e+59  -8.63443e+62   2.82128e+61   3.70736e+66 -3.50422e+135  4.31157e+202   5.93124e+67   -1.4904e+67  -3.55875e+67   5.41989e+67   1.01302e+67  -3.44614e+67  -2.79652e+66
  -2.86953e+60  -8.64391e+62   1.02523e+62   3.19786e+68  1.29349e+136  9.90609e+202   2.98878e+68   1.40109e+67   3.73538e+67   2.68421e+68   1.01616e+67  -3.47891e+67  -7.89457e+66
  -4.29452e+60   -8.6197e+62     1.022e+62    3.1897e+68  1.25315e+136  8.12176e+202   2.98681e+68   1.38227e+67   3.72231e+67   2.67925e+68  -1.00183e+67  -3.85715e+67  -8.44426e+66
  -1.13242e+60  -8.61024e+62    2.8092e+61   3.61854e+66 -3.77203e+135   4.3121e+202   6.15234e+67  -1.49245e+67  -3.55504e+67   5.40934e+67  -1.00498e+67  -3.82449e+67  -2.92778e+66
   5.73194e+50  -1.02154e+63  -5.06874e+61  -1.79573e+68  5.29349e+135 -2.66755e+202   1.64174e+68  -1.16981e+67  -3.66414e+67  -1.31234e+68   1.02017e+67   3.70781e+67  -2.20257e+65
   4.64674e+50  -1.02141e+63   3.11184e+61   1.39141e+68  3.64361e+135  1.89794e+202   1.25366e+68   1.56096e+67   3.69081e+67   8.66238e+67   1.02015e+67    3.7114e+67   -5.2785e+65
  -3.78971e+59  -1.02095e+63   3.10941e+61   1.39081e+68  3.65647e+135  2.00622e+202   1.25248e+68   1.55956e+67   3.68937e+67   8.65916e+67  -1.02233e+67   3.68658e+67  -6.65354e+65
   6.83119e+59  -1.02107e+63  -5.06975e+61  -1.79558e+68  5.30998e+135 -2.67086e+202   1.64107e+68  -1.16946e+67  -3.66383e+67  -1.31225e+68  -1.02231e+67   3.68299e+67   8.03113e+64
   5.44449e+50  -9.41662e+62  -4.83527e+61  -1.81977e+68  5.76186e+135  -3.3756e+202   1.65389e+68  -1.29207e+67  -3.72677e+67  -1.31788e+68   1.01756e+67  -3.50757e+67  -2.23137e+65
   4.38687e+50  -9.41539e+62    2.9701e+61   1.39902e+68   3.8732e+135  2.33092e+202   1.25297e+68   1.60906e+67   3.70119e+67   8.67992e+67   1.01753e+67  -3.50399e+67  -5.17754e+65
  -3.78971e+59  -9.41063e+62   2.96768e+61   1.39842e+68  3.85072e+135  2.20899e+202    1.2532e+68   1.60768e+67   3.69976e+67   8.67676e+67  -1.01968e+67   -3.5282e+67  -6.52712e+65
   6.80377e+59  -9.41186e+62  -4.83632e+61  -1.81962e+68  5.74303e+135 -3.35685e+202    1.6543e+68  -1.29173e+67  -3.72649e+67   -1.3178e+68  -1.01965e+67  -3.53178e+67   7.18651e+64
   4.64674e+50  -1.02141e+63   3.11184e+61   6.31833e+65 -3.83045e+135  5.03148e+202   6.18939e+67  -1.63541e+67   -3.7674e+67     5.466e+67   1.02015e+67     3.727e+67   -5.2785e+65
   3.56441e+50   -1.0224e+63   1.12932e+62   3.19344e+68  1.16825e+136  6.29988e+202   3.00497e+68   1.09407e+67    3.5875e+67   2.72529e+68   1.02071e+67   3.69281e+67  -8.35661e+65
  -1.44135e+60  -1.02193e+63   1.12894e+62   3.19241e+68  1.16849e+136  6.44919e+202   3.00383e+68    1.0917e+67   3.58613e+67   2.72463e+68  -1.02232e+67     3.668e+67  -1.41165e+66
  -3.78971e+59  -1.02095e+63   3.10941e+61   6.05176e+65 -3.81137e+135  5.08993e+202   6.17392e+67  -1.63603e+67  -3.76702e+67   5.46357e+67  -1.02288e+67   3.70216e+67  -6.65354e+65
   4.38687e+50  -9.41539e+62    2.9701e+61   3.84694e+66 -3.62251e+135  4.40132e+202   6.03101e+67  -1.53066e+67  -3.62484e+67   5.54019e+67   1.01753e+67  -3.48898e+67  -5.17754e+65
   3.33713e+50  -9.42504e+62   1.07763e+62   3.25726e+68  1.33479e+136  9.78562e+202   3.04548e+68   1.36934e+67   3.80315e+67   2.74001e+68   1.01807e+67  -3.52316e+67  -8.12553e+65
  -1.43859e+60  -9.42028e+62   1.07724e+62   3.25625e+68  1.33147e+136  9.56145e+202   3.04495e+68   1.36701e+67   3.80178e+67   2.73937e+68  -1.01966e+67  -3.54736e+67  -1.37787e+66
  -3.78971e+59  -9.41063e+62   2.96768e+61   3.82048e+66 -3.63891e+135  4.34189e+202   6.04442e+67  -1.53127e+67  -3.62448e+67    5.5378e+67   -1.0202e+67   -3.5132e+67  -6.52712e+65
   6.83119e+59  -1.02107e+63  -5.06975e+61  -1.79552e+68   5.2845e+135 -2.64539e+202   1.64178e+68  -1.16883e+67  -3.66371e+67  -1.31227e+68   1.01832e+67     3.717e+67  -2.13065e+64
  -3.78971e+59  -1.02095e+63   3.10941e+61   1.39128e+68  3.63682e+135  1.79537e+202   1.25378e+68   1.56559e+67   3.69044e+67   8.65673e+67   1.01843e+67   3.72059e+67  -1.71883e+66
  -7.56805e+59  -1.01954e+63   3.10215e+61   1.38957e+68  3.69847e+135  2.15739e+202   1.24943e+68   1.56166e+67    3.6867e+67   8.64738e+67  -1.02209e+67   3.61637e+67  -1.85589e+66
   1.36635e+60  -1.01966e+63  -5.07123e+61    -1.794e+68  5.34498e+135 -2.72244e+202   1.63827e+68  -1.16531e+67  -3.66001e+67  -1.31147e+68  -1.02219e+67   3.61277e+67   2.78326e+65
   6.80377e+59  -9.41186e+62  -4.83632e+61  -1.81952e+68  5.76585e+135 -3.39584e+202    1.6535e+68  -1.29079e+67  -3.72626e+67  -1.31782e+68   1.01575e+67  -3.49786e+67  -5.18863e+64
  -3.78971e+59  -9.41063e+62   2.96768e+61   1.39888e+68  3.88003e+135  2.42384e+202   1.25254e+68   1.61359e+67   3.70081e+67   8.67436e+67   1.01584e+67  -3.49427e+67  -1.68618e+66
  -7.56807e+59  -9.39634e+62   2.96041e+61    1.3972e+68  3.79338e+135  2.02922e+202   1.25413e+68   1.60972e+67   3.69711e+67   8.66518e+67  -1.01951e+67  -3.59576e+67   -1.8207e+66
   1.36092e+60  -9.39757e+62  -4.83794e+61  -1.81803e+68  5.67801e+135 -3.25672e+202   1.65452e+68  -1.28735e+67  -3.72266e+67  -1.31703e+68   -1.0196e+67  -3.59936e+67   2.42198e+65
  -3.78971e+59  -1.02095e+63   3.10941e+61   6.51867e+65 -3.83541e+135  4.94221e+202   6.19341e+67     -1.63e+67  -3.76594e+67   5.46113e+67   1.01788e+67   3.73617e+67  -1.71883e+66
  -1.44135e+60  -1.02193e+63   1.12894e+62   3.19329e+68  1.16894e+136  6.13974e+202   3.00469e+68   1.10308e+67   3.58814e+67   2.72416e+68   1.01941e+67   3.70203e+67  -3.41746e+66
  -2.88054e+60  -1.02052e+63   1.12763e+62   3.18917e+68  1.17005e+136  6.63932e+202   3.00012e+68   1.09358e+67   3.58133e+67   2.72168e+68  -1.02167e+67   3.59782e+67  -3.99156e+66
  -7.56805e+59  -1.01954e+63   3.10215e+61   5.63431e+65 -3.75621e+135  5.08405e+202   6.12905e+67  -1.63204e+67  -3.76528e+67   5.45367e+67  -1.02319e+67   3.63189e+67  -1.85589e+66
  -3.78971e+59  -9.41063e+62   2.96768e+61   3.86611e+66 -3.61383e+135  4.46478e+202   6.02393e+67  -1.52537e+67  -3.62343e+67   5.53541e+67   1.01532e+67  -3.47928e+67  -1.68618e+66
  -1.43859e+60  -9.42028e+62   1.07724e+62   3.25705e+68  1.33668e+136  1.00168e+203   3.04495e+68   1.37781e+67   3.80363e+67   2.73891e+68   1.01677e+67  -3.51342e+67  -3.32144e+66
  -2.87508e+60  -9.40598e+62   1.07595e+62     3.253e+68  1.32286e+136  9.24442e+202   3.04288e+68   1.36845e+67   3.79687e+67   2.73646e+68  -1.01911e+67  -3.61489e+67  -3.88491e+66
  -7.56807e+59  -9.39634e+62   2.96041e+61   3.77781e+66 -3.68343e+135  4.32065e+202   6.08087e+67  -1.52741e+67  -3.62286e+67   5.52805e+67  -1.02056e+67  -3.58082e+67   -1.8207e+66
   1.36635e+60  -1.01966e+63  -5.07123e+61  -1.79539e+68  5.32597e+135 -2.51953e+202   1.64038e+68  -1.18749e+67  -3.66322e+67  -1.31032e+68    1.0199e+67   3.68084e+67   2.47779e+66
  -7.56805e+59  -1.01954e+63   3.10215e+61   1.39045e+68   3.6582e+135  1.73263e+202   1.25201e+68   1.57335e+67   3.68871e+67    8.6424e+67   1.01942e+67   3.68442e+67  -2.90291e+66
  -1.13242e+60   -1.0172e+63   3.09006e+61   1.38727e+68  3.90373e+135   2.5598e+202   1.23861e+68   1.56603e+67   3.68054e+67   8.62617e+67  -1.00845e+67   3.29772e+67  -3.03904e+66
   2.04523e+60  -1.01732e+63  -5.06259e+61  -1.79098e+68  5.55432e+135 -3.17598e+202   1.62856e+68  -1.17732e+67   -3.6539e+67  -1.30786e+68  -1.00796e+67   3.29414e+67   2.77495e+66
   1.36092e+60  -9.39757e+62  -4.83794e+61  -1.81936e+68  5.75637e+135 -3.57322e+202   1.65362e+68  -1.30884e+67  -3.72573e+67  -1.31591e+68   1.01722e+67  -3.53147e+67   2.38672e+66
  -7.56807e+59  -9.39634e+62   2.96041e+61   1.39805e+68  3.85101e+135  2.45469e+202   1.25277e+68   1.62114e+67   3.69906e+67   8.66027e+67   1.01674e+67  -3.52789e+67  -2.84836e+66
  -1.13243e+60  -9.37252e+62   2.94833e+61   1.39492e+68  3.54198e+135  1.53876e+202   1.26159e+68   1.61393e+67   3.69098e+67   8.64431e+67  -1.00606e+67  -3.91067e+67  -2.98197e+66
   2.03716e+60  -9.37375e+62  -4.82951e+61  -1.81505e+68   5.4302e+135 -2.78514e+202   1.65873e+68  -1.29889e+67  -3.71665e+67   -1.3135e+68  -1.00558e+67  -3.91425e+67   2.67838e+66
  -7.56805e+59  -1.01954e+63   3.10215e+61   6.50591e+65 -3.80467e+135  4.78869e+202   6.16854e+67  -1.62036e+67  -3.76327e+67   5.44869e+67   1.01832e+67   3.69994e+67  -2.90291e+66
  -2.88054e+60  -1.02052e+63   1.12763e+62   3.19244e+68  1.17523e+136  5.88749e+202   3.00274e+68   1.13986e+67   3.58888e+67   2.71957e+68   1.02172e+67   3.66593e+67  -8.28494e+66
  -4.31083e+60  -1.01818e+63   1.12435e+62   3.18391e+68  1.18904e+136  7.22044e+202   2.99136e+68   1.12018e+67   3.57521e+67   2.71437e+68  -1.00652e+67    3.2793e+67  -8.85456e+66
  -1.13242e+60   -1.0172e+63   3.09006e+61   5.56226e+65 -3.52547e+135  4.78143e+202   5.93783e+67  -1.62254e+67  -3.75944e+67    5.4376e+67  -1.00992e+67   3.31318e+67  -3.03904e+66
  -7.56807e+59  -9.39634e+62   2.96041e+61   3.86244e+66 -3.63361e+135   4.5655e+202    6.0403e+67  -1.51599e+67  -3.62091e+67   5.52314e+67   1.01569e+67  -3.51294e+67  -2.84836e+66
  -2.87508e+60  -9.40598e+62   1.07595e+62   3.25615e+68  1.33774e+136  1.04213e+203   3.04381e+68   1.41346e+67   3.80415e+67   2.73439e+68   1.01895e+67  -3.54696e+67  -8.08467e+66
  -4.30274e+60  -9.38215e+62    1.0727e+62   3.24777e+68  1.29595e+136  8.55288e+202   3.04172e+68   1.39412e+67   3.79068e+67   2.72929e+68   -1.0042e+67  -3.92966e+67  -8.64374e+66
  -1.13243e+60  -9.37252e+62   2.94833e+61   3.76894e+66 -3.90967e+135  4.56971e+202   6.26409e+67  -1.51815e+67   -3.6172e+67   5.51224e+67  -1.00746e+67  -3.89577e+67  -2.98197e+66
   6.00825e+50   -1.1052e+63  -5.30675e+61  -1.82764e+68  5.46215e+135 -2.79636e+202   1.67154e+68  -1.17413e+67  -3.73035e+67  -1.33719e+68   1.02274e+67   3.78075e+67  -2.16776e+65
   4.89934e+50  -1.10508e+63   3.25627e+61   1.41733e+68  3.77962e+135  2.02913e+202   1.27705e+68   1.58919e+67   3.75804e+67   8.82607e+67   1.02272e+67   3.78446e+67  -5.38396e+65
  -3.78937e+59  -1.10462e+63   3.25385e+61   1.41671e+68  3.79324e+135  2.14271e+202   1.27583e+68   1.58776e+67   3.75658e+67   8.82278e+67  -1.02494e+67   3.75886e+67  -6.77875e+65
    6.8585e+59  -1.10474e+63  -5.30772e+61  -1.82745e+68   5.4792e+135 -2.80076e+202   1.67082e+68   -1.1737e+67  -3.72994e+67  -1.33708e+68  -1.02492e+67   3.75514e+67   8.93685e+64
   5.73194e+50  -1.02154e+63  -5.06874e+61  -1.85258e+68  5.95636e+135  -3.5553e+202   1.68416e+68    -1.301e+67  -3.79532e+67  -1.34294e+68   1.02017e+67  -3.57404e+67  -2.20259e+65
   4.64674e+50  -1.02141e+63   3.11184e+61   1.42518e+68  4.02117e+135  2.49048e+202   1.27633e+68   1.63888e+67   3.76873e+67   8.84418e+67   1.02015e+67  -3.57033e+67  -5.27849e+65
  -3.78971e+59  -1.02095e+63   3.10941e+61   1.42457e+68  3.99764e+135  2.36268e+202   1.27657e+68   1.63748e+67   3.76728e+67   8.84095e+67  -1.02233e+67  -3.59527e+67  -6.64696e+65
   6.83119e+59  -1.02107e+63  -5.06975e+61   -1.8524e+68  5.93628e+135 -3.53387e+202   1.68456e+68  -1.30059e+67  -3.79495e+67  -1.34284e+68  -1.02231e+67  -3.59899e+67   8.01096e+64
   4.89934e+50  -1.10508e+63   3.25627e+61   6.72163e+65 -3.97601e+135  5.34498e+202   6.30592e+67  -1.66606e+67  -3.83754e+67   5.57082e+67   1.02272e+67   3.80069e+67  -5.38396e+65
   3.78803e+50  -1.10608e+63   1.18201e+62   3.25166e+68  1.20584e+136  6.57949e+202   3.06063e+68   1.09586e+67   3.65078e+67     2.777e+68   1.02332e+67   3.76516e+67   -8.6024e+65
  -1.44403e+60  -1.10562e+63   1.18163e+62   3.25059e+68  1.20607e+136  6.73539e+202   3.05945e+68   1.09337e+67   3.64933e+67   2.77632e+68  -1.02493e+67   3.73956e+67  -1.44582e+66
  -3.78937e+59  -1.10462e+63   3.25385e+61   6.45042e+65 -3.95593e+135  5.40497e+202   6.28995e+67  -1.66669e+67  -3.83714e+67   5.56833e+67  -1.02553e+67   3.77507e+67  -6.77875e+65
   4.64674e+50  -1.02141e+63   3.11184e+61   4.00829e+66 -3.75671e+135  4.66503e+202    6.1423e+67  -1.55749e+67  -3.68948e+67   5.64781e+67   1.02015e+67  -3.55473e+67  -5.27849e+65
   3.56441e+50   -1.0224e+63   1.12932e+62   3.31785e+68  1.38168e+136  1.03119e+203   3.10265e+68   1.38118e+67   3.87459e+67   2.79227e+68   1.02071e+67  -3.59026e+67  -8.35656e+65
  -1.44135e+60  -1.02193e+63   1.12894e+62   3.31679e+68  1.37817e+136  1.00757e+203   3.10208e+68   1.37873e+67   3.87314e+67    2.7916e+68  -1.02232e+67   -3.6152e+67  -1.41019e+66
  -3.78971e+59  -1.02095e+63   3.10941e+61   3.98128e+66 -3.77393e+135  4.60387e+202   6.15612e+67  -1.55812e+67  -3.68911e+67   5.64535e+67  -1.02288e+67  -3.57969e+67  -6.64696e+65
    6.8585e+59  -1.10474e+63  -5.30772e+61  -1.82746e+68  5.45419e+135 -2.77349e+202   1.67159e+68  -1.17351e+67  -3.72998e+67  -1.33711e+68   1.02085e+67   3.78923e+67   1.11377e+64
  -3.78937e+59  -1.10462e+63   3.25385e+61   1.41717e+68  3.77302e+135  1.92275e+202   1.27713e+68    1.5938e+67   3.75763e+67   8.82025e+67   1.02098e+67   3.79295e+67  -1.75252e+66
  -7.56751e+59  -1.10323e+63   3.24658e+61   1.41542e+68   3.8379e+135  2.30295e+202   1.27264e+68   1.58976e+67   3.75381e+67    8.8106e+67  -1.02462e+67   3.68551e+67  -1.89185e+66
   1.37175e+60  -1.10336e+63  -5.30905e+61  -1.82585e+68  5.51732e+135 -2.85887e+202   1.66793e+68  -1.16978e+67  -3.72603e+67  -1.33626e+68  -1.02475e+67   3.68177e+67   3.16007e+65
   6.83119e+59  -1.02107e+63  -5.06975e+61  -1.85234e+68   5.9603e+135 -3.57827e+202   1.68379e+68  -1.29995e+67  -3.79483e+67  -1.34286e+68   1.01832e+67  -3.56498e+67  -2.15121e+64
  -3.78971e+59  -1.02095e+63   3.10941e+61   1.42504e+68  4.02768e+135  2.58636e+202   1.27592e+68    1.6435e+67   3.76835e+67   8.83851e+67   1.01843e+67  -3.56126e+67  -1.71817e+66
  -7.56805e+59  -1.01954e+63   3.10215e+61   1.42331e+68  3.93672e+135  2.17177e+202   1.27755e+68   1.63952e+67   3.76455e+67   8.82903e+67  -1.02209e+67  -3.66585e+67  -1.85487e+66
   1.36635e+60  -1.01966e+63  -5.07123e+61  -1.85077e+68  5.86765e+135 -3.42625e+202   1.68481e+68  -1.29632e+67  -3.79101e+67  -1.34203e+68  -1.02219e+67  -3.66959e+67   2.77605e+65
  -3.78937e+59  -1.10462e+63   3.25385e+61   6.90538e+65  -3.9805e+135  5.25125e+202    6.3095e+67  -1.66065e+67  -3.83609e+67    5.5658e+67   1.02039e+67   3.80917e+67  -1.75252e+66
  -1.44403e+60  -1.10562e+63   1.18163e+62    3.2515e+68  1.20664e+136  6.41238e+202   3.06033e+68   1.10521e+67   3.65144e+67   2.77584e+68   1.02202e+67   3.77368e+67  -3.51744e+66
  -2.88586e+60  -1.10423e+63    1.1803e+62   3.24722e+68  1.20778e+136  6.93583e+202    3.0556e+68   1.09534e+67   3.64439e+67   2.77325e+68  -1.02418e+67   3.66625e+67  -4.10146e+66
  -7.56751e+59  -1.10323e+63   3.24658e+61   5.99974e+65 -3.89721e+135   5.3954e+202   6.24305e+67  -1.66274e+67  -3.83536e+67    5.5581e+67   -1.0258e+67   3.70165e+67  -1.89185e+66
  -3.78971e+59  -1.02095e+63   3.10941e+61   4.02797e+66 -3.74828e+135  4.73161e+202   6.13556e+67  -1.55209e+67  -3.68803e+67   5.64292e+67   1.01788e+67  -3.54568e+67  -1.71817e+66
  -1.44135e+60  -1.02193e+63   1.12894e+62   3.31766e+68  1.38367e+136  1.05565e+203   3.10213e+68   1.39012e+67   3.87516e+67   2.79113e+68   1.01941e+67  -3.58117e+67  -3.41599e+66
  -2.88054e+60  -1.02052e+63   1.12763e+62   3.31344e+68  1.36911e+136  9.74176e+202   3.09997e+68   1.38038e+67   3.86812e+67   2.78859e+68  -1.02167e+67  -3.68574e+67  -3.98898e+66
  -7.56805e+59  -1.01954e+63   3.10215e+61   3.93701e+66 -3.82135e+135  4.58468e+202   6.19423e+67  -1.55419e+67  -3.68743e+67   5.63532e+67  -1.02319e+67  -3.65033e+67  -1.85487e+66
   1.37175e+60  -1.10336e+63  -5.30905e+61  -1.82731e+68  5.49895e+135 -2.64372e+202   1.67008e+68  -1.19274e+67  -3.72942e+67   -1.3351e+68   1.02253e+67   3.75001e+67   2.57122e+66
  -7.56751e+59  -1.10323e+63   3.24658e+61    1.4163e+68  3.79681e+135  1.86031e+202   1.27523e+68   1.60164e+67   3.75584e+67   8.80551e+67   1.02207e+67   3.75373e+67  -2.95964e+66
  -1.13235e+60  -1.10093e+63   3.23448e+61   1.41303e+68  4.04957e+135  2.72466e+202   1.26162e+68   1.59408e+67    3.7475e+67   8.78868e+67  -1.01078e+67   3.36243e+67  -3.09822e+66
   2.05324e+60  -1.10105e+63   -5.3002e+61  -1.82282e+68  5.73408e+135 -3.33128e+202   1.65809e+68  -1.18237e+67  -3.71983e+67   -1.3326e+68  -1.01032e+67   3.35868e+67   2.87343e+66
   1.36635e+60  -1.01966e+63  -5.07123e+61  -1.85216e+68   5.9486e+135 -3.76171e+202   1.68393e+68   -1.3185e+67  -3.79422e+67  -1.34089e+68    1.0199e+67  -3.60152e+67   2.47706e+66
  -7.56805e+59  -1.01954e+63   3.10215e+61   1.42418e+68  3.99584e+135  2.61478e+202   1.27621e+68    1.6512e+67   3.76656e+67   8.82405e+67   1.01942e+67   -3.5978e+67  -2.90189e+66
  -1.13242e+60   -1.0172e+63   3.09006e+61   1.42095e+68   3.6765e+135  1.65589e+202   1.28508e+68   1.64374e+67   3.75824e+67   8.80748e+67  -1.00845e+67  -3.98511e+67  -3.03785e+66
   2.04523e+60  -1.01732e+63  -5.06259e+61  -1.84777e+68  5.61195e+135 -2.93442e+202    1.6891e+68  -1.30838e+67  -3.78496e+67  -1.33844e+68  -1.00796e+67  -3.98886e+67   2.77357e+66
  -7.56751e+59  -1.10323e+63   3.24658e+61   6.88192e+65 -3.94673e+135  5.08732e+202   6.28267e+67  -1.65086e+67  -3.83333e+67   5.55301e+67    1.0209e+67   3.76988e+67  -2.95964e+66
  -2.88586e+60  -1.10423e+63    1.1803e+62    3.2506e+68  1.21331e+136  6.15073e+202   3.05828e+68   1.14284e+67   3.65218e+67    2.7711e+68   1.02447e+67   3.73454e+67  -8.49214e+66
  -4.31875e+60  -1.10193e+63     1.177e+62   3.24183e+68  1.22735e+136  7.53883e+202   3.04665e+68   1.12259e+67   3.63812e+67   2.76575e+68  -1.00878e+67   3.34332e+67  -9.07185e+66
  -1.13235e+60  -1.10093e+63   3.23448e+61    5.8795e+65 -3.65859e+135   5.0759e+202   6.04891e+67  -1.65318e+67  -3.82944e+67   5.54142e+67  -1.01235e+67   3.37851e+67  -3.09822e+66
  -7.56805e+59  -1.01954e+63   3.10215e+61   4.02418e+66 -3.77042e+135  4.83908e+202   6.15354e+67   -1.5425e+67  -3.68542e+67   5.63034e+67   1.01832e+67  -3.58228e+67  -2.90189e+66
  -2.88054e+60  -1.02052e+63   1.12763e+62   3.31672e+68  1.38461e+136  1.09777e+203   3.10097e+68   1.42667e+67   3.87567e+67   2.78648e+68   1.02172e+67  -3.61763e+67  -8.28235e+66
  -4.31083e+60  -1.01818e+63   1.12435e+62   3.30808e+68  1.34126e+136  9.01906e+202   3.09873e+68   1.40674e+67   3.86176e+67   2.78123e+68  -1.00652e+67  -4.00485e+67  -8.85111e+66
  -1.13242e+60   -1.0172e+63   3.09006e+61   3.92355e+66 -4.05503e+135   4.8475e+202   6.37999e+67  -1.54483e+67  -3.68174e+67   5.61892e+67  -1.00992e+67  -3.96965e+67  -3.03785e+66
   6.27224e+50  -1.19273e+63  -5.54949e+61  -1.86074e+68  5.63924e+135 -2.93247e+202   1.70247e+68  -1.17822e+67  -3.79905e+67  -1.36301e+68   1.02527e+67   3.85651e+67  -2.12036e+65
   5.14487e+50   -1.1926e+63   3.40351e+61   1.44433e+68  3.92451e+135  2.17281e+202    1.3014e+68   1.61916e+67   3.82802e+67    8.9961e+67   1.02525e+67   3.86035e+67  -5.48864e+65
  -3.78796e+59  -1.19215e+63   3.40109e+61   1.44373e+68  3.93919e+135  2.29219e+202   1.30017e+68   1.61778e+67    3.8266e+67    8.9929e+67  -1.02752e+67   3.83391e+67  -6.88972e+65
   6.88642e+59  -1.19228e+63  -5.55042e+61  -1.86048e+68  5.65659e+135 -2.93797e+202   1.70168e+68  -1.17763e+67  -3.79849e+67  -1.36287e+68  -1.02749e+67   3.83007e+67   1.01315e+65
   6.00825e+50   -1.1052e+63  -5.30675e+61  -1.88673e+68  6.16262e+135 -3.74973e+202   1.71566e+68  -1.31052e+67  -3.86673e+67  -1.36901e+68   1.02274e+67  -3.64305e+67  -2.16781e+65
   4.89934e+50  -1.10508e+63   3.25627e+61   1.45234e+68  4.17778e+135  2.66343e+202   1.30058e+68   1.66998e+67   3.83883e+67   9.01459e+67   1.02272e+67  -3.63921e+67  -5.38396e+65
  -3.78937e+59  -1.10462e+63   3.25385e+61   1.45175e+68   4.1534e+135   2.5298e+202   1.30086e+68   1.66862e+67   3.83744e+67   9.01145e+67  -1.02494e+67  -3.66494e+67   -6.7581e+65
    6.8585e+59  -1.10474e+63  -5.30772e+61  -1.88648e+68  6.14084e+135 -3.72464e+202   1.71602e+68  -1.30994e+67  -3.86618e+67  -1.36887e+68  -1.02492e+67  -3.66878e+67   9.05445e+64
   5.14487e+50   -1.1926e+63   3.40351e+61   7.18939e+65    -4.13e+135  5.68182e+202   6.42691e+67  -1.69731e+67  -3.91042e+67   5.67962e+67   1.02525e+67   3.87727e+67  -5.48864e+65
   4.02113e+50  -1.19362e+63   1.23574e+62   3.31223e+68  1.24579e+136  6.88587e+202   3.11851e+68   1.09858e+67   3.71661e+67   2.83071e+68   1.02587e+67   3.84029e+67  -8.85753e+65
  -1.44655e+60  -1.19317e+63   1.23535e+62   3.31114e+68  1.24606e+136  7.04949e+202    3.1173e+68   1.09605e+67   3.71513e+67   2.83002e+68  -1.02751e+67   3.81386e+67   -1.4797e+66
  -3.78796e+59  -1.19215e+63   3.40109e+61   6.94102e+65 -4.10889e+135  5.74297e+202   6.41044e+67  -1.69789e+67  -3.90994e+67   5.67724e+67  -1.02812e+67   3.85082e+67  -6.88972e+65
   4.89934e+50  -1.10508e+63   3.25627e+61   4.17331e+66 -3.89858e+135  4.94932e+202   6.25779e+67  -1.58526e+67  -3.75675e+67   5.75934e+67   1.02272e+67  -3.62297e+67  -5.38396e+65
   3.78803e+50  -1.10608e+63   1.18201e+62   3.38081e+68  1.43138e+136  1.08818e+203   3.16205e+68   1.39391e+67   3.94883e+67   2.84654e+68   1.02332e+67  -3.65995e+67  -8.60237e+65
  -1.44403e+60  -1.10562e+63   1.18163e+62   3.37974e+68  1.42772e+136   1.0634e+203   3.16147e+68   1.39143e+67   3.94738e+67   2.84586e+68  -1.02493e+67  -3.68568e+67  -1.44276e+66
  -3.78937e+59  -1.10462e+63   3.25385e+61   4.14892e+66 -3.91671e+135  4.88624e+202    6.2721e+67  -1.58583e+67  -3.75628e+67     5.757e+67  -1.02553e+67  -3.64872e+67   -6.7581e+65
   6.88642e+59  -1.19228e+63  -5.55042e+61  -1.86065e+68  5.63325e+135 -2.91033e+202   1.70255e+68  -1.17834e+67  -3.79888e+67  -1.36292e+68   1.02333e+67   3.86425e+67   4.81536e+64
  -3.78796e+59  -1.19215e+63   3.40109e+61   1.44409e+68  3.91755e+135  2.06171e+202    1.3014e+68    1.6234e+67   3.82745e+67   8.99008e+67   1.02347e+67   3.86809e+67  -1.78575e+66
  -7.56535e+59  -1.19079e+63   3.39381e+61   1.44234e+68  3.98626e+135  2.46152e+202   1.29681e+68   1.61935e+67   3.82363e+67   8.98038e+67  -1.02712e+67   3.75728e+67  -1.92673e+66
   1.37721e+60  -1.19092e+63  -5.55159e+61  -1.85889e+68  5.69869e+135 -3.00449e+202    1.6987e+68  -1.17428e+67  -3.79457e+67    -1.362e+68  -1.02726e+67   3.75342e+67   3.59115e+65
    6.8585e+59  -1.10474e+63  -5.30772e+61   -1.8865e+68  6.16646e+135 -3.77585e+202   1.71529e+68  -1.30976e+67  -3.86621e+67   -1.3689e+68   1.02085e+67  -3.63468e+67   1.23083e+64
  -3.78937e+59  -1.10462e+63   3.25385e+61   1.45221e+68  4.18396e+135   2.7623e+202   1.30019e+68   1.67466e+67   3.83849e+67   9.00891e+67   1.02098e+67  -3.63084e+67  -1.75045e+66
  -7.56751e+59  -1.10323e+63   3.24658e+61   1.45048e+68  4.08884e+135   2.3271e+202   1.30192e+68   1.67067e+67   3.83471e+67   8.99938e+67  -1.02462e+67  -3.73867e+67  -1.88873e+66
   1.37175e+60  -1.10336e+63  -5.30905e+61  -1.88478e+68  6.06808e+135 -3.60854e+202   1.71627e+68  -1.30579e+67  -3.86202e+67    -1.368e+68  -1.02475e+67  -3.74252e+67   3.17289e+65
  -3.78796e+59  -1.19215e+63   3.40109e+61   7.30657e+65 -4.13406e+135  5.58477e+202   6.43008e+67  -1.69226e+67   -3.9091e+67   5.67442e+67   1.02286e+67     3.885e+67  -1.78575e+66
  -1.44655e+60  -1.19317e+63   1.23535e+62   3.31201e+68  1.24654e+136  6.70724e+202   3.11815e+68   1.10788e+67   3.71714e+67   2.82951e+68   1.02459e+67   3.84807e+67  -3.62055e+66
  -2.89093e+60  -1.19181e+63   1.23401e+62   3.30762e+68  1.24781e+136  7.25745e+202   3.11329e+68   1.09776e+67   3.70995e+67   2.82685e+68  -1.02665e+67    3.7373e+67  -4.21411e+66
  -7.56535e+59  -1.19079e+63   3.39381e+61    6.4241e+65 -4.04651e+135  5.73049e+202   6.36154e+67   -1.6943e+67   -3.9082e+67   5.66674e+67  -1.02837e+67   3.77415e+67  -1.92673e+66
  -3.78937e+59  -1.10462e+63   3.25385e+61   4.19444e+66 -3.89051e+135  5.01938e+202   6.25148e+67  -1.57979e+67  -3.75523e+67   5.75446e+67   1.02039e+67  -3.61463e+67  -1.75045e+66
  -1.44403e+60  -1.10562e+63   1.18163e+62   3.38066e+68  1.43347e+136  1.11401e+203   3.16154e+68   1.40327e+67   3.94949e+67   2.84538e+68   1.02202e+67  -3.65157e+67  -3.51438e+66
  -2.88586e+60  -1.10423e+63    1.1803e+62   3.37634e+68  1.41823e+136  1.02824e+203   3.15934e+68   1.39331e+67   3.94234e+67   2.84277e+68  -1.02418e+67  -3.75938e+67  -4.09652e+66
  -7.56751e+59  -1.10323e+63   3.24658e+61   4.10597e+66 -3.96732e+135  4.86942e+202   6.31204e+67  -1.58183e+67  -3.75445e+67   5.74688e+67   -1.0258e+67  -3.72252e+67  -1.88873e+66
   1.37721e+60  -1.19092e+63  -5.55159e+61   -1.8605e+68  5.68196e+135 -2.77761e+202   1.70096e+68  -1.19838e+67  -3.79829e+67  -1.36083e+68    1.0251e+67   3.82184e+67   2.66945e+66
  -7.56535e+59  -1.19079e+63   3.39381e+61   1.44316e+68  3.94359e+135   1.9991e+202   1.29937e+68   1.63107e+67   3.82554e+67     8.975e+67   1.02469e+67   3.82567e+67  -3.01821e+66
   -1.1321e+60  -1.18852e+63    3.3817e+61   1.43977e+68  4.20376e+135  2.90271e+202   1.28552e+68   1.62324e+67   3.81701e+67   8.95741e+67  -1.01306e+67   3.42969e+67  -3.15929e+66
   2.06127e+60  -1.18865e+63  -5.54254e+61  -1.85593e+68  5.92424e+135 -3.49841e+202    1.6888e+68  -1.18783e+67  -3.78843e+67   -1.3583e+68  -1.01266e+67    3.4258e+67   2.97687e+66
   1.37175e+60  -1.10336e+63  -5.30905e+61  -1.88624e+68   6.1519e+135 -3.96494e+202   1.71544e+68  -1.32874e+67  -3.86541e+67  -1.36683e+68   1.02253e+67  -3.67428e+67    2.5725e+66
  -7.56751e+59  -1.10323e+63   3.24658e+61   1.45136e+68  4.14935e+135  2.78823e+202   1.30058e+68   1.68255e+67   3.83675e+67   8.99429e+67   1.02208e+67  -3.67044e+67  -2.95651e+66
  -1.13235e+60  -1.10093e+63   3.23448e+61   1.44799e+68   3.8191e+135  1.78362e+202   1.30949e+68   1.67478e+67   3.82819e+67   8.97695e+67  -1.01078e+67  -4.06237e+67  -3.09487e+66
   2.05324e+60  -1.10105e+63   -5.3002e+61   -1.8818e+68  5.80436e+135 -3.09565e+202   1.72067e+68  -1.31848e+67  -3.85594e+67  -1.36436e+68  -1.01032e+67  -4.06625e+67   2.87401e+66
  -7.56535e+59  -1.19079e+63   3.39381e+61   7.24838e+65 -4.09716e+135  5.41054e+202   6.40132e+67  -1.68257e+67   -3.9063e+67   5.66135e+67   1.02344e+67   3.84254e+67  -3.01821e+66
  -2.89093e+60  -1.19181e+63   1.23401e+62   3.31103e+68  1.25352e+136  6.43261e+202   3.11599e+68   1.14611e+67   3.71781e+67   2.82464e+68   1.02722e+67   3.80576e+67  -8.70758e+66
  -4.32637e+60  -1.18954e+63   1.23068e+62   3.30198e+68  1.26777e+136  7.87883e+202   3.10408e+68   1.12523e+67   3.70336e+67   2.81912e+68  -1.01098e+67   3.40989e+67  -9.29778e+66
   -1.1321e+60  -1.18852e+63    3.3817e+61   6.16751e+65 -3.79961e+135  5.39449e+202    6.1644e+67  -1.68506e+67  -3.90236e+67    5.6491e+67  -1.01477e+67   3.44649e+67  -3.15929e+66
  -7.56751e+59  -1.10323e+63   3.24658e+61   4.19421e+66 -3.91523e+135  5.13402e+202   6.27122e+67  -1.56995e+67  -3.75242e+67   5.74179e+67    1.0209e+67   -3.6543e+67  -2.95651e+66
  -2.88586e+60  -1.10423e+63    1.1803e+62   3.37971e+68  1.43434e+136  1.15801e+203    3.1604e+68   1.44081e+67   3.95013e+67   2.84062e+68   1.02447e+67  -3.69109e+67  -8.48719e+66
  -4.31875e+60  -1.10193e+63     1.177e+62    3.3708e+68  1.38934e+136  9.52504e+202     3.158e+68   1.42025e+67   3.93577e+67    2.8352e+68  -1.00878e+67   -4.0829e+67  -9.06604e+66
  -1.13235e+60  -1.10093e+63   3.23448e+61   4.08456e+66 -4.20873e+135  5.14725e+202   6.50032e+67  -1.57248e+67  -3.74875e+67   5.72969e+67  -1.01235e+67  -4.04629e+67  -3.09487e+66
   6.54241e+50  -1.28419e+63  -5.79716e+61  -1.89504e+68  5.82377e+135 -3.07275e+202   1.73459e+68  -1.18118e+67  -3.87023e+67   -1.3899e+68   1.02778e+67   3.93529e+67  -2.03877e+65
   5.39265e+50  -1.28406e+63   3.55364e+61   1.47254e+68  4.08009e+135   2.3323e+202   1.32679e+68   1.65184e+67   3.90111e+67   9.17245e+67   1.02771e+67   3.93928e+67  -5.57333e+65
  -3.78395e+59  -1.28361e+63   3.55123e+61   1.47204e+68   4.0966e+135  2.45812e+202   1.32561e+68   1.65068e+67   3.89985e+67   9.16986e+67  -1.03007e+67   3.91191e+67   -6.9516e+65
   6.91653e+59  -1.28374e+63  -5.79804e+61  -1.89462e+68  5.84058e+135 -3.07901e+202   1.73365e+68  -1.18022e+67  -3.86937e+67  -1.38966e+68  -1.03001e+67   3.90796e+67    1.2003e+65
   6.27224e+50  -1.19273e+63  -5.54949e+61   -1.9224e+68   6.3821e+135 -3.96062e+202   1.74855e+68  -1.32054e+67  -3.94136e+67  -1.39621e+68   1.02527e+67  -3.71477e+67  -2.12047e+65
   5.14487e+50   -1.1926e+63   3.40351e+61   1.48049e+68  4.34333e+135   2.8508e+202   1.32571e+68    1.7026e+67   3.91146e+67   9.19079e+67   1.02525e+67  -3.71078e+67  -5.48871e+65
  -3.78796e+59  -1.19215e+63   3.40109e+61   1.48002e+68  4.31886e+135  2.71234e+202   1.32611e+68   1.70152e+67   3.91034e+67   9.18829e+67  -1.02752e+67  -3.73736e+67  -6.83996e+65
   6.88642e+59  -1.19228e+63  -5.55042e+61  -1.92197e+68  6.35739e+135 -3.92945e+202   1.74878e+68  -1.31954e+67   -3.9404e+67  -1.39598e+68  -1.02749e+67  -3.74132e+67   1.05509e+65
   5.39265e+50  -1.28406e+63   3.55364e+61   7.78128e+65 -4.29262e+135  6.04075e+202   6.55227e+67  -1.72838e+67  -3.98605e+67   5.79224e+67   1.02771e+67   3.95689e+67  -5.57333e+65
    4.2404e+50   -1.2851e+63   1.29054e+62   3.37537e+68  1.28868e+136  7.23242e+202   3.17875e+68   1.10332e+67   3.78531e+67   2.88651e+68   1.02832e+67   3.91839e+67  -9.10103e+65
  -1.44874e+60  -1.28465e+63   1.29014e+62   3.37435e+68  1.28914e+136  7.40622e+202    3.1776e+68   1.10097e+67   3.78397e+67   2.88586e+68  -1.03003e+67   3.89107e+67   -1.5093e+66
  -3.78395e+59  -1.28361e+63   3.55123e+61   7.64111e+65 -4.27063e+135   6.1019e+202   6.53545e+67   -1.7287e+67  -3.98537e+67   5.79048e+67  -1.03064e+67   3.92958e+67   -6.9516e+65
   5.14487e+50   -1.1926e+63   3.40351e+61    4.3346e+66 -4.04837e+135  5.25544e+202   6.37743e+67  -1.61387e+67  -3.82698e+67   5.87431e+67   1.02525e+67  -3.69386e+67  -5.48871e+65
   4.02113e+50  -1.19362e+63   1.23574e+62   3.44622e+68  1.48406e+136  1.15005e+203   3.22372e+68   1.40779e+67    4.0258e+67   2.90286e+68   1.02587e+67  -3.73236e+67  -8.85756e+65
  -1.44655e+60  -1.19317e+63   1.23535e+62   3.44524e+68  1.48044e+136  1.12445e+203   3.22323e+68   1.40554e+67    4.0246e+67   2.90223e+68  -1.02751e+67  -3.75896e+67   -1.4732e+66
  -3.78796e+59  -1.19215e+63   3.40109e+61    4.3229e+66 -4.06765e+135  5.18991e+202   6.39245e+67  -1.61414e+67   -3.8262e+67   5.87263e+67  -1.02812e+67  -3.72045e+67  -6.83996e+65
   6.91653e+59  -1.28374e+63  -5.79804e+61  -1.89516e+68  5.82202e+135 -3.05508e+202   1.73477e+68    -1.183e+67   -3.8706e+67   -1.3898e+68   1.02579e+67   3.94222e+67   9.57452e+64
  -3.78395e+59  -1.28361e+63   3.55123e+61   1.47212e+68  4.07138e+135  2.21457e+202   1.32665e+68   1.65483e+67   3.90003e+67   9.16631e+67   1.02586e+67   3.94618e+67  -1.81333e+66
  -7.55932e+59  -1.28228e+63   3.54397e+61   1.47051e+68  4.14546e+135  2.63576e+202   1.32207e+68   1.65112e+67   3.89645e+67   9.15754e+67  -1.02962e+67   3.83181e+67  -1.95463e+66
   1.38297e+60  -1.28241e+63  -5.79903e+61  -1.89306e+68  5.88819e+135 -3.15783e+202   1.73057e+68  -1.17817e+67  -3.86564e+67  -1.38868e+68   -1.0297e+67   3.82791e+67   4.14441e+65
   6.88642e+59  -1.19228e+63  -5.55042e+61  -1.92214e+68  6.38586e+135 -3.99096e+202   1.74815e+68  -1.32026e+67  -3.94078e+67  -1.39603e+68   1.02333e+67  -3.70714e+67   5.23345e+64
  -3.78796e+59  -1.19215e+63   3.40109e+61   1.48038e+68  4.34914e+135  2.95243e+202   1.32537e+68   1.70715e+67   3.91119e+67   9.18548e+67   1.02347e+67  -3.70318e+67  -1.78077e+66
  -7.56535e+59  -1.19079e+63   3.39381e+61   1.47885e+68  4.25126e+135  2.49796e+202   1.32735e+68    1.7036e+67   3.90789e+67   9.17697e+67  -1.02712e+67  -3.81439e+67   -1.9193e+66
   1.37721e+60  -1.19092e+63  -5.55159e+61  -1.92005e+68   6.2791e+135 -3.80279e+202   1.74891e+68  -1.31543e+67  -3.93571e+67  -1.39493e+68  -1.02726e+67   -3.8183e+67   3.64782e+65
  -3.78395e+59  -1.28361e+63   3.55123e+61     7.719e+65 -4.29654e+135  5.94415e+202   6.55525e+67  -1.72455e+67  -3.98519e+67   5.78693e+67    1.0253e+67   3.96384e+67  -1.81333e+66
  -1.44874e+60  -1.28465e+63   1.29014e+62   3.37495e+68  1.28893e+136  7.03109e+202   3.17826e+68   1.11152e+67   3.78533e+67   2.88526e+68   1.02705e+67   3.92535e+67  -3.72088e+66
  -2.89548e+60  -1.28332e+63   1.28879e+62   3.37064e+68  1.29063e+136  7.61366e+202   3.17342e+68    1.1016e+67   3.77833e+67   2.88265e+68  -1.02912e+67   3.81111e+67  -4.32275e+66
  -7.55932e+59  -1.28228e+63   3.54397e+61   7.02301e+65 -4.20488e+135  6.08908e+202   6.48488e+67  -1.72616e+67  -3.98387e+67   5.78026e+67  -1.03087e+67   3.84957e+67  -1.95463e+66
  -3.78796e+59  -1.19215e+63   3.40109e+61   4.35952e+66 -4.04092e+135  5.32981e+202   6.37175e+67  -1.60851e+67  -3.82535e+67   5.86982e+67   1.02286e+67  -3.68626e+67  -1.78077e+66
  -1.44655e+60  -1.19317e+63   1.23535e+62   3.44611e+68  1.48622e+136  1.17713e+203   3.22327e+68   1.41737e+67   4.02661e+67   2.90171e+68   1.02459e+67  -3.72476e+67  -3.61404e+66
  -2.89093e+60  -1.19181e+63   1.23401e+62   3.44192e+68  1.47067e+136  1.08762e+203    3.2212e+68   1.40769e+67   4.01986e+67   2.89916e+68  -1.02665e+67  -3.83599e+67  -4.20411e+66
  -7.56535e+59  -1.19079e+63   3.39381e+61   4.29345e+66 -4.12201e+135  5.17585e+202   6.43463e+67  -1.61004e+67  -3.82395e+67   5.86333e+67  -1.02837e+67  -3.79752e+67   -1.9193e+66
   1.38297e+60  -1.28241e+63  -5.79903e+61  -1.89503e+68  5.87615e+135 -2.92243e+202   1.73307e+68  -1.20456e+67  -3.87019e+67  -1.38756e+68   1.02761e+67   3.89648e+67   2.77607e+66
  -7.55932e+59  -1.28228e+63   3.54397e+61   1.47107e+68  4.09897e+135  2.15018e+202   1.32445e+68   1.66163e+67   3.89775e+67   9.15135e+67   1.02721e+67   3.90037e+67  -3.07591e+66
  -1.13147e+60  -1.28005e+63   3.53184e+61   1.46757e+68    4.367e+135  3.09507e+202   1.31037e+68   1.65355e+67     3.889e+67   9.13315e+67  -1.01533e+67   3.49957e+67  -3.21981e+66
   2.06955e+60  -1.28018e+63  -5.78977e+61  -1.89035e+68  6.12562e+135 -3.67879e+202   1.72071e+68  -1.19375e+67  -3.86004e+67  -1.38497e+68  -1.01493e+67   3.49568e+67   3.08857e+66
   1.37721e+60  -1.19092e+63  -5.55159e+61  -1.92166e+68  6.36692e+135 -4.18415e+202   1.74816e+68  -1.33953e+67  -3.93943e+67  -1.39376e+68    1.0251e+67  -3.74988e+67   2.67513e+66
  -7.56535e+59  -1.19079e+63   3.39381e+61   1.47967e+68  4.31248e+135  2.97666e+202   1.32596e+68   1.71533e+67   3.90979e+67   9.17159e+67   1.02469e+67    -3.746e+67  -3.01076e+66
   -1.1321e+60  -1.18852e+63    3.3817e+61   1.47622e+68  3.97126e+135  1.92421e+202   1.33496e+68   1.70738e+67   3.90115e+67   9.15372e+67  -1.01306e+67  -4.14263e+67  -3.15184e+66
   2.06127e+60  -1.18865e+63  -5.54254e+61  -1.91708e+68  6.00721e+135 -3.26836e+202   1.75342e+68  -1.32896e+67  -3.92955e+67  -1.39123e+68  -1.01265e+67  -4.14652e+67   2.98151e+66
  -7.55932e+59  -1.28228e+63   3.54397e+61   7.58405e+65 -4.25682e+135  5.76169e+202   6.52487e+67  -1.71565e+67  -3.98258e+67   5.77407e+67   1.02597e+67   3.91813e+67  -3.07591e+66
  -2.89548e+60  -1.28332e+63   1.28879e+62   3.37385e+68  1.29595e+136  6.73427e+202   3.17599e+68    1.1496e+67   3.78572e+67   2.88032e+68   1.02993e+67   3.87974e+67  -8.92824e+66
  -4.33343e+60  -1.28109e+63   1.28544e+62   3.36455e+68  1.31045e+136  8.24211e+202   3.16382e+68   1.12815e+67   3.77088e+67   2.87465e+68  -1.01316e+67   3.47909e+67  -9.52959e+66
  -1.13147e+60  -1.28005e+63   3.53184e+61   6.44394e+65  -3.9495e+135  5.74003e+202   6.28484e+67  -1.71828e+67   -3.9786e+67   5.76132e+67  -1.01712e+67   3.51733e+67  -3.21981e+66
  -7.56535e+59  -1.19079e+63   3.39381e+61   4.37595e+66 -4.06878e+135  5.45206e+202   6.39369e+67  -1.59831e+67  -3.82204e+67   5.85795e+67   1.02344e+67  -3.72913e+67  -3.01076e+66
  -2.89093e+60  -1.19181e+63   1.23401e+62   3.44532e+68   1.4872e+136  1.22342e+203   3.22228e+68   1.45604e+67   4.02772e+67   2.89695e+68   1.02722e+67  -3.76753e+67  -8.69756e+66
  -4.32637e+60  -1.18954e+63   1.23068e+62    3.4362e+68  1.44059e+136  1.00791e+203   3.21976e+68   1.43497e+67   4.01309e+67   2.89139e+68  -1.01098e+67  -4.16407e+67  -9.28712e+66
   -1.1321e+60  -1.18852e+63    3.3817e+61   4.26262e+66  -4.3716e+135  5.47037e+202   6.62554e+67  -1.60092e+67  -3.81823e+67   5.84541e+67  -1.01477e+67  -4.12583e+67  -3.15184e+66
   6.77641e+50  -1.37967e+63  -6.05002e+61   -1.9306e+68  6.01419e+135 -3.21158e+202   1.76799e+68  -1.18172e+67  -3.94373e+67  -1.41805e+68   1.03032e+67   4.01724e+67    -1.868e+65
   5.62979e+50  -1.37954e+63   3.70673e+61   1.50206e+68  4.24835e+135  2.51194e+202   1.35327e+68   1.68848e+67   3.97778e+67    9.3543e+67   1.03008e+67   4.02152e+67  -5.58682e+65
   -3.7751e+59   -1.3791e+63   3.70436e+61   1.50186e+68  4.26846e+135  2.64512e+202    1.3523e+68   1.68802e+67   3.97692e+67   9.35362e+67   -1.0327e+67   3.99311e+67    -6.898e+65
   6.95133e+59  -1.37923e+63  -6.05081e+61   -1.9298e+68  6.02843e+135 -3.21778e+202   1.76672e+68  -1.17988e+67  -3.94229e+67  -1.41758e+68  -1.03245e+67   3.98899e+67   1.52901e+65
   6.54241e+50  -1.28419e+63  -5.79716e+61  -1.95988e+68  6.61699e+135 -4.19014e+202   1.78309e+68  -1.33081e+67  -4.01985e+67  -1.42481e+68   1.02777e+67  -3.78942e+67  -2.03907e+65
   5.39265e+50  -1.28406e+63   3.55364e+61    1.5095e+68  4.51765e+135  3.05316e+202   1.35161e+68   1.73713e+67   3.98641e+67   9.37149e+67   1.02771e+67  -3.78514e+67  -5.57357e+65
  -3.78395e+59  -1.28361e+63   3.55123e+61    1.5094e+68  4.49512e+135  2.91302e+202   1.35232e+68   1.73689e+67   3.98606e+67   9.37103e+67  -1.03007e+67  -3.81267e+67  -6.85853e+65
   6.91653e+59  -1.28374e+63  -5.79804e+61    -1.959e+68   6.5865e+135 -4.14742e+202   1.78299e+68   -1.3288e+67  -4.01794e+67  -1.42433e+68  -1.03001e+67   -3.8168e+67      1.29e+65
   5.62979e+50  -1.37954e+63   3.70673e+61   8.51376e+65 -4.46347e+135  6.41854e+202   6.68147e+67  -1.75816e+67  -4.06437e+67   5.90767e+67   1.03008e+67   4.03965e+67  -5.58682e+65
   4.47971e+50   -1.3806e+63   1.34644e+62    3.4413e+68  1.33531e+136  7.64123e+202   3.24148e+68    1.1117e+67   3.85744e+67   2.94438e+68   1.03054e+67   3.99965e+67  -9.27794e+65
  -1.45029e+60  -1.38016e+63   1.34605e+62   3.44059e+68  1.33633e+136  7.82993e+202   3.24057e+68   1.11005e+67   3.85654e+67   2.94393e+68   -1.0325e+67   3.97135e+67  -1.52681e+66
   -3.7751e+59   -1.3791e+63   3.70436e+61   8.68639e+65  -4.4411e+135  6.47678e+202   6.66472e+67  -1.75776e+67  -4.06322e+67   5.90784e+67  -1.03296e+67   4.01147e+67    -6.898e+65
   5.39265e+50  -1.28406e+63   3.55364e+61   4.47447e+66  -4.2059e+135  5.58377e+202   6.50071e+67  -1.64308e+67  -3.90075e+67   5.99128e+67   1.02771e+67  -3.76753e+67  -5.57357e+65
    4.2404e+50   -1.2851e+63   1.29054e+62   3.51403e+68   1.5399e+136  1.21754e+203   3.28762e+68   1.42329e+67   4.10528e+67   2.96117e+68   1.02832e+67  -3.80754e+67  -9.10126e+65
  -1.44874e+60  -1.28465e+63   1.29014e+62   3.51341e+68  1.53678e+136  1.19208e+203   3.28745e+68   1.42188e+67   4.10488e+67   2.96074e+68  -1.03003e+67  -3.83513e+67  -1.49717e+66
  -3.78395e+59  -1.28361e+63   3.55123e+61   4.50018e+66 -4.22682e+135  5.51449e+202   6.51696e+67  -1.64249e+67  -3.89915e+67   5.99165e+67  -1.03064e+67    -3.795e+67  -6.85853e+65
   6.95133e+59  -1.37923e+63  -6.05081e+61  -1.93113e+68  6.02103e+135  -3.2056e+202   1.76837e+68  -1.18708e+67  -3.94535e+67  -1.41788e+68   1.02834e+67   4.02333e+67   1.68233e+65
   -3.7751e+59   -1.3791e+63   3.70436e+61   1.50125e+68   4.2352e+135  2.38439e+202   1.35286e+68   1.68851e+67   3.97551e+67   9.34844e+67   1.02802e+67   4.02746e+67  -1.82267e+66
  -7.54617e+59  -1.37779e+63   3.69718e+61   1.50022e+68  4.31847e+135   2.8293e+202   1.34863e+68   1.68615e+67   3.97263e+67   9.34343e+67  -1.03229e+67   3.90921e+67  -1.96241e+66
   1.38939e+60  -1.37792e+63  -6.05153e+61  -1.92821e+68  6.08351e+135 -3.31551e+202   1.76342e+68  -1.18034e+67  -3.93914e+67  -1.41626e+68  -1.03197e+67   3.90542e+67   4.97181e+65
   6.91653e+59  -1.28374e+63  -5.79804e+61  -1.95953e+68  6.62109e+135 -4.22749e+202    1.7826e+68  -1.33157e+67  -4.01916e+67  -1.42446e+68   1.02579e+67  -3.78254e+67   1.04679e+65
  -3.78395e+59  -1.28361e+63   3.55123e+61   1.50948e+68  4.52293e+135  3.15674e+202   1.35138e+68   1.74105e+67   3.98625e+67   9.36749e+67   1.02586e+67   -3.7784e+67  -1.80405e+66
  -7.55932e+59  -1.28228e+63   3.54397e+61   1.50868e+68  4.42665e+135  2.68914e+202   1.35405e+68    1.7392e+67   3.98453e+67   9.36306e+67  -1.02962e+67  -3.89324e+67  -1.94099e+66
   1.38297e+60  -1.28241e+63  -5.79903e+61  -1.95647e+68   6.4993e+135 -4.00554e+202   1.78265e+68   -1.3245e+67  -4.01196e+67  -1.42282e+68   -1.0297e+67  -3.89705e+67   4.27048e+65
   -3.7751e+59   -1.3791e+63   3.70436e+61   8.07737e+65 -4.46802e+135  6.33088e+202   6.68481e+67  -1.75726e+67  -4.06463e+67   5.90266e+67   1.02776e+67   4.04582e+67  -1.82267e+66
  -1.45029e+60  -1.38016e+63   1.34605e+62   3.44043e+68  1.33417e+136  7.39549e+202   3.24073e+68   1.11678e+67   3.85618e+67   2.94313e+68   1.02923e+67   4.00571e+67  -3.80383e+66
  -2.89907e+60  -1.37885e+63   1.34469e+62   3.43672e+68  1.33709e+136  8.02154e+202   3.23634e+68   1.10822e+67   3.85002e+67   2.94089e+68  -1.03168e+67    3.8878e+67  -4.41159e+66
  -7.54617e+59  -1.37779e+63   3.69718e+61   8.00182e+65 -4.37329e+135  6.46908e+202   6.61357e+67  -1.75744e+67   -4.0624e+67   5.89985e+67  -1.03316e+67   3.92814e+67  -1.96241e+66
  -3.78395e+59  -1.28361e+63   3.55123e+61    4.5081e+66 -4.19971e+135  5.66452e+202   6.49618e+67  -1.63833e+67  -3.89897e+67   5.98811e+67    1.0253e+67  -3.76074e+67  -1.80405e+66
  -1.44874e+60  -1.28465e+63   1.29014e+62   3.51401e+68  1.54196e+136  1.24527e+203   3.28729e+68   1.43245e+67   4.10625e+67   2.96014e+68   1.02706e+67  -3.80084e+67  -3.70877e+66
  -2.89548e+60  -1.28332e+63   1.28879e+62   3.51056e+68  1.52713e+136   1.1541e+203   3.28586e+68   1.42448e+67    4.1012e+67   2.95799e+68  -1.02911e+67   -3.9158e+67  -4.30437e+66
  -7.55932e+59  -1.28228e+63   3.54397e+61   4.51907e+66 -4.28625e+135  5.50364e+202   6.56253e+67  -1.63808e+67  -3.89579e+67   5.98578e+67  -1.03087e+67  -3.87547e+67  -1.94099e+66
   1.38939e+60  -1.37792e+63  -6.05153e+61  -1.93105e+68  6.08352e+135 -3.08005e+202   1.76653e+68  -1.21172e+67   -3.9457e+67  -1.41531e+68   1.03021e+67   3.97416e+67   2.90126e+66
  -7.54617e+59  -1.37779e+63   3.69718e+61   1.50005e+68  4.26297e+135  2.31485e+202    1.3505e+68   1.69297e+67   3.97223e+67   9.33528e+67   1.02948e+67   3.97794e+67  -3.12438e+66
  -1.13019e+60   -1.3756e+63   3.68505e+61   1.49662e+68  4.54049e+135  3.30284e+202   1.33634e+68   1.68506e+67   3.96313e+67   9.31799e+67  -1.01775e+67   3.57212e+67  -3.27241e+66
   2.07837e+60  -1.37573e+63  -6.04203e+61  -1.92603e+68  6.33871e+135 -3.87443e+202   1.75377e+68  -1.20012e+67  -3.93529e+67  -1.41249e+68  -1.01702e+67   3.56861e+67   3.21782e+66
   1.38297e+60  -1.28241e+63  -5.79903e+61  -1.95844e+68  6.59431e+135  -4.4208e+202   1.78215e+68  -1.35089e+67  -4.01651e+67   -1.4217e+68   1.02761e+67  -3.82847e+67   2.78871e+66
  -7.55932e+59  -1.28228e+63   3.54397e+61   1.50924e+68  4.48638e+135  3.18197e+202   1.35247e+68   1.74972e+67   3.98583e+67   9.35687e+67   1.02722e+67  -3.82467e+67  -3.06223e+66
  -1.13147e+60  -1.28005e+63   3.53184e+61   1.50604e+68   4.1364e+135  2.08246e+202   1.36181e+68   1.74234e+67   3.97778e+67   9.34031e+67  -1.01533e+67  -4.22618e+67  -3.20731e+66
   2.06955e+60  -1.28018e+63  -5.78977e+61  -1.95335e+68  6.21811e+135 -3.44883e+202   1.78711e+68  -1.33914e+67  -4.00543e+67  -1.41889e+68  -1.01493e+67   -4.2297e+67   3.09894e+66
  -7.54617e+59  -1.37779e+63   3.69718e+61   7.82994e+65  -4.4269e+135  6.14636e+202   6.65396e+67  -1.75061e+67  -4.06279e+67    5.8917e+67   1.02861e+67   3.99686e+67  -3.12438e+66
  -2.89907e+60  -1.37885e+63   1.34469e+62   3.43915e+68  1.34055e+136  7.05509e+202    3.2384e+68   1.15293e+67   3.85564e+67   2.93829e+68   1.03245e+67    3.9566e+67  -9.14431e+66
  -4.33956e+60  -1.37666e+63   1.34131e+62   3.42982e+68  1.35558e+136  8.62993e+202   3.22616e+68    1.1314e+67   3.84039e+67   2.93264e+68  -1.01545e+67   3.55086e+67  -9.75841e+66
  -1.13019e+60   -1.3756e+63   3.68505e+61    6.8265e+65 -4.11013e+135  6.11637e+202   6.41139e+67  -1.75292e+67  -4.05883e+67   5.88001e+67   -1.0193e+67   3.59122e+67  -3.27241e+66
  -7.55932e+59  -1.28228e+63   3.54397e+61   4.57534e+66   -4.232e+135  5.79525e+202   6.52145e+67  -1.62756e+67  -3.89449e+67   5.97959e+67   1.02597e+67  -3.80691e+67  -3.06223e+66
  -2.89548e+60  -1.28332e+63   1.28879e+62   3.51376e+68  1.54352e+136  1.29466e+203   3.28679e+68   1.47249e+67    4.1086e+67   2.95565e+68   1.02993e+67  -3.84717e+67  -8.90981e+66
  -4.33343e+60  -1.28109e+63   1.28544e+62   3.50476e+68  1.49581e+136  1.06975e+203   3.28444e+68   1.45173e+67   4.09445e+67   2.95015e+68  -1.01316e+67  -4.24878e+67  -9.51163e+66
  -1.13147e+60  -1.28005e+63   3.53184e+61   4.49164e+66 -4.54517e+135  5.81703e+202   6.75673e+67  -1.62949e+67  -3.88982e+67   5.96848e+67  -1.01712e+67  -4.20843e+67  -3.20731e+66
   7.03263e+50  -1.47925e+63  -6.30839e+61  -1.96778e+68  6.21216e+135 -3.34768e+202   1.80304e+68  -1.17978e+67  -4.01946e+67  -1.44786e+68   1.03305e+67   4.10253e+67  -1.49828e+65
   5.85986e+50  -1.47911e+63   3.86279e+61   1.53267e+68  4.42849e+135  2.71297e+202   1.38066e+68   1.72903e+67   4.05851e+67   9.53916e+67   1.03228e+67   4.10757e+67   -5.4251e+65
  -3.76065e+59  -1.47868e+63   3.86053e+61   1.53313e+68  4.45532e+135  2.85433e+202    1.3802e+68   1.73009e+67   4.05834e+67   9.54288e+67  -1.03555e+67   4.07794e+67  -6.65389e+65
   6.99205e+59  -1.47882e+63  -6.30901e+61  -1.96622e+68  6.22022e+135 -3.35282e+202   1.80111e+68  -1.17617e+67  -4.01708e+67  -1.44689e+68  -1.03478e+67   4.07333e+67   2.08599e+65
   6.77641e+50  -1.37967e+63  -6.05002e+61  -1.99959e+68  6.87029e+135 -4.44087e+202    1.8197e+68  -1.34095e+67  -4.10294e+67   -1.4552e+68   1.03032e+67  -3.86737e+67  -1.86868e+65
   5.62979e+50  -1.37954e+63   3.70673e+61   1.53917e+68  4.70004e+135  3.27053e+202   1.37806e+68   1.77413e+67   4.06344e+67   9.55417e+67   1.03008e+67  -3.86233e+67  -5.58741e+65
   -3.7751e+59   -1.3791e+63   3.70436e+61   1.53989e+68  4.68331e+135  3.13501e+202   1.37947e+68   1.77578e+67   4.06469e+67   9.55842e+67   -1.0327e+67  -3.89094e+67  -6.79113e+65
   6.95133e+59  -1.37923e+63  -6.05081e+61  -1.99779e+68   6.8288e+135 -4.37661e+202   1.81887e+68  -1.33681e+67  -4.09919e+67  -1.45419e+68  -1.03246e+67  -3.89556e+67   1.64244e+65
   5.85986e+50  -1.47911e+63   3.86279e+61   9.07752e+65 -4.64127e+135  6.81639e+202   6.81329e+67  -1.78695e+67  -4.14545e+67   6.02318e+67   1.03228e+67   4.12553e+67   -5.4251e+65
   4.69273e+50  -1.48019e+63   1.40349e+62   3.50998e+68  1.38624e+136   8.1309e+202   3.30662e+68   1.12462e+67   3.93356e+67   3.00416e+68   1.03227e+67   4.08434e+67  -9.27328e+65
  -1.45097e+60  -1.47977e+63   1.40311e+62      3.51e+68  1.38846e+136  8.34252e+202   3.30631e+68   1.12467e+67   3.93359e+67   3.00418e+68  -1.03487e+67   4.05496e+67  -1.52178e+66
  -3.76065e+59  -1.47868e+63   3.86053e+61   9.93303e+65 -4.61966e+135   6.8664e+202   6.79753e+67  -1.78498e+67   -4.1435e+67   6.02781e+67  -1.03486e+67   4.09654e+67  -6.65389e+65
   5.62979e+50  -1.37954e+63   3.70673e+61   4.56311e+66 -4.37026e+135  5.93326e+202   6.62653e+67  -1.67251e+67  -3.97872e+67   6.10753e+67   1.03008e+67  -3.84419e+67  -5.58741e+65
   4.47971e+50   -1.3806e+63   1.34644e+62   3.58407e+68  1.59906e+136  1.29169e+203   3.35358e+68   1.44117e+67   4.18691e+67   3.02126e+68   1.03054e+67  -3.88538e+67  -9.27856e+65
  -1.45029e+60  -1.38016e+63   1.34605e+62   3.58434e+68  1.59733e+136  1.26834e+203   3.35413e+68    1.4418e+67   4.18829e+67   3.02133e+68   -1.0325e+67  -3.91415e+67  -1.51018e+66
   -3.7751e+59   -1.3791e+63   3.70436e+61   4.67195e+66 -4.39381e+135  5.85792e+202   6.64503e+67  -1.66999e+67  -3.97545e+67   6.11264e+67  -1.03296e+67  -3.87258e+67  -6.79113e+65
   6.99205e+59  -1.47882e+63  -6.30901e+61  -1.96889e+68  6.23263e+135   -3.361e+202   1.80369e+68  -1.19086e+67  -4.02326e+67  -1.44748e+68   1.03134e+67   4.10777e+67   2.91403e+65
  -3.76065e+59  -1.47868e+63   3.86053e+61   1.53132e+68  4.40809e+135  2.57336e+202    1.3799e+68   1.72407e+67   4.05415e+67   9.53494e+67   1.02968e+67   4.11237e+67   -1.7904e+66
  -7.52515e+59  -1.47739e+63    3.8536e+61   1.53175e+68  4.50814e+135   3.0447e+202   1.37676e+68   1.72508e+67   4.05251e+67   9.53995e+67  -1.03547e+67   3.98974e+67  -1.92856e+66
   1.39664e+60  -1.47753e+63  -6.30929e+61  -1.96419e+68  6.28266e+135 -3.47592e+202   1.79715e+68  -1.17999e+67  -4.01504e+67  -1.44468e+68  -1.03382e+67   3.98624e+67   6.31906e+65
   6.95133e+59  -1.37923e+63  -6.05081e+61  -1.99912e+68  6.87616e+135 -4.49143e+202   1.81902e+68  -1.34399e+67  -4.10224e+67  -1.45449e+68   1.02834e+67  -3.86121e+67   1.79482e+65
   -3.7751e+59   -1.3791e+63   3.70436e+61   1.53928e+68  4.70414e+135  3.37391e+202   1.37803e+68   1.77629e+67   4.06329e+67   9.55324e+67   1.02802e+67   -3.8566e+67  -1.81206e+66
  -7.54617e+59  -1.37779e+63   3.69718e+61   1.54039e+68  4.61923e+135  2.90791e+202   1.38234e+68   1.77884e+67   4.06532e+67   9.55971e+67  -1.03228e+67  -3.97543e+67   -1.9474e+66
   1.38939e+60  -1.37792e+63  -6.05153e+61  -1.99383e+68  6.72581e+135 -4.21027e+202   1.81735e+68  -1.33178e+67  -4.09056e+67  -1.45159e+68  -1.03197e+67  -3.97897e+67   5.13036e+65
  -3.76065e+59  -1.47868e+63   3.86053e+61   8.11851e+65 -4.64801e+135  6.74993e+202   6.81812e+67    -1.791e+67  -4.14768e+67   6.01987e+67   1.03038e+67   4.13096e+67   -1.7904e+66
  -1.45097e+60  -1.47977e+63   1.40311e+62   3.50839e+68  1.38244e+136  7.81031e+202    3.3055e+68   1.12372e+67   3.92987e+67   3.00303e+68   1.03069e+67   4.08939e+67  -3.84219e+66
  -2.90138e+60  -1.47848e+63   1.40175e+62    3.5063e+68  1.38809e+136  8.49825e+202   3.30243e+68   1.11889e+67   3.92553e+67   3.00186e+68   -1.0346e+67   3.96745e+67  -4.45435e+66
  -7.52515e+59  -1.47739e+63    3.8536e+61    9.5778e+65 -4.55308e+135  6.86918e+202   6.74833e+67  -1.78763e+67  -4.14382e+67   6.02723e+67  -1.03491e+67   4.00997e+67  -1.92856e+66
   -3.7751e+59   -1.3791e+63   3.70436e+61   4.61123e+66 -4.36667e+135  6.02533e+202   6.62415e+67  -1.66949e+67  -3.97685e+67   6.10746e+67   1.02776e+67  -3.83824e+67  -1.81206e+66
  -1.45029e+60  -1.38016e+63   1.34605e+62   3.58418e+68  1.60062e+136   1.3186e+203   3.35347e+68   1.44854e+67   4.18792e+67   3.02054e+68   1.02924e+67  -3.87979e+67  -3.78727e+66
  -2.89907e+60  -1.37885e+63   1.34469e+62   3.58276e+68  1.58872e+136  1.23046e+203   3.35372e+68   1.44526e+67   4.18704e+67   3.01953e+68  -1.03168e+67  -3.99899e+67  -4.38693e+66
  -7.54617e+59  -1.37779e+63   3.69718e+61   4.81671e+66 -4.46117e+135  5.85086e+202   6.69654e+67  -1.66475e+67  -3.96971e+67   6.11612e+67  -1.03316e+67   -3.9565e+67   -1.9474e+66
   1.39664e+60  -1.47753e+63  -6.30929e+61  -1.96877e+68   6.3075e+135 -3.25318e+202   1.80147e+68  -1.22093e+67  -4.02562e+67  -1.44411e+68   1.03331e+67   4.05514e+67   3.06788e+66
  -7.52515e+59  -1.47739e+63    3.8536e+61   1.53002e+68  4.43428e+135  2.49376e+202   1.37751e+68   1.72386e+67   4.04851e+67   9.52784e+67   1.03111e+67   4.05863e+67  -3.14416e+66
  -1.12839e+60  -1.47525e+63    3.8416e+61   1.52736e+68  4.72691e+135  3.52755e+202   1.36387e+68   1.71772e+67   4.03884e+67   9.51706e+67  -1.02079e+67   3.64734e+67  -3.30052e+66
   2.08775e+60  -1.47538e+63  -6.29941e+61   -1.9626e+68  6.56206e+135 -4.08631e+202   1.78762e+68  -1.20671e+67  -4.01492e+67  -1.44044e+68  -1.01858e+67   3.64507e+67   3.38564e+66
   1.38939e+60  -1.37792e+63  -6.05153e+61  -1.99667e+68  6.83573e+135 -4.67808e+202   1.81745e+68  -1.36314e+67  -4.09711e+67  -1.45064e+68    1.0302e+67  -3.91023e+67   2.91715e+66
  -7.54617e+59  -1.37779e+63   3.69718e+61   1.54022e+68  4.67222e+135  3.40629e+202   1.38023e+68   1.78568e+67   4.06493e+67   9.55156e+67   1.02948e+67   -3.9067e+67  -3.10932e+66
  -1.13019e+60   -1.3756e+63   3.68505e+61   1.53835e+68  4.32211e+135  2.26832e+202    1.3908e+68   1.78137e+67   4.05943e+67    9.5427e+67  -1.01774e+67  -4.31337e+67  -3.26249e+66
   2.07837e+60  -1.37573e+63  -6.04203e+61  -1.98989e+68   6.4305e+135 -3.62752e+202   1.82116e+68   -1.3475e+67  -4.08266e+67  -1.44687e+68  -1.01702e+67  -4.31572e+67   3.22843e+66
  -7.52515e+59  -1.47739e+63    3.8536e+61   7.84536e+65 -4.60903e+135  6.57545e+202   6.78944e+67  -1.78885e+67  -4.14782e+67   6.01513e+67   1.03166e+67   4.07886e+67  -3.14416e+66
  -2.90138e+60  -1.47848e+63   1.40175e+62   3.50703e+68   1.3872e+136  7.39541e+202   3.30334e+68    1.1554e+67   3.92722e+67   2.99877e+68   1.03426e+67   4.03641e+67  -9.33314e+66
  -4.34454e+60  -1.47633e+63   1.39837e+62   3.49841e+68  1.40364e+136  9.04789e+202   3.29169e+68    1.1355e+67   3.91146e+67   2.99371e+68  -1.01822e+67   3.62483e+67  -9.96278e+66
  -1.12839e+60  -1.47525e+63    3.8416e+61   7.68203e+65 -4.28524e+135  6.52999e+202   6.54662e+67  -1.78923e+67  -4.14405e+67    6.0101e+67  -1.02081e+67    3.6683e+67  -3.30052e+66
  -7.54617e+59  -1.37779e+63   3.69718e+61    4.7998e+66 -4.40632e+135    6.167e+202   6.65534e+67   -1.6579e+67   -3.9701e+67   6.10798e+67   1.02861e+67  -3.88778e+67  -3.10932e+66
  -2.89907e+60  -1.37885e+63   1.34469e+62    3.5852e+68  1.60345e+136  1.37207e+203   3.35413e+68   1.48998e+67   4.19267e+67   3.01693e+68   1.03246e+67  -3.93018e+67  -9.11959e+66
  -4.33956e+60  -1.37666e+63   1.34131e+62   3.57747e+68  1.55645e+136  1.14106e+203   3.35289e+68   1.47215e+67   4.18112e+67   3.01214e+68  -1.01544e+67  -4.33767e+67  -9.73637e+66
  -1.13019e+60   -1.3756e+63   3.68505e+61     4.856e+66  -4.7325e+135  6.18455e+202   6.89643e+67   -1.6566e+67  -3.96252e+67   6.10472e+67  -1.01929e+67  -4.29426e+67  -3.26249e+66
   7.26091e+50  -1.58301e+63  -6.57269e+61  -2.00822e+68  6.43919e+135 -3.51926e+202   1.84094e+68  -1.18374e+67  -4.09871e+67  -1.47998e+68   1.03616e+67    4.1911e+67  -8.01413e+64
   6.08768e+50  -1.58287e+63   4.02179e+61   1.56302e+68  4.60559e+135  2.91493e+202     1.408e+68   1.76542e+67   4.14262e+67   9.72217e+67   1.03424e+67   4.19814e+67  -4.94606e+65
  -3.75087e+59  -1.58245e+63   4.01977e+61   1.56453e+68  4.64236e+135  3.06417e+202   1.40838e+68   1.76891e+67   4.14309e+67   9.73334e+67   -1.0387e+67   4.16723e+67  -6.29265e+65
   7.02842e+59  -1.58259e+63  -6.57302e+61  -2.00558e+68  6.43844e+135 -3.52536e+202   1.83807e+68  -1.17763e+67  -4.09563e+67  -1.47825e+68  -1.03678e+67   4.16113e+67   2.77339e+65
   7.03263e+50  -1.47925e+63  -6.30839e+61  -2.04184e+68  7.14325e+135 -4.71383e+202   1.85871e+68  -1.35069e+67  -4.19036e+67  -1.48774e+68   1.03304e+67  -3.94921e+67  -1.49942e+65
   5.85986e+50  -1.47911e+63   3.86279e+61   1.56939e+68  4.89083e+135  3.50381e+202   1.40495e+68   1.81378e+67   4.14324e+67   9.73686e+67   1.03228e+67  -3.94217e+67  -5.42621e+65
  -3.76065e+59  -1.47868e+63   3.86053e+61   1.57143e+68  4.88422e+135  3.37969e+202   1.40747e+68   1.81849e+67   4.14673e+67    9.7491e+67  -1.03555e+67  -3.97206e+67  -6.74474e+65
   6.99205e+59  -1.47882e+63  -6.30901e+61  -2.03869e+68  7.08615e+135 -4.61892e+202   1.85678e+68  -1.34341e+67  -4.18432e+67  -1.48592e+68  -1.03478e+67  -3.97818e+67   2.00091e+65
   6.08768e+50  -1.58287e+63   4.02179e+61   8.01685e+65 -4.82497e+135  7.27001e+202   6.94666e+67  -1.82305e+67  -4.23048e+67    6.1337e+67   1.03424e+67   4.21419e+67  -4.94606e+65
   4.91726e+50  -1.58398e+63   1.46171e+62   3.58034e+68  1.43912e+136  8.64267e+202   3.37339e+68   1.13575e+67   4.01336e+67   3.06543e+68   1.03314e+67   4.17291e+67  -8.95504e+65
  -1.45156e+60  -1.58356e+63   1.46135e+62   3.58144e+68  1.44298e+136  8.87989e+202   3.37398e+68   1.13829e+67   4.01417e+67    3.0662e+68  -1.03699e+67   4.14219e+67  -1.50057e+66
  -3.75087e+59  -1.58245e+63   4.01977e+61   9.95278e+65 -4.80571e+135  7.30609e+202   6.93304e+67  -1.81859e+67  -4.22773e+67   6.14585e+67   -1.0359e+67   4.18435e+67  -6.29265e+65
   5.85986e+50  -1.47911e+63   3.86279e+61   4.57952e+66 -4.54062e+135  6.30355e+202   6.75396e+67  -1.70221e+67  -4.06072e+67   6.22088e+67   1.03228e+67  -3.92421e+67  -5.42621e+65
   4.69273e+50  -1.48019e+63   1.40349e+62   3.65634e+68  1.66216e+136  1.37448e+203    3.4215e+68    1.4624e+67   4.27132e+67   3.08297e+68   1.03227e+67   -3.9655e+67  -9.27437e+65
  -1.45097e+60  -1.47977e+63   1.40311e+62   3.65796e+68  1.66258e+136  1.35501e+203   3.42317e+68   1.46614e+67   4.27504e+67   3.08385e+68  -1.03486e+67  -3.99561e+67   -1.5199e+66
  -3.76065e+59  -1.47868e+63   3.86053e+61   4.82339e+66 -4.56817e+135  6.21967e+202   6.77602e+67  -1.69658e+67  -4.05511e+67   6.23403e+67  -1.03485e+67  -3.95346e+67  -6.74474e+65
   7.02842e+59  -1.58259e+63  -6.57302e+61  -2.00931e+68  6.46687e+135   -3.536e+202   1.84136e+68  -1.19841e+67  -4.10423e+67  -1.47904e+68   1.03546e+67   4.19566e+67   4.87619e+65
  -3.75087e+59  -1.58245e+63   4.01977e+61   1.56164e+68  4.58226e+135    2.773e+202    1.4073e+68   1.75685e+67    4.1364e+67   9.72311e+67   1.03057e+67   4.20172e+67  -1.69356e+66
  -7.51271e+59  -1.58119e+63   4.01343e+61   1.56482e+68   4.7099e+135  3.27294e+202    1.4063e+68    1.7642e+67   4.13608e+67   9.74793e+67   -1.0397e+67   4.07414e+67  -1.84236e+66
    1.4032e+60  -1.58132e+63  -6.57248e+61  -2.00151e+68  6.49325e+135 -3.65623e+202   1.83214e+68  -1.18043e+67  -4.09392e+67  -1.47408e+68  -1.03482e+67   4.07067e+67    8.3046e+65
   6.99205e+59  -1.47882e+63  -6.30901e+61  -2.04137e+68   7.1554e+135 -4.78919e+202   1.85786e+68  -1.35811e+67   -4.1905e+67  -1.48651e+68   1.03133e+67  -3.94375e+67   2.82686e+65
  -3.76065e+59  -1.47868e+63   3.86053e+61   1.56962e+68  4.89193e+135  3.60337e+202   1.40517e+68   1.81247e+67   4.14254e+67   9.74116e+67   1.02969e+67  -3.93764e+67  -1.79966e+66
  -7.52515e+59  -1.47739e+63    3.8536e+61   1.57431e+68   4.8327e+135  3.15955e+202   1.41251e+68   1.82331e+67   4.15073e+67   9.76911e+67  -1.03547e+67  -4.06104e+67  -1.94536e+66
   1.39664e+60  -1.47753e+63  -6.30929e+61  -2.03216e+68  6.95839e+135 -4.41611e+202   1.85306e+68  -1.33686e+67  -4.17191e+67  -1.48128e+68  -1.03382e+67  -4.06462e+67   6.18385e+65
  -3.75087e+59  -1.58245e+63   4.01977e+61    7.0551e+65 -4.83563e+135  7.22371e+202   6.95423e+67  -1.83064e+67  -4.23442e+67   6.13561e+67   1.03338e+67   4.21884e+67  -1.69356e+66
  -1.45156e+60  -1.58356e+63   1.46135e+62    3.5785e+68  1.43328e+136  8.26761e+202   3.37229e+68    1.1301e+67   4.00736e+67   3.06475e+68   1.03052e+67   4.17665e+67   -3.8062e+66
   -2.9034e+60  -1.58229e+63   1.46004e+62   3.57949e+68  1.44361e+136  9.03696e+202   3.37181e+68   1.13239e+67   4.00515e+67   3.06573e+68  -1.03806e+67   4.05022e+67  -4.42791e+66
  -7.51271e+59  -1.58119e+63   4.01343e+61   1.12695e+66 -4.74589e+135  7.30956e+202   6.88997e+67  -1.82092e+67   -4.2292e+67   6.16281e+67  -1.03519e+67   4.09495e+67  -1.84236e+66
  -3.76065e+59  -1.47868e+63   3.86053e+61   4.64189e+66 -4.54157e+135  6.41557e+202   6.75509e+67   -1.7026e+67   -4.0593e+67   6.22609e+67   1.03038e+67  -3.91904e+67  -1.79966e+66
  -1.45097e+60  -1.47977e+63   1.40311e+62   3.65635e+68  1.66196e+136   1.3969e+203   3.42154e+68   1.46518e+67   4.27131e+67    3.0827e+68    1.0307e+67  -3.96118e+67  -3.84051e+66
  -2.90138e+60  -1.47848e+63   1.40175e+62   3.65892e+68   1.6563e+136  1.31905e+203   3.42511e+68   1.47111e+67   4.27772e+67   3.08403e+68  -1.03459e+67  -4.08544e+67  -4.44926e+66
  -7.52515e+59  -1.47739e+63    3.8536e+61   5.21388e+66 -4.64829e+135  6.21704e+202   6.83774e+67   -1.6894e+67  -4.04561e+67    6.2564e+67  -1.03491e+67  -4.04081e+67  -1.94536e+66
    1.4032e+60  -1.58132e+63  -6.57248e+61  -2.00852e+68  6.55341e+135 -3.44569e+202   1.83815e+68  -1.23474e+67  -4.11009e+67  -1.47404e+68   1.03825e+67   4.13978e+67   3.31243e+66
  -7.51271e+59  -1.58119e+63   4.01343e+61   1.56097e+68  4.61115e+135  2.68861e+202   1.40553e+68   1.75185e+67   4.12719e+67   9.73065e+67   1.03127e+67   4.14317e+67  -3.10187e+66
  -1.12816e+60  -1.57908e+63   4.00195e+61   1.56086e+68  4.93271e+135  3.77351e+202   1.39392e+68   1.75159e+67   4.11598e+67   9.74101e+67  -1.02542e+67   3.72555e+67  -3.27566e+66
   2.09579e+60  -1.57921e+63  -6.56181e+61  -1.99933e+68  6.79241e+135 -4.31759e+202   1.82156e+68  -1.21354e+67  -4.09985e+67  -1.46799e+68  -1.01844e+67   3.72598e+67   3.62414e+66
   1.39664e+60  -1.47753e+63  -6.30929e+61  -2.03674e+68  7.09672e+135 -4.96517e+202   1.85435e+68  -1.37779e+67  -4.18247e+67  -1.48071e+68    1.0333e+67  -3.99572e+67   3.05431e+66
  -7.52515e+59  -1.47739e+63    3.8536e+61   1.57258e+68  4.86933e+135  3.64967e+202   1.40929e+68    1.8221e+67   4.14673e+67   9.75701e+67   1.03111e+67  -3.99216e+67    -3.161e+66
  -1.12839e+60  -1.47525e+63    3.8416e+61   1.57482e+68  4.54224e+135  2.49863e+202   1.42331e+68   1.82725e+67   4.14835e+67   9.77256e+67  -1.02078e+67  -4.40471e+67  -3.33116e+66
   2.08775e+60  -1.47538e+63  -6.29941e+61   -2.0254e+68  6.63258e+135 -3.78902e+202   1.85446e+68  -1.35164e+67  -4.15985e+67  -1.47426e+68  -1.01859e+67  -4.40452e+67   3.35953e+66
  -7.51271e+59  -1.58119e+63   4.01343e+61   7.41632e+65   -4.805e+135  7.06738e+202   6.93221e+67  -1.83327e+67  -4.23809e+67   6.14553e+67   1.03578e+67   4.16399e+67  -3.10187e+66
   -2.9034e+60  -1.58229e+63   1.46004e+62   3.57725e+68  1.43487e+136  7.73558e+202   3.37073e+68   1.15387e+67   3.99998e+67   3.06186e+68   1.03423e+67    4.1193e+67  -9.45533e+66
  -4.34982e+60  -1.58019e+63   1.45669e+62   3.57125e+68  1.45513e+136  9.49079e+202   3.36136e+68   1.14003e+67    3.9837e+67   3.05888e+68  -1.02255e+67   3.70003e+67  -1.01098e+67
  -1.12816e+60  -1.57908e+63   4.00195e+61   1.00729e+66 -4.48136e+135  6.98816e+202   6.69506e+67  -1.82714e+67  -4.23441e+67   6.16228e+67    -1.021e+67   3.74804e+67  -3.27566e+66
  -7.52515e+59  -1.47739e+63    3.8536e+61   5.04083e+66 -4.59377e+135   6.5771e+202   6.79646e+67  -1.69061e+67   -4.0496e+67    6.2443e+67   1.03167e+67  -3.97193e+67    -3.161e+66
  -2.90138e+60  -1.47848e+63   1.40175e+62   3.65965e+68  1.66676e+136  1.45525e+203   3.42437e+68   1.50764e+67   4.27943e+67   3.08095e+68   1.03427e+67  -4.01648e+67  -9.32805e+66
  -4.34454e+60  -1.47633e+63   1.39837e+62   3.65591e+68   1.6249e+136  1.22675e+203   3.42648e+68     1.499e+67   4.27493e+67   3.07852e+68   -1.0182e+67  -4.43156e+67  -9.96884e+66
  -1.12839e+60  -1.47525e+63    3.8416e+61   5.51349e+66 -4.93967e+135  6.56778e+202   7.04987e+67  -1.67971e+67  -4.03455e+67    6.2656e+67  -1.02081e+67  -4.38376e+67  -3.33116e+66
   7.50579e+50  -1.69106e+63  -6.84315e+61   -2.0571e+68  6.78801e+135 -3.92599e+202    1.8849e+68  -1.23296e+67  -4.18854e+67  -1.51495e+68    1.0393e+67   4.28217e+67   4.75985e+63
   6.31016e+50  -1.69091e+63   4.18385e+61   1.58866e+68  4.72039e+135  3.02078e+202   1.43241e+68   1.76234e+67   4.22473e+67   9.89947e+67   1.03594e+67   4.29365e+67  -4.23776e+65
  -3.79532e+59   -1.6905e+63   4.18216e+61   1.59059e+68  4.76088e+135  3.17284e+202   1.43314e+68   1.76681e+67   4.22406e+67   9.91505e+67  -1.04112e+67   4.26213e+67  -6.67906e+65
   7.00541e+59  -1.69064e+63  -6.84313e+61  -2.05445e+68  6.79026e+135 -3.94783e+202   1.88195e+68  -1.22684e+67  -4.18757e+67  -1.51301e+68  -1.03777e+67   4.25177e+67   2.53374e+65
   7.26091e+50  -1.58301e+63  -6.57269e+61  -2.08519e+68  7.42328e+135 -4.99931e+202   1.89886e+68  -1.36126e+67  -4.27632e+67  -1.52143e+68   1.03616e+67  -4.03567e+67   -8.0195e+64
   6.08768e+50  -1.58287e+63   4.02179e+61   1.60145e+68  5.10026e+135  3.76538e+202   1.43339e+68   1.85421e+67   4.23131e+67     9.929e+67   1.03424e+67  -4.02419e+67  -4.94687e+65
  -3.75087e+59  -1.58245e+63   4.01977e+61     1.604e+68  5.09579e+135  3.63701e+202    1.4364e+68   1.86009e+67   4.23417e+67   9.94576e+67   -1.0387e+67  -4.05535e+67  -7.33623e+65
   7.02842e+59  -1.58259e+63  -6.57302e+61  -2.08194e+68  7.36518e+135 -4.90178e+202   1.89683e+68  -1.35376e+67  -4.27185e+67  -1.51938e+68  -1.03678e+67  -4.06574e+67   1.63129e+65
   6.31016e+50  -1.69091e+63   4.18385e+61   9.01991e+64 -5.01972e+135  7.94438e+202     7.085e+67   -1.9017e+67  -4.32471e+67   6.23543e+67   1.03594e+67   4.30374e+67  -4.23776e+65
   5.11979e+50  -1.69204e+63   1.52114e+62   3.64828e+68   1.4814e+136  8.82325e+202   3.43926e+68   1.11427e+67   4.09232e+67   3.12762e+68   1.03282e+67   4.26483e+67  -8.26141e+65
  -1.45622e+60  -1.69162e+63   1.52081e+62   3.65026e+68  1.48612e+136  9.07561e+202   3.44068e+68   1.11884e+67   4.09208e+67   3.12916e+68  -1.03775e+67   4.23373e+67  -1.52466e+66
  -3.79532e+59   -1.6905e+63   4.18216e+61   2.95119e+65 -5.00338e+135  7.98596e+202   7.07352e+67  -1.89697e+67  -4.32478e+67   6.25126e+67  -1.03462e+67   4.27423e+67  -6.67906e+65
   6.08768e+50  -1.58287e+63   4.02179e+61    4.6448e+66 -4.72116e+135  6.70431e+202   6.88675e+67  -1.73426e+67  -4.14179e+67   6.34053e+67   1.03424e+67  -4.00813e+67  -4.94687e+65
   4.91726e+50  -1.58398e+63   1.46171e+62   3.73153e+68  1.73017e+136  1.46621e+203   3.49201e+68   1.48473e+67   4.36224e+67   3.14683e+68   1.03314e+67  -4.04704e+67  -8.95637e+65
  -1.45156e+60  -1.58356e+63   1.46135e+62   3.73443e+68  1.73241e+136  1.44965e+203   3.49479e+68   1.49143e+67   4.36722e+67   3.14857e+68  -1.03699e+67   -4.0787e+67  -1.57929e+66
  -3.75087e+59  -1.58245e+63   4.01977e+61   4.94209e+66 -4.75254e+135   6.6189e+202   6.91156e+67   -1.7274e+67  -4.13665e+67   6.35827e+67   -1.0359e+67  -4.03823e+67  -7.33623e+65
   7.00541e+59  -1.69064e+63  -6.84313e+61  -2.05404e+68  6.75505e+135 -3.80658e+202   1.88244e+68  -1.22607e+67  -4.18664e+67  -1.51277e+68    1.0423e+67   4.28644e+67   6.77611e+65
  -3.79532e+59   -1.6905e+63   4.18216e+61   1.59071e+68  4.73519e+135  2.94104e+202   1.43417e+68   1.77046e+67   4.22432e+67   9.91228e+67   1.03097e+67   4.29666e+67  -1.57771e+66
  -7.58384e+59  -1.68926e+63   4.17685e+61   1.59651e+68  4.88642e+135  3.45927e+202   1.43534e+68   1.78385e+67   4.22029e+67   9.96092e+67  -1.04474e+67   4.16503e+67  -1.78737e+66
   1.40106e+60   -1.6894e+63  -6.84142e+61  -2.04452e+68  6.77638e+135 -3.97099e+202   1.87147e+68  -1.20409e+67  -4.18206e+67   -1.5059e+68  -1.03341e+67   4.15986e+67   9.73479e+65
   7.02842e+59  -1.58259e+63  -6.57302e+61  -2.08569e+68  7.45278e+135 -5.11172e+202   1.89863e+68  -1.37464e+67  -4.28049e+67  -1.52017e+68   1.03545e+67   -4.0312e+67   3.73102e+65
  -3.75087e+59  -1.58245e+63   4.01977e+61   1.60109e+68  5.09126e+135  3.85422e+202   1.43331e+68   1.84796e+67   4.22745e+67   9.93549e+67   1.03058e+67  -4.02086e+67  -1.79825e+66
  -7.51271e+59  -1.58119e+63   4.01343e+61   1.60981e+68  5.05982e+135   3.4259e+202   1.44413e+68   1.86808e+67    4.2399e+67   9.99012e+67   -1.0397e+67  -4.14978e+67  -2.00346e+66
    1.4032e+60  -1.58132e+63  -6.57248e+61  -2.07332e+68  7.21935e+135   -4.671e+202   1.89122e+68   -1.3461e+67  -4.25962e+67  -1.51275e+68  -1.03482e+67  -4.15517e+67   6.62676e+65
  -3.79532e+59   -1.6905e+63   4.18216e+61   3.06569e+65 -5.03311e+135  7.82828e+202   7.09451e+67  -1.89332e+67  -4.32452e+67    6.2485e+67   1.03747e+67   4.30876e+67  -1.57771e+66
  -1.45622e+60  -1.69162e+63   1.52081e+62    3.6488e+68   1.4804e+136  8.57047e+202   3.43996e+68   1.11838e+67   4.08872e+67   3.12809e+68   1.02878e+67   4.26817e+67  -3.73812e+66
  -2.91187e+60  -1.69039e+63    1.5196e+62   3.65269e+68  1.49419e+136  9.39138e+202   3.44208e+68   1.12735e+67   4.08432e+67   3.13152e+68  -1.04198e+67   4.13633e+67  -4.41971e+66
  -7.58384e+59  -1.68926e+63   4.17685e+61   1.01801e+66 -4.95242e+135  7.88739e+202   7.03808e+67   -1.8769e+67  -4.32146e+67   6.30016e+67  -1.03329e+67   4.18149e+67  -1.78737e+66
  -3.75087e+59  -1.58245e+63   4.01977e+61   4.65087e+66 -4.72674e+135  6.84814e+202   6.89084e+67  -1.73954e+67  -4.14337e+67     6.348e+67   1.03338e+67  -4.00374e+67  -1.79825e+66
  -1.45156e+60  -1.58356e+63   1.46135e+62   3.73147e+68  1.72802e+136  1.48432e+203   3.49226e+68   1.48319e+67   4.36039e+67   3.14712e+68   1.03053e+67  -4.04424e+67   -3.8852e+66
   -2.9034e+60  -1.58229e+63   1.46004e+62   3.73806e+68  1.72797e+136  1.41475e+203    3.4993e+68   1.49839e+67   4.37109e+67   3.15111e+68  -1.03804e+67  -4.17394e+67  -4.55228e+66
  -7.51271e+59  -1.58119e+63   4.01343e+61   5.62576e+66 -4.84974e+135  6.62314e+202   6.98669e+67  -1.71704e+67  -4.12538e+67     6.405e+67  -1.03519e+67  -4.12897e+67  -2.00346e+66
   1.40106e+60   -1.6894e+63  -6.84142e+61  -2.05053e+68  6.82031e+135 -3.65261e+202   1.87688e+68  -1.25433e+67  -4.19595e+67  -1.50551e+68   1.04671e+67   4.22919e+67   3.64207e+66
  -7.58384e+59  -1.68926e+63   4.17685e+61   1.59267e+68  4.78714e+135  2.88901e+202   1.43453e+68   1.77112e+67   4.21143e+67   9.94411e+67   1.03026e+67   4.23419e+67  -2.98012e+66
  -1.13801e+60  -1.68719e+63   4.16678e+61   1.59933e+68  5.17388e+135  4.05845e+202   1.42845e+68   1.78649e+67   4.20154e+67   1.00053e+68    -1.033e+67   3.80922e+67   -3.1913e+66
   2.09433e+60  -1.68732e+63  -6.82904e+61  -2.03405e+68  7.00443e+135 -4.53154e+202    1.8539e+68   -1.2163e+67  -4.18319e+67   -1.4941e+68  -1.01655e+67   3.81166e+67   3.94508e+66
    1.4032e+60  -1.58132e+63  -6.57248e+61  -2.08033e+68  7.39809e+135 -5.31398e+202    1.8942e+68  -1.40047e+67  -4.27582e+67  -1.51271e+68   1.03824e+67  -4.08606e+67   3.14414e+66
  -7.51271e+59  -1.58119e+63   4.01343e+61   1.60595e+68  5.07302e+135  3.90884e+202   1.43937e+68   1.85569e+67   4.23099e+67   9.97281e+67   1.03128e+67  -4.08075e+67  -3.26336e+66
  -1.12816e+60  -1.57908e+63   4.00195e+61   1.61695e+68  4.80913e+135  2.78353e+202   1.46069e+68   1.88107e+67   4.24542e+67    1.0043e+68  -1.02541e+67  -4.50014e+67  -3.47004e+66
   2.09579e+60  -1.57921e+63  -6.56181e+61  -2.05973e+68  6.82566e+135  -3.9466e+202   1.88677e+68  -1.35291e+67  -4.23922e+67  -1.50051e+68  -1.01845e+67  -4.49818e+67   3.44071e+66
  -7.58384e+59  -1.68926e+63   4.17685e+61   6.33969e+65 -5.01415e+135   7.6484e+202   7.08135e+67  -1.88964e+67  -4.33032e+67   6.28335e+67   1.04171e+67   4.25065e+67  -2.98012e+66
  -2.91187e+60  -1.69039e+63    1.5196e+62   3.65089e+68  1.48684e+136  8.15052e+202   3.44124e+68   1.15149e+67   4.08018e+67   3.12772e+68   1.03006e+67   4.20539e+67  -9.48855e+66
  -4.36187e+60  -1.68833e+63   1.51636e+62   3.65119e+68  1.51551e+136   1.0068e+203   3.43739e+68   1.15218e+67   4.06293e+67   3.12967e+68  -1.02836e+67   3.77573e+67  -1.01636e+67
  -1.13801e+60  -1.68719e+63   4.16678e+61   1.53922e+66 -4.70549e+135  7.51095e+202   6.86138e+67  -1.86875e+67  -4.32736e+67   6.35003e+67  -1.01671e+67   3.82892e+67   -3.1913e+66
  -7.51271e+59  -1.58119e+63   4.01343e+61   5.23968e+66 -4.79681e+135  7.05101e+202   6.94569e+67  -1.72943e+67  -4.13429e+67   6.38769e+67   1.03579e+67  -4.05994e+67  -3.26336e+66
   -2.9034e+60  -1.58229e+63   1.46004e+62   3.73581e+68  1.73035e+136  1.53682e+203   3.49656e+68   1.51981e+67   4.36589e+67   3.14724e+68   1.03426e+67  -4.10486e+67  -9.58009e+66
  -4.34982e+60  -1.58019e+63   1.45669e+62   3.74101e+68  1.70179e+136  1.32689e+203   3.50619e+68    1.5318e+67   4.37544e+67   3.15028e+68  -1.02252e+67  -4.53034e+67  -1.02408e+67
  -1.12816e+60  -1.57908e+63   4.00195e+61   6.61645e+66 -5.17531e+135  6.96685e+202   7.22433e+67  -1.69766e+67  -4.10496e+67   6.46427e+67  -1.02099e+67  -4.47765e+67  -3.47004e+66
   7.74955e+50  -1.80347e+63  -7.11867e+61  -2.12633e+68  7.53669e+135 -5.24685e+202   1.94103e+68  -1.44898e+67  -4.31075e+67  -1.55036e+68    1.0405e+67   4.36954e+67  -8.88211e+64
    6.5345e+50  -1.80332e+63   4.35011e+61   1.59847e+68  4.61007e+135  2.74933e+202    1.4471e+68   1.61654e+67   4.28495e+67   1.00832e+68   1.03592e+67   4.38832e+67  -4.31651e+65
  -4.04209e+59  -1.80291e+63   4.34843e+61   1.59583e+68  4.60287e+135  2.87392e+202   1.44443e+68   1.61044e+67   4.27197e+67   1.00759e+68  -1.03806e+67   4.36261e+67  -1.07889e+66
   6.74257e+59  -1.80307e+63  -7.11901e+61  -2.13326e+68  7.64784e+135 -5.40957e+202   1.94577e+68  -1.46498e+67  -4.33363e+67   -1.5534e+68  -1.03347e+67   4.34477e+67   -3.0613e+65
   7.50579e+50  -1.69106e+63  -6.84315e+61  -2.12011e+68  7.63408e+135 -5.23168e+202    1.9317e+68  -1.37794e+67  -4.33396e+67  -1.54892e+68    1.0393e+67  -4.12602e+67   5.40907e+63
   6.31016e+50  -1.69091e+63   4.18385e+61   1.64114e+68  5.36716e+135  4.10033e+202   1.46855e+68   1.88385e+67   4.34586e+67   1.01817e+68   1.03595e+67  -4.10724e+67   -4.2349e+65
  -3.79532e+59   -1.6905e+63   4.18216e+61   1.63907e+68  5.31538e+135  3.87093e+202     1.468e+68   1.87907e+67   4.33593e+67   1.01757e+68  -1.04112e+67  -4.14012e+67  -1.05666e+66
   7.00541e+59  -1.69064e+63  -6.84313e+61  -2.12638e+68  7.68609e+135 -5.34601e+202   1.93724e+68  -1.39241e+67  -4.35357e+67  -1.55178e+68  -1.03776e+67  -4.15798e+67  -2.07176e+65
    6.5345e+50  -1.80332e+63   4.35011e+61  -2.31788e+66 -5.26089e+135  9.37998e+202    7.2569e+67  -2.12573e+67  -4.44702e+67   6.34097e+67   1.03592e+67   4.39426e+67  -4.31651e+65
   5.30611e+50  -1.80446e+63   1.58192e+62    3.7028e+68  1.46859e+136  7.34265e+202   3.49888e+68   9.54419e+66    4.1514e+67   3.19222e+68   1.03303e+67   4.36089e+67  -8.93602e+65
  -1.48036e+60  -1.80406e+63   1.58157e+62   3.69801e+68  1.46106e+136  7.41614e+202   3.49488e+68   9.43359e+66   4.13601e+67   3.19007e+68  -1.03648e+67   4.32639e+67   -1.9902e+66
  -4.04209e+59  -1.80291e+63   4.34843e+61  -2.49916e+66 -5.23182e+135  9.48603e+202   7.23745e+67  -2.12992e+67  -4.45553e+67   6.33553e+67  -1.03359e+67   4.35957e+67  -1.07889e+66
   6.31016e+50  -1.69091e+63   4.18385e+61    5.3388e+66 -4.93786e+135  7.20287e+202   7.04725e+67  -1.78019e+67  -4.20358e+67   6.51766e+67   1.03595e+67  -4.09715e+67   -4.2349e+65
   5.11979e+50  -1.69204e+63   1.52114e+62   3.81747e+68  1.81342e+136  1.57825e+203   3.57206e+68    1.5051e+67   4.48275e+67   3.21868e+68   1.03282e+67  -4.13052e+67  -8.25643e+65
  -1.45622e+60  -1.69162e+63   1.52081e+62   3.81259e+68  1.79967e+136  1.52319e+203   3.56878e+68   1.49385e+67    4.4667e+67   3.21654e+68  -1.03775e+67  -4.16121e+67   -1.8984e+66
  -3.79532e+59   -1.6905e+63   4.18216e+61   5.14288e+66 -4.96593e+135  7.15486e+202   7.06568e+67  -1.78472e+67  -4.21291e+67   6.51191e+67  -1.03461e+67  -4.12802e+67  -1.05666e+66
   6.74257e+59  -1.80307e+63  -7.11901e+61  -2.10599e+68  7.18429e+135  -4.4581e+202    1.9279e+68  -1.32019e+67   -4.2707e+67   -1.5469e+68   1.04895e+67   4.37948e+67   3.15703e+65
  -4.04209e+59  -1.80291e+63   4.34843e+61   1.61499e+68  4.79937e+135  2.90558e+202   1.45885e+68    1.7161e+67   4.31618e+67   1.01176e+68   1.03767e+67    4.3972e+67  -1.82538e+66
  -7.96393e+59   -1.8017e+63   4.34381e+61   1.61698e+68  4.91377e+135  3.44638e+202   1.45714e+68    1.7207e+67   4.30386e+67   1.01452e+68  -1.04399e+67   4.27177e+67  -2.24935e+66
   1.36454e+60  -1.80185e+63  -7.11696e+61  -2.10669e+68  7.32278e+135 -4.75792e+202   1.92506e+68  -1.32179e+67  -4.28922e+67  -1.54559e+68  -1.03271e+67   4.25399e+67   4.13796e+65
   7.00541e+59  -1.69064e+63  -6.84313e+61  -2.12606e+68  7.71072e+135 -5.36774e+202   1.93625e+68  -1.39209e+67  -4.35283e+67  -1.55157e+68   1.04232e+67  -4.12331e+67   2.17122e+65
  -3.79532e+59   -1.6905e+63   4.18216e+61   1.63913e+68   5.3464e+135  4.19876e+202     1.467e+68   1.88241e+67   4.33606e+67   1.01728e+68   1.03097e+67  -4.10559e+67  -1.96649e+66
  -7.58384e+59  -1.68926e+63   4.17685e+61    1.6408e+68  5.23686e+135  3.57927e+202   1.47259e+68   1.88626e+67    4.3225e+67   1.01992e+68  -1.04474e+67  -4.23805e+67  -2.38124e+66
   1.40106e+60   -1.6894e+63  -6.84142e+61  -2.12701e+68  7.63196e+135 -5.24269e+202   1.93933e+68  -1.39429e+67  -4.37245e+67  -1.55034e+68  -1.03338e+67  -4.25583e+67   3.13083e+65
  -4.04209e+59  -1.80291e+63   4.34843e+61  -5.83376e+65 -5.25396e+135  8.75814e+202   7.24866e+67  -2.02425e+67  -4.41132e+67   6.37724e+67   1.04213e+67   4.39417e+67  -1.82538e+66
  -1.48036e+60  -1.80406e+63   1.58157e+62   3.71969e+68  1.52035e+136  8.45787e+202   3.50938e+68   1.06671e+67   4.18604e+67   3.19441e+68   1.02513e+67   4.36075e+67  -3.96761e+66
  -2.94636e+60  -1.80285e+63   1.58045e+62    3.7195e+68  1.52309e+136   9.1415e+202   3.50879e+68   1.06627e+67   4.16006e+67   3.19687e+68  -1.03991e+67   4.23011e+67  -4.79335e+66
  -7.96393e+59   -1.8017e+63   4.34381e+61  -6.64238e+65 -5.17004e+135  8.99782e+202    7.1906e+67  -2.02612e+67  -4.43872e+67   6.39842e+67  -1.02292e+67    4.2699e+67  -2.24935e+66
  -3.79532e+59   -1.6905e+63   4.18216e+61   5.14851e+66 -4.93831e+135  7.35244e+202   7.04615e+67  -1.78138e+67  -4.21278e+67   6.50901e+67   1.03747e+67  -4.09349e+67  -1.96649e+66
  -1.45622e+60  -1.69162e+63   1.52081e+62   3.81106e+68  1.79922e+136  1.57536e+203    3.5672e+68   1.49297e+67   4.46316e+67   3.21545e+68   1.02879e+67  -4.12677e+67  -4.11238e+66
  -2.91187e+60  -1.69039e+63    1.5196e+62   3.81465e+68  1.79022e+136  1.47768e+203    3.5723e+68   1.50126e+67   4.45808e+67   3.21871e+68  -1.04197e+67   -4.2611e+67  -4.92018e+66
  -7.58384e+59  -1.68926e+63   4.17685e+61   5.44713e+66  -5.0649e+135  7.17589e+202   7.13762e+67  -1.77449e+67  -4.21925e+67   6.53845e+67  -1.03328e+67  -4.22159e+67  -2.38124e+66
   1.36454e+60  -1.80185e+63  -7.11696e+61  -2.09461e+68   7.0833e+135 -3.83815e+202   1.91809e+68  -1.27981e+67  -4.26136e+67   -1.5405e+68   1.06581e+67   4.32394e+67    3.8705e+66
  -7.96393e+59   -1.8017e+63   4.34381e+61   1.62937e+68  5.00597e+135   3.1481e+202   1.46773e+68   1.79184e+67   4.33244e+67   1.01694e+68   1.02763e+67   4.34083e+67  -2.90897e+66
  -1.18025e+60  -1.79968e+63   4.33661e+61   1.64447e+68  5.47031e+135  4.42377e+202   1.46876e+68    1.8267e+67   4.30991e+67   1.03081e+68  -1.04337e+67   3.90364e+67  -3.15433e+66
    2.0576e+60  -1.79981e+63  -7.10142e+61   -2.0695e+68  7.21891e+135 -4.77365e+202   1.88704e+68  -1.22185e+67  -4.26079e+67  -1.52123e+68  -1.00519e+67   3.90345e+67   4.16274e+66
   1.40106e+60   -1.6894e+63  -6.84142e+61   -2.1331e+68  7.80102e+135 -5.81512e+202   1.94165e+68  -1.44486e+67  -4.38648e+67  -1.54996e+68   1.04669e+67   -4.1865e+67   2.97948e+66
  -7.58384e+59  -1.68926e+63   4.17685e+61    1.6369e+68   5.2506e+135    4.143e+202   1.46778e+68   1.87323e+67   4.31351e+67   1.01822e+68   1.03029e+67  -4.16889e+67  -3.57569e+66
  -1.13801e+60  -1.68719e+63   4.16678e+61   1.66171e+68  5.09129e+135  3.06006e+202   1.50071e+68   1.93048e+67   4.34548e+67   1.03411e+68  -1.03297e+67  -4.60039e+67  -3.81572e+66
   2.09433e+60  -1.68732e+63  -6.82904e+61  -2.09849e+68  7.06921e+135 -4.21789e+202   1.92269e+68    -1.365e+67   -4.3319e+67   -1.5288e+68  -1.01656e+67  -4.60167e+67   3.26537e+66
  -7.96393e+59   -1.8017e+63   4.34381e+61   5.74315e+65 -5.22695e+135  8.28416e+202      7.23e+67  -1.95498e+67  -4.41014e+67   6.42256e+67   1.04871e+67   4.33895e+67  -2.90897e+66
  -2.94636e+60  -1.80285e+63   1.58045e+62    3.7229e+68  1.53018e+136  8.23933e+202   3.51138e+68   1.11624e+67   4.16792e+67   3.19449e+68   1.02292e+67   4.29887e+67  -9.53328e+66
  -4.40415e+60  -1.80084e+63   1.57748e+62   3.73476e+68  1.57598e+136  1.04387e+203   3.51745e+68    1.1436e+67   4.15651e+67   3.20475e+68  -1.04234e+67   3.85507e+67  -1.03059e+67
  -1.18025e+60  -1.79968e+63   4.33661e+61    2.6903e+66 -4.94675e+135  8.03779e+202   7.03846e+67  -1.90615e+67  -4.40007e+67   6.57525e+67  -1.01655e+67     3.906e+67  -3.15433e+66
  -7.58384e+59  -1.68926e+63   4.17685e+61   5.05719e+66 -5.01294e+135  7.66685e+202   7.09825e+67  -1.78753e+67  -4.22825e+67   6.52149e+67   1.04174e+67  -4.15243e+67  -3.57569e+66
  -2.91187e+60  -1.69039e+63    1.5196e+62   3.81283e+68  1.79388e+136  1.61673e+203   3.56985e+68   1.52532e+67    4.4539e+67   3.21491e+68    1.0301e+67  -4.19204e+67  -9.99036e+66
  -4.36187e+60  -1.68833e+63   1.51636e+62   3.83093e+68  1.78392e+136  1.43268e+203   3.59056e+68   1.56707e+67   4.47772e+67   3.22645e+68  -1.02832e+67  -4.63091e+67  -1.07462e+67
  -1.13801e+60  -1.68719e+63   4.16678e+61   7.77682e+66 -5.44478e+135  7.45759e+202   7.41975e+67  -1.72476e+67  -4.18341e+67   6.68586e+67  -1.01668e+67  -4.58069e+67  -3.81572e+66
   7.99737e+50  -1.92035e+63  -7.39432e+61  -2.23713e+68  9.25263e+135 -9.15292e+202   2.01978e+68  -2.07274e+67   -4.5341e+67  -1.57645e+68   1.00434e+67   4.47314e+67  -8.72148e+65
   6.75093e+50  -1.92018e+63   4.52572e+61   1.57662e+68  3.93361e+135  1.45316e+202    1.4465e+68   1.10661e+67   4.26687e+67   1.03927e+68   1.03039e+67   4.48931e+67  -1.23122e+66
  -4.83052e+59  -1.91979e+63   4.52102e+61   1.54997e+68  3.74077e+135  1.60043e+202    1.4242e+68   1.04512e+67   4.24376e+67   1.02109e+68    -1.031e+67   4.45882e+67  -2.95841e+66
   5.88871e+59  -1.91996e+63  -7.39765e+61  -2.26297e+68  9.56281e+135 -9.30507e+202   2.04077e+68  -2.13236e+67  -4.55534e+67   -1.5942e+68  -1.05705e+67   4.41957e+67  -2.25671e+66
   7.74955e+50  -1.80347e+63  -7.11867e+61  -2.12765e+68  7.69145e+135 -5.45567e+202   1.93849e+68  -1.45087e+67   -4.3138e+67  -1.55119e+68   1.04064e+67  -4.20499e+67  -8.62594e+64
    6.5345e+50  -1.80332e+63   4.35011e+61    1.7158e+68  5.90228e+135  4.79023e+202   1.53419e+68   1.88837e+67    4.5557e+67   1.07139e+68   1.03594e+67  -4.18882e+67  -4.28709e+65
  -4.04209e+59  -1.80291e+63   4.34843e+61   1.67531e+68  5.47239e+135  3.86772e+202   1.50313e+68   1.79493e+67   4.45538e+67   1.05028e+68  -1.03804e+67  -4.21857e+67  -2.11751e+66
   6.74257e+59  -1.80307e+63  -7.11901e+61  -2.16735e+68  8.11942e+135 -6.34144e+202   1.97116e+68  -1.54248e+67  -4.41229e+67  -1.57187e+68  -1.03333e+67   -4.2573e+67  -1.44005e+66
   6.75093e+50  -1.92018e+63   4.52572e+61  -7.74517e+66 -5.68108e+135  1.28798e+203   7.57698e+67  -2.71048e+67  -4.63967e+67   6.57564e+67   1.03039e+67   4.46965e+67  -1.23122e+66
   5.50347e+50  -1.92134e+63   1.64447e+62   3.71697e+68  1.28874e+136  1.13408e+202   3.53936e+68   4.15963e+66   4.11668e+67    3.2637e+68   1.03746e+67   4.43594e+67  -1.26761e+66
  -1.55657e+60  -1.92095e+63   1.64399e+62   3.70207e+68  1.26328e+136  1.16233e+202   3.52733e+68    3.8158e+66   4.09272e+67   3.25464e+68  -1.02699e+67   4.43673e+67  -3.41338e+66
  -4.83052e+59  -1.91979e+63   4.52102e+61  -1.13185e+67 -5.57407e+135  1.35821e+203   7.55128e+67  -2.79294e+67  -4.71171e+67    6.3728e+67  -1.03406e+67   4.46294e+67  -2.95841e+66
    6.5345e+50  -1.80332e+63   4.35011e+61   9.41451e+66 -5.28692e+135  7.93114e+202   7.33182e+67   -1.8539e+67  -4.17627e+67   6.97163e+67   1.03594e+67  -4.18287e+67  -4.28709e+65
   5.30611e+50  -1.80446e+63   1.58192e+62   3.92484e+68  1.91052e+136  1.66016e+203    3.6734e+68   1.46788e+67    4.6638e+67   3.31167e+68   1.03302e+67  -4.21658e+67  -8.92464e+65
  -1.48036e+60  -1.80406e+63   1.58157e+62   3.90555e+68  1.86728e+136   1.5268e+203    3.6587e+68   1.42337e+67   4.61496e+67   3.30172e+68   -1.0365e+67  -4.24798e+67  -2.99055e+66
  -4.04209e+59  -1.80291e+63   4.34843e+61   5.44859e+66 -5.26695e+135  8.19938e+202    7.2778e+67  -1.94543e+67  -4.27212e+67   6.76241e+67  -1.03357e+67   -4.2216e+67  -2.11751e+66
   5.88871e+59  -1.91996e+63  -7.39765e+61  -2.16657e+68  7.94948e+135 -6.27457e+202   1.97461e+68  -1.61343e+67  -4.33288e+67  -1.57194e+68   1.03832e+67    4.4545e+67  -2.18741e+66
  -4.83052e+59  -1.91979e+63   4.52102e+61   1.64131e+68   4.7939e+135  2.54479e+202   1.48813e+68   1.53953e+67   4.45455e+67   1.04191e+68   1.02312e+67   4.49305e+67  -3.70621e+66
  -9.11866e+59  -1.91861e+63   4.51337e+61   1.59394e+68  4.42444e+135  2.76711e+202   1.44852e+68   1.43021e+67   4.32292e+67   1.01863e+68  -1.04297e+67   4.38659e+67  -4.59797e+66
   1.23442e+60  -1.91878e+63  -7.40083e+61  -2.24008e+68  8.95164e+135 -7.62648e+202   2.03047e+68  -1.78307e+67  -4.52482e+67  -1.60929e+68  -1.02777e+67   4.35099e+67  -2.76533e+66
   6.74257e+59  -1.80307e+63  -7.11901e+61  -2.14024e+68    7.713e+135 -5.23136e+202   1.95175e+68  -1.39855e+67  -4.34973e+67  -1.56541e+68   1.04905e+67  -4.22259e+67  -8.15427e+65
  -4.04209e+59  -1.80291e+63   4.34843e+61   1.69427e+68  5.73492e+135  4.76211e+202    1.5156e+68   1.89953e+67   4.49913e+67    1.0544e+68   1.03778e+67  -4.18397e+67  -2.86339e+66
  -7.96393e+59   -1.8017e+63   4.34381e+61   1.64954e+68   5.1599e+135  3.22309e+202   1.48492e+68   1.79631e+67   4.37899e+67   1.03201e+68  -1.04388e+67  -4.33215e+67  -3.73533e+66
   1.36454e+60  -1.80185e+63  -7.11696e+61  -2.21052e+68  8.44332e+135 -6.75095e+202   2.01049e+68  -1.56075e+67  -4.52884e+67  -1.60156e+68  -1.03261e+67  -4.36788e+67   -1.3805e+66
  -4.83052e+59  -1.91979e+63   4.52102e+61  -2.18436e+66 -5.58042e+135  1.04941e+203   7.47342e+67  -2.29853e+67  -4.50092e+67   6.58101e+67   1.02006e+67   4.49717e+67  -3.70621e+66
  -1.55657e+60  -1.92095e+63   1.64399e+62   3.77367e+68  1.46508e+136  5.05866e+202   3.57428e+68   7.76274e+66   4.25795e+67   3.27024e+68   1.03042e+67   4.47102e+67  -6.14251e+66
  -3.06927e+60  -1.91977e+63   1.64246e+62    3.7229e+68  1.38424e+136  4.50206e+202   3.53211e+68    6.5913e+66   4.15615e+67   3.24138e+68  -1.05399e+67   4.32348e+67  -7.70154e+66
  -9.11866e+59  -1.91861e+63   4.51337e+61  -5.69782e+66 -5.35105e+135  1.11866e+203   7.33725e+67  -2.37961e+67  -4.56665e+67   6.37648e+67  -1.06435e+67   4.32902e+67  -4.59797e+66
  -4.04209e+59  -1.80291e+63   4.34843e+61   7.34464e+66 -5.22083e+135  8.06844e+202   7.26276e+67  -1.84083e+67  -4.22837e+67   6.80366e+67   1.04224e+67  -4.18701e+67  -2.86339e+66
  -1.48036e+60  -1.80406e+63   1.58157e+62   3.92713e+68  1.93497e+136  1.79394e+203   3.67252e+68   1.54617e+67   4.66476e+67   3.30604e+68   1.02512e+67  -4.21362e+67  -4.96429e+66
  -2.94636e+60  -1.80285e+63   1.58045e+62   3.86432e+68  1.79019e+136  1.36664e+203    3.6253e+68   1.40122e+67   4.49427e+67   3.27477e+68  -1.03993e+67  -4.34048e+67  -6.48867e+66
  -7.96393e+59   -1.8017e+63   4.34381e+61   2.59165e+66 -5.29624e+135  8.30053e+202   7.28214e+67  -1.95051e+67  -4.36359e+67   6.57327e+67   -1.0228e+67  -4.33402e+67  -3.73533e+66
   1.23442e+60  -1.91878e+63  -7.40083e+61  -2.13517e+68  7.21575e+135 -3.93714e+202   1.95893e+68  -1.25351e+67  -4.28273e+67  -1.58155e+68   1.07546e+67    4.4211e+67   2.58099e+66
  -9.11866e+59  -1.91861e+63   4.51337e+61   1.65976e+68  5.14969e+135  3.11935e+202   1.49661e+68   1.77738e+67   4.47481e+67   1.03454e+68   1.07282e+67   4.45712e+67  -3.48155e+66
  -1.30333e+60  -1.91663e+63   4.50988e+61   1.70401e+68  5.91089e+135  5.11431e+202   1.52071e+68   1.87949e+67   4.57324e+67   1.05873e+68  -1.02724e+67   4.07482e+67  -3.79908e+66
   1.93498e+60   -1.9168e+63  -7.38377e+61  -2.11253e+68  7.31301e+135 -4.61008e+202   1.93171e+68  -1.20127e+67  -4.23416e+67  -1.56899e+68   -1.0246e+67   4.01199e+67   3.03123e+66
   1.36454e+60  -1.80185e+63  -7.11696e+61  -2.19873e+68  8.33335e+135 -6.47418e+202   2.00027e+68  -1.52023e+67  -4.50162e+67  -1.59654e+68   1.06596e+67  -4.29793e+67   2.07211e+66
  -7.96393e+59   -1.8017e+63   4.34381e+61   1.66179e+68  5.37011e+135  4.32543e+202   1.49148e+68   1.86673e+67   4.40726e+67   1.03439e+68   1.02757e+67   -4.2631e+67  -4.39957e+66
  -1.18025e+60  -1.79968e+63   4.33661e+61   1.68757e+68  5.19839e+135  3.01281e+202   1.52579e+68   1.92622e+67   4.40936e+67   1.05401e+68  -1.04343e+67  -4.68791e+67  -4.71004e+66
    2.0576e+60  -1.79981e+63  -7.10142e+61  -2.19408e+68  7.94553e+135 -5.62746e+202   2.00485e+68   -1.5095e+67  -4.54827e+67   -1.5883e+68  -1.00504e+67  -4.74896e+67   2.51234e+66
  -9.11866e+59  -1.91861e+63   4.51337e+61    8.8392e+65 -5.37463e+135  8.80709e+202   7.33172e+67  -2.03244e+67  -4.41477e+67    6.5356e+67   1.05143e+67   4.39954e+67  -3.48155e+66
  -3.06927e+60  -1.91977e+63   1.64246e+62   3.83158e+68  1.69283e+136  1.10623e+203   3.60391e+68   1.26337e+67   4.40693e+67   3.26455e+68   1.00034e+67   4.39196e+67   -1.0506e+67
  -4.51436e+60   -1.9178e+63   1.63983e+62   3.84353e+68  1.73045e+136  1.33531e+203   3.61141e+68   1.29096e+67   4.35944e+67   3.27849e+68  -1.02585e+67   3.94861e+67  -1.08933e+67
  -1.30333e+60  -1.91663e+63   4.50988e+61   2.98789e+66 -5.12885e+135  8.77914e+202   7.16783e+67  -1.98388e+67   -4.4413e+67   6.72397e+67  -9.74753e+66   3.97521e+67  -3.79908e+66
  -7.96393e+59   -1.8017e+63   4.34381e+61   3.81639e+66 -5.23358e+135  8.54901e+202   7.24441e+67  -1.88009e+67  -4.33533e+67   6.59705e+67   1.04864e+67  -4.26497e+67  -4.39957e+66
  -2.94636e+60  -1.80285e+63   1.58045e+62   3.86735e+68  1.80686e+136  1.56918e+203   3.62623e+68   1.44923e+67   4.50127e+67   3.27231e+68    1.0229e+67  -4.27172e+67  -1.12346e+67
  -4.40415e+60  -1.80084e+63   1.57748e+62   3.89031e+68  1.80049e+136  1.36503e+203   3.65157e+68    1.5022e+67   4.51548e+67   3.28854e+68  -1.04236e+67  -4.71088e+67  -1.16133e+67
  -1.18025e+60  -1.79968e+63   4.33661e+61   6.99985e+66 -5.70135e+135  8.19844e+202   7.58311e+67  -1.80662e+67  -4.30062e+67   6.80723e+67  -1.01661e+67  -4.68555e+67  -4.71004e+66
   8.28178e+50  -2.04175e+63  -7.65856e+61    -2.358e+68   1.1762e+136 -1.58272e+203   2.09379e+68  -3.26247e+67  -4.71274e+67  -1.56048e+68   9.93001e+66   4.59376e+67  -3.43794e+66
   6.96536e+50  -2.04156e+63   4.72069e+61   1.56586e+68  2.89942e+135 -5.63402e+201   1.47036e+68   2.03842e+66   4.34232e+67   1.11124e+68   8.78911e+66   4.64391e+67  -2.67078e+66
   -6.3597e+59  -2.04123e+63   4.71072e+61   1.44372e+68  1.75838e+135 -1.02695e+202   1.38148e+68  -7.80098e+65   3.89616e+67    1.0619e+68  -1.12368e+67   4.58771e+67  -5.89566e+66
   4.05374e+59  -2.04138e+63  -7.67141e+61  -2.53403e+68  1.43074e+136 -2.13142e+203   2.23396e+68  -3.66869e+67  -5.28326e+67  -1.63883e+68  -1.00958e+67   4.64081e+67  -6.78512e+66
   7.99737e+50  -1.92035e+63  -7.39432e+61  -2.09392e+68  7.74733e+135 -6.25557e+202   1.89993e+68  -1.74017e+67   -4.2036e+67  -1.49954e+68   1.00424e+67  -4.23731e+67   -8.6538e+65
   6.75093e+50  -1.92018e+63   4.52572e+61    1.8191e+68  6.54006e+135  5.34682e+202   1.62946e+68   1.66777e+67   4.82644e+67   1.16968e+68   1.03095e+67  -4.18717e+67   -1.2288e+66
  -4.83052e+59  -1.91979e+63   4.52102e+61    1.7644e+68  5.87344e+135  3.73313e+202   1.58927e+68   1.54155e+67    4.7386e+67   1.13639e+68  -1.03044e+67  -4.32246e+67  -4.38038e+66
   5.88871e+59  -1.91996e+63  -7.39765e+61  -2.20128e+68  8.91667e+135 -8.62171e+202   1.98846e+68  -1.98793e+67  -4.41297e+67  -1.56119e+68  -1.05715e+67  -4.27171e+67  -4.13649e+66
   6.96536e+50  -2.04156e+63   4.72069e+61  -1.84711e+67 -6.80045e+135  2.20979e+203   8.45082e+67  -3.83593e+67   -5.0838e+67   7.07262e+67   8.78911e+66    4.8555e+67  -2.67078e+66
   5.65134e+50  -2.04277e+63    1.7111e+62   3.67988e+68  6.31827e+135 -1.63041e+203     3.593e+68  -1.15128e+67   3.83447e+67   3.41156e+68   9.57245e+66   4.75719e+67  -6.27909e+66
  -1.79794e+60  -2.04241e+63   1.70875e+62   3.47677e+68  3.28194e+135 -1.98709e+203   3.42925e+68  -1.61997e+67   3.47845e+67   3.29093e+68  -1.27731e+67   4.43854e+67  -1.17245e+67
   -6.3597e+59  -2.04123e+63   4.71072e+61  -2.16826e+67 -6.33479e+135  2.08968e+203    8.2492e+67  -3.91004e+67  -5.04524e+67   6.78702e+67  -1.35565e+67   4.48441e+67  -5.89566e+66
   6.75093e+50  -1.92018e+63   4.52572e+61   1.65029e+67  -5.9092e+135  9.98908e+202   7.86228e+67  -2.14932e+67   -4.0801e+67   7.87972e+67   1.03095e+67  -4.20683e+67   -1.2288e+66
   5.50347e+50  -1.92134e+63   1.64447e+62   4.22643e+68  2.32472e+136  2.32017e+203   3.94183e+68   1.59511e+67   5.29237e+67   3.53768e+68   1.03779e+67  -4.30514e+67  -1.24998e+66
  -1.55657e+60  -1.92095e+63   1.64399e+62   3.99555e+68  1.83541e+136  1.08746e+203   3.75886e+68    1.0623e+67   4.76999e+67   3.41232e+68  -1.02667e+67  -4.36541e+67  -6.57159e+66
  -4.83052e+59  -1.91979e+63   4.52102e+61   1.01246e+67 -5.92427e+135  1.04567e+203   7.76323e+67  -2.29651e+67  -4.21687e+67   7.52584e+67  -1.03351e+67  -4.31834e+67  -4.38038e+66
   4.05374e+59  -2.04138e+63  -7.67141e+61  -2.23454e+68  9.02422e+135 -9.63566e+202   2.02256e+68  -2.04478e+67  -4.59214e+67  -1.57085e+68   7.57128e+66   4.67026e+67  -1.00957e+67
   -6.3597e+59  -2.04123e+63   4.71072e+61   1.60868e+68  3.60914e+135 -4.47311e+201   1.49229e+68   8.25578e+66   4.27682e+67   1.09844e+68   1.00866e+67   4.62325e+67  -1.04604e+67
  -1.17433e+60  -2.04011e+63   4.68352e+61   1.47401e+68  2.66307e+135  4.72706e+201   1.38073e+68   5.14816e+66   4.32807e+67   9.89723e+67  -1.14135e+67   4.53714e+67  -1.28076e+67
    9.8502e+59  -2.04035e+63  -7.69694e+61  -2.40367e+68  1.08636e+136 -9.19595e+202   2.16593e+68  -2.43507e+67  -4.62042e+67  -1.69812e+68  -1.39288e+67    4.3878e+67  -1.11039e+67
   5.88871e+59  -1.91996e+63  -7.39765e+61  -2.10539e+68   7.4137e+135 -4.76347e+202   1.92127e+68  -1.47178e+67  -4.19169e+67  -1.53904e+68   1.03952e+67  -4.23676e+67  -4.05645e+66
  -4.83052e+59  -1.91979e+63   4.52102e+61   1.85574e+68  7.12133e+135  7.02434e+202   1.65277e+68   2.03588e+67   4.94938e+67   1.15722e+68    1.0233e+67  -4.28823e+67  -5.11368e+66
  -9.11866e+59  -1.91861e+63   4.51337e+61   1.60191e+68  4.42945e+135  1.56256e+202   1.45711e+68   1.45011e+67    4.3413e+67   1.02277e+68  -1.04279e+67   -4.4269e+67  -7.40756e+66
   1.23442e+60  -1.91878e+63  -7.40083e+61   -2.3929e+68  1.06876e+136 -1.17297e+203   2.15806e+68  -2.13527e+67  -4.87749e+67  -1.69162e+68  -1.02657e+67  -4.56731e+67  -5.04166e+66
   -6.3597e+59  -2.04123e+63   4.71072e+61  -5.18693e+66 -6.29693e+135   1.5517e+203   7.95225e+67  -3.00645e+67  -4.66457e+67   7.15233e+67   7.76686e+66   4.51995e+67  -1.04604e+67
  -1.79794e+60  -2.04241e+63   1.70875e+62   3.88445e+68   1.4882e+136  2.44615e+202   3.68792e+68    5.8693e+66   4.41924e+67   3.38383e+68   9.24167e+66   4.47523e+67  -1.51395e+67
  -3.35921e+60  -2.04124e+63   1.70509e+62   3.67686e+68  1.16193e+136 -1.93237e+202   3.51531e+68   1.07888e+66   4.15235e+67   3.25084e+68  -1.04297e+67   4.34145e+67  -1.67716e+67
  -1.17433e+60  -2.04011e+63   4.68352e+61  -2.35237e+67 -5.41393e+135  1.75149e+203   7.72483e+67   -3.4296e+67  -4.87557e+67   5.95281e+67  -1.19045e+67   4.28531e+67  -1.28076e+67
  -4.83052e+59  -1.91979e+63   4.52102e+61   1.92583e+67  -5.7358e+135  8.63817e+202   7.81453e+67  -1.80218e+67  -4.00609e+67   7.73409e+67   1.02023e+67  -4.28411e+67  -5.11368e+66
  -1.55657e+60  -1.92095e+63   1.64399e+62   4.06606e+68   2.0529e+136  1.85789e+203   3.80525e+68   1.45114e+67   4.93271e+67   3.42768e+68   1.03017e+67  -4.33113e+67  -9.30098e+66
  -3.06927e+60  -1.91977e+63   1.64246e+62    3.8008e+68  1.51596e+136  5.11306e+202   3.59584e+68   8.38992e+66    4.3359e+67   3.28331e+68  -1.05423e+67  -4.43292e+67  -1.08959e+67
  -9.11866e+59  -1.91861e+63   4.51337e+61   -4.9013e+66 -5.53934e+135  1.04493e+203    7.4588e+67  -2.35971e+67  -4.54827e+67   6.41785e+67  -1.06417e+67  -4.48447e+67  -7.40756e+66
    9.8502e+59  -2.04035e+63  -7.69694e+61  -2.17212e+68  7.17721e+135 -4.67336e+202   2.00009e+68  -1.25019e+67  -4.08607e+67  -1.63849e+68   9.01012e+66   4.46426e+67  -1.70202e+66
  -1.17433e+60  -2.04011e+63   4.68352e+61   1.78226e+68  6.43504e+135  4.80831e+202   1.59153e+68   2.14746e+67   5.03942e+67   1.06357e+68    9.7144e+66   4.60756e+67  -8.57964e+66
   -1.5405e+60   -2.0382e+63   4.67154e+61   1.70566e+68  6.09448e+135  5.73482e+202   1.51652e+68   1.97069e+67     4.964e+67   1.01219e+68  -1.08103e+67   4.14482e+67  -8.25683e+66
   1.68614e+60  -2.03847e+63  -7.68777e+61  -2.23514e+68  8.18085e+135 -5.15947e+202   2.04396e+68  -1.39563e+67  -4.13015e+67  -1.68256e+68  -1.15146e+67   3.94783e+67  -1.37771e+66
   1.23442e+60  -1.91878e+63  -7.40083e+61  -2.28812e+68  8.99253e+135 -7.24357e+202   2.08237e+68  -1.60635e+67  -4.63569e+67  -1.66392e+68   1.07595e+67  -4.49723e+67   2.96439e+65
  -9.11866e+59  -1.91861e+63   4.51337e+61   1.66701e+68  5.27995e+135  4.17657e+202   1.50031e+68   1.79345e+67   4.49153e+67   1.03851e+68   1.07317e+67  -4.35636e+67   -6.2962e+66
  -1.30333e+60  -1.91663e+63   4.50988e+61   1.55876e+68  3.87233e+135  1.07306e+202   1.42916e+68   1.54365e+67   4.23805e+67   9.80589e+67  -1.02688e+67  -4.80639e+67  -5.98073e+66
   1.93498e+60   -1.9168e+63  -7.38377e+61   -2.3831e+68  9.74307e+135 -8.78197e+202   2.16907e+68  -1.82552e+67  -4.85854e+67  -1.71469e+68   -1.0241e+67  -4.99972e+67   6.13378e+65
  -1.17433e+60  -2.04011e+63   4.68352e+61   7.30141e+66 -5.29645e+135  7.46425e+202   7.31421e+67  -1.79696e+67  -4.16423e+67   6.69132e+67   9.22346e+66   4.35574e+67  -8.57964e+66
  -3.35921e+60  -2.04124e+63   1.70509e+62   3.76987e+68  1.42201e+136  9.33304e+201    3.5763e+68   5.88911e+66   4.36698e+67   3.27428e+68   1.12531e+67   4.41373e+67  -1.37607e+67
  -4.87091e+60  -2.03925e+63   1.70254e+62   3.86694e+68  1.69798e+136  8.01286e+202   3.64078e+68   8.12924e+66   4.88331e+67   3.29732e+68  -1.07764e+67   4.28523e+67  -1.57176e+67
   -1.5405e+60   -2.0382e+63   4.67154e+61   5.84765e+66  -4.7751e+135  7.59065e+202   6.93491e+67   -1.8305e+67  -3.90545e+67   6.32072e+67   -1.2806e+67   4.04016e+67  -8.25683e+66
  -9.11866e+59  -1.91861e+63   4.51337e+61   1.60862e+66  -5.4294e+135  9.79101e+202    7.3702e+67  -2.01637e+67  -4.39804e+67   6.57527e+67   1.05179e+67  -4.41394e+67   -6.2962e+66
  -3.06927e+60  -1.91977e+63   1.64246e+62   3.90993e+68  1.84208e+136  1.62081e+203    3.6668e+68   1.44581e+67   4.58775e+67   3.30657e+68   9.99631e+66  -4.36446e+67  -1.37151e+67
  -4.51436e+60   -1.9178e+63   1.63983e+62   3.88755e+68   1.7422e+136  1.14225e+203   3.65661e+68   1.39416e+67   4.46101e+67   3.30203e+68  -1.02656e+67  -4.67368e+67  -1.56275e+67
  -1.30333e+60  -1.91663e+63   4.50988e+61  -1.15369e+67 -5.64652e+135  1.12025e+203   7.60238e+67  -2.31972e+67  -4.77648e+67   5.94252e+67  -9.74398e+66    -4.906e+67  -5.98073e+66
   8.56397e+50  -2.16753e+63  -7.91668e+61  -2.53179e+68  1.33365e+136 -1.96133e+203   2.25307e+68   -3.5587e+67  -5.98907e+67  -1.57701e+68  -8.23905e+65   6.14157e+67  -8.89847e+66
   7.17382e+50  -2.16757e+63   4.98122e+61   1.47613e+68  -2.4099e+135 -6.33652e+202   1.55562e+68  -1.92548e+67   3.25999e+67   1.34268e+68   1.14406e+67   5.70393e+67  -1.37712e+67
  -9.71805e+59  -2.16716e+63   4.93094e+61   1.51775e+68 -7.94786e+134 -6.88802e+202   1.54371e+68  -1.82944e+67   5.08054e+67   1.19264e+68  -1.52431e+67   5.55245e+67  -2.06739e+67
   4.15748e+59  -2.16757e+63  -7.94915e+61  -2.22622e+68  7.82533e+135  5.71085e+202   2.04292e+68  -2.85353e+67   -3.5594e+67  -1.58493e+68  -2.75076e+67   5.02524e+67  -8.50866e+66
   8.28178e+50  -2.04175e+63  -7.65856e+61  -2.28268e+68  1.14201e+136 -1.49615e+203   2.01708e+68  -3.09261e+67  -4.53891e+67  -1.51953e+68   9.97142e+66  -3.83238e+67  -3.42671e+66
   6.96536e+50  -2.04156e+63   4.72069e+61   2.38666e+68  1.23519e+136  1.54827e+203    2.1121e+68   2.10206e+67   6.23648e+67    1.5528e+68   8.77288e+66  -4.27003e+67   -2.6332e+66
   -6.3597e+59  -2.04123e+63   4.71072e+61   1.82648e+68  5.63415e+135  7.15001e+201   1.66511e+68   8.09336e+66   4.77944e+67    1.2676e+68   -1.1253e+67  -4.02799e+67  -9.37536e+66
   4.05374e+59  -2.04138e+63  -7.67141e+61  -2.58504e+68  1.51942e+136 -2.48599e+203   2.27223e+68  -3.79038e+67  -5.40099e+67  -1.66591e+68  -1.00544e+67  -4.53276e+67  -3.04596e+66
   7.17382e+50  -2.16757e+63   4.98122e+61  -2.40774e+67  -1.0304e+136  4.51109e+203   1.04325e+68  -5.88758e+67   -5.9849e+67   9.46474e+67   1.14406e+67   4.76458e+67  -1.37712e+67
   5.78114e+50  -2.16898e+63   1.78303e+62   3.68642e+68 -4.16044e+134 -3.11932e+203   3.69206e+68  -2.38717e+67   3.07786e+67   3.61735e+68   1.51881e+67   4.37872e+67  -5.63792e+66
  -1.98367e+60  -2.16843e+63   1.78098e+62   3.88837e+68  4.12368e+135 -2.38379e+203   3.83498e+68  -1.92114e+67   4.07019e+67   3.67346e+68  -4.27076e+66   5.35558e+67  -1.01174e+67
  -9.71805e+59  -2.16716e+63   4.93094e+61  -5.88571e+67 -8.51018e+135  5.40991e+203   1.09427e+68  -6.69018e+67  -6.26121e+67   7.06568e+67  -8.01827e+66   5.52838e+67  -2.06739e+67
   6.96536e+50  -2.04156e+63   4.72069e+61   6.36093e+67 -7.00337e+135  9.61746e+202   1.05117e+68  -1.93771e+67  -3.18964e+67   1.14883e+68   8.77288e+66  -4.05844e+67   -2.6332e+66
   5.65134e+50  -2.04277e+63    1.7111e+62   4.34351e+68  1.97512e+136  3.80761e+202   4.10986e+68   3.79281e+66   5.36594e+67   3.76899e+68   9.54746e+66   -4.4443e+67  -6.30115e+66
  -1.79794e+60  -2.04241e+63   1.70875e+62   4.41031e+68  2.15585e+136  2.37496e+202   4.15872e+68   5.33428e+66   5.63276e+67   3.79369e+68  -1.27981e+67  -4.30905e+67  -1.06765e+67
   -6.3597e+59  -2.04123e+63   4.71072e+61   1.65933e+67 -7.07492e+135  1.39702e+203   8.57336e+67  -3.02269e+67  -4.16195e+67   8.84397e+67  -1.35727e+67  -4.13129e+67  -9.37536e+66
   4.15748e+59  -2.16757e+63  -7.94915e+61  -2.15384e+68  7.30725e+135 -5.81163e+202   1.97694e+68  -2.45498e+67  -3.39237e+67   -1.5691e+68  -3.26807e+66   5.06564e+67  -1.11318e+67
  -9.71805e+59  -2.16716e+63   4.93094e+61   2.36592e+68  1.13112e+136  1.28471e+203    2.1134e+68   2.77894e+67   7.03785e+67   1.38424e+68  -7.57063e+66   5.56524e+67  -3.28466e+67
  -1.45957e+60  -2.16646e+63   4.83542e+61   1.28669e+68  6.70195e+134 -3.01679e+202   1.26038e+68    2.8841e+66   3.94115e+67   8.63736e+67  -2.57464e+67   3.74646e+67  -3.20971e+67
   8.73121e+59  -2.16671e+63  -7.99122e+61  -2.57023e+68  1.41726e+136 -1.36107e+203    2.2779e+68  -3.41588e+67  -4.95943e+67   -1.7327e+68  -2.14439e+67   3.73812e+67  -1.32735e+67
   4.05374e+59  -2.04138e+63  -7.67141e+61  -2.28388e+68  9.85381e+135 -1.03017e+203   2.05688e+68  -2.15739e+67    -4.706e+67  -1.59754e+68   7.57427e+66  -4.50338e+67  -6.37244e+66
   -6.3597e+59  -2.04123e+63   4.71072e+61   1.98906e+68  7.92174e+135  7.50371e+202   1.77882e+68    1.7001e+67   5.15464e+67   1.30359e+68   1.01265e+67  -3.99236e+67  -1.39254e+67
  -1.17433e+60  -2.04011e+63   4.68352e+61   1.24501e+68  6.67255e+134 -3.23913e+202   1.21792e+68   -1.6948e+65    3.7996e+67   8.66742e+67  -1.13736e+67  -4.79736e+67  -1.31933e+67
    9.8502e+59  -2.04035e+63  -7.69694e+61  -2.38051e+68  1.02017e+136 -1.03184e+203   2.15561e+68  -2.38038e+67  -4.56698e+67  -1.68578e+68  -1.39258e+67  -4.82855e+67  -8.46439e+66
  -9.71805e+59  -2.16716e+63   4.93094e+61   2.59598e+67 -8.98892e+135  1.92078e+203   9.82997e+67  -2.08181e+67  -4.30389e+67   8.98168e+67  -3.45777e+65   5.54116e+67  -3.28466e+67
  -1.98367e+60  -2.16843e+63   1.78098e+62   3.39946e+68 -1.11402e+136 -4.53457e+203   3.55954e+68  -4.46122e+67   2.94194e+67   3.55139e+68   9.78343e+66     5.379e+67  -3.79882e+67
  -4.22623e+60  -2.16737e+63   1.76879e+62   2.75971e+68 -1.65612e+136  -5.3124e+203   3.04502e+68  -5.93755e+67   2.88852e+67   3.06462e+68  -2.39626e+67   4.70297e+67  -5.21155e+67
  -1.45957e+60  -2.16646e+63   4.83542e+61  -1.60181e+67 -6.47434e+135  1.88073e+203   8.20422e+67  -3.05053e+67   -3.8497e+67   5.29842e+67  -3.40918e+67   4.24287e+67  -3.20971e+67
   -6.3597e+59  -2.04123e+63   4.71072e+61   3.28517e+67 -6.57247e+135  1.20704e+203    8.7474e+67  -2.13193e+67  -3.78676e+67   9.20386e+67    7.8068e+66  -4.09566e+67  -1.39254e+67
  -1.79794e+60  -2.04241e+63   1.70875e+62   4.82278e+68  3.60666e+136  6.22436e+203   4.43312e+68   2.76587e+67   6.58463e+67   3.88773e+68   9.25329e+66  -4.27229e+67   -1.3999e+67
  -3.35921e+60  -2.04124e+63   1.70509e+62   3.81518e+68   1.3511e+136 -4.12824e+202    3.6338e+68   4.40626e+66   4.47153e+67   3.32396e+68  -1.04181e+67  -4.61803e+67  -2.77978e+67
  -1.17433e+60  -2.04011e+63   4.68352e+61  -4.64241e+67 -5.14681e+135   1.8905e+203   8.54518e+67  -3.96137e+67  -5.40405e+67     4.723e+67  -1.18645e+67  -5.04919e+67  -1.31933e+67
   8.73121e+59  -2.16671e+63  -7.99122e+61  -2.17658e+68  7.83807e+135 -6.71019e+202   1.98839e+68  -1.33193e+67  -4.05101e+67  -1.63828e+68   2.03958e+66    3.8164e+67  -7.72208e+66
  -1.45957e+60  -2.16646e+63   4.83542e+61   1.71176e+68  6.48017e+135  4.76639e+202   1.51067e+68   2.50196e+67   4.92208e+67   9.69358e+67   6.24079e+66   3.85308e+67  -2.05987e+67
  -1.72278e+60   -2.1646e+63   4.78112e+61   1.35836e+68  3.85314e+135  2.72048e+202   1.20823e+68   1.68641e+67   4.69665e+67   7.20051e+67  -1.17382e+67   3.23432e+67  -1.87394e+67
   1.54482e+60  -2.16501e+63  -8.01386e+61  -2.38905e+68  9.99407e+135 -5.85868e+202   2.16983e+68  -1.82226e+67  -3.95122e+67  -1.81171e+68  -1.59394e+67   2.94626e+67   -7.9803e+66
    9.8502e+59  -2.04035e+63  -7.69694e+61  -2.14909e+68  6.64584e+135 -3.90132e+202   1.98847e+68  -1.19645e+67  -4.03294e+67  -1.62616e+68   9.01844e+66  -4.75207e+67   9.68242e+65
  -1.17433e+60  -2.04011e+63   4.68352e+61   1.55375e+68  4.08772e+135  2.82646e+202   1.41611e+68   1.61846e+67   4.51208e+67   9.40696e+67   9.71196e+66  -4.72708e+67  -8.98151e+66
   -1.5405e+60   -2.0382e+63   4.67154e+61   1.05417e+68 -5.50726e+133 -1.91387e+202   1.05678e+68   4.65592e+66   3.46057e+67   6.61559e+67  -1.08128e+67  -5.14327e+67   -7.1655e+66
   1.68614e+60  -2.03847e+63  -7.68777e+61  -2.51102e+68  1.03538e+136 -9.26332e+202   2.29561e+68  -2.03165e+67   -4.7668e+67  -1.83117e+68  -1.15063e+67   -5.4138e+67   7.16023e+65
  -1.45957e+60  -2.16646e+63   4.83542e+61   2.64889e+67 -4.43531e+135  4.67541e+202   7.16726e+67  -8.36977e+66  -2.86877e+67   6.35464e+67  -2.10456e+66    4.3495e+67  -2.05987e+67
  -4.22623e+60  -2.16737e+63   1.76879e+62   4.82927e+68  4.45786e+136  1.06824e+204   4.34326e+68   5.21329e+67    7.6644e+67    3.5415e+68   3.09615e+66   4.79316e+67  -5.21188e+67
  -5.30412e+60  -2.16532e+63   1.75621e+62   3.77465e+68  2.35692e+136  3.21641e+203   3.44835e+68   2.77957e+67   5.96055e+67   2.90064e+68  -1.25708e+67   3.63533e+67  -4.42707e+67
  -1.72278e+60   -2.1646e+63   4.78112e+61  -4.30994e+66 -2.84877e+135  4.83163e+202   5.35476e+67  -1.54772e+67  -2.84965e+67   3.96638e+67  -1.77715e+67   2.96423e+67  -1.87394e+67
  -1.17433e+60  -2.04011e+63   4.68352e+61  -1.55499e+67 -5.38675e+135  1.24656e+203   7.50237e+67  -2.32596e+67  -4.69156e+67   5.46254e+67   9.22102e+66   -4.9789e+67  -8.98151e+66
  -3.35921e+60  -2.04124e+63   1.70509e+62   3.90043e+68  1.61663e+136  7.35897e+202   3.68737e+68   8.79643e+66   4.66827e+67   3.34564e+68   1.12482e+67  -4.54581e+67  -2.47525e+67
  -4.87091e+60  -2.03925e+63   1.70254e+62   2.73366e+68 -1.70517e+135 -1.27079e+203   2.76467e+68   -1.8129e+67   2.26805e+67   2.68814e+68  -1.07812e+67  -4.59269e+67  -1.70869e+67
   -1.5405e+60   -2.0382e+63   4.67154e+61  -5.93008e+67 -3.62633e+135  1.31169e+203   8.45158e+67   -3.3356e+67  -5.40888e+67   2.81439e+67  -1.28084e+67  -5.24793e+67   -7.1655e+66
   8.84598e+50  -2.29984e+63  -8.27014e+61   2.07895e+67 -1.91008e+136  -6.9386e+203    1.3976e+68   5.26153e+67    9.9324e+67   -1.3115e+68   3.11818e+67   5.62982e+67   1.60672e+67
   7.36941e+50  -2.29738e+63   5.25321e+61   5.66218e+68  8.78558e+136  4.07376e+204   4.82439e+68   1.05749e+68   2.25192e+68   2.35277e+68  -3.25572e+67   1.04294e+68  -4.34018e+67
  -4.40626e+59  -2.29855e+63   5.09856e+61   1.46578e+68 -2.91762e+134 -2.14001e+203    1.4757e+68    8.9088e+66    4.0818e+67   9.68514e+67  -5.74033e+67   3.25758e+67  -3.33944e+67
   8.51373e+59  -2.29873e+63  -8.21269e+61  -1.49551e+68 -5.46342e+134  6.46998e+202   1.51366e+68   1.33061e+67  -2.75194e+67  -1.35337e+68   6.33563e+66   3.80321e+67   2.48431e+67
   8.56397e+50  -2.16753e+63  -7.91668e+61  -3.72672e+68  3.48098e+136 -9.62877e+203   3.22606e+68  -6.32575e+67  -8.74661e+67  -2.21949e+68  -9.94426e+65  -6.39813e+67  -9.01974e+66
   7.17382e+50  -2.16757e+63   4.98122e+61   1.61322e+68  1.60271e+135 -9.92203e+202   1.56275e+68  -1.62813e+67   3.57633e+67    1.4184e+68   1.16265e+67  -1.59857e+67  -1.36975e+67
  -9.71805e+59  -2.16716e+63   4.93094e+61   8.54318e+67 -3.75988e+135 -4.26834e+202   1.05159e+68  -3.37943e+67   3.54953e+67   8.37308e+67  -1.50572e+67  -4.96046e+67  -3.92847e+66
   4.15748e+59  -2.16757e+63  -7.94915e+61  -2.05198e+68  6.31971e+135  4.80119e+202   1.89173e+68  -2.46095e+67   -3.1573e+67  -1.49015e+68  -2.76781e+67  -4.54209e+67  -4.52799e+65
   7.36941e+50  -2.29738e+63   5.25321e+61   1.17234e+68 -2.79391e+136  2.66863e+203   2.04164e+68   2.13696e+66  -1.65689e+67   1.31665e+68  -3.25572e+67   1.51855e+68  -4.34018e+67
   5.90974e+50  -2.29852e+63   1.90239e+62   3.46669e+68 -1.42478e+137  1.17819e+204   5.12501e+68  -2.28789e+68   3.63777e+67    5.3908e+68  -2.84516e+67    1.5719e+68  -7.00845e+67
  -5.50064e+60  -2.29953e+63   1.87739e+62   7.04982e+67 -1.61754e+137   4.0297e+204   4.08319e+68   -2.9252e+68  -2.17411e+67    3.8476e+68   -1.2576e+68   1.08174e+68  -1.40292e+68
  -4.40626e+59  -2.29855e+63   5.09856e+61   3.21014e+65 -3.15249e+136  1.88959e+203   1.77553e+68  -2.48429e+67  -3.79358e+67   6.30997e+67  -1.29865e+68   1.02596e+68  -3.33944e+67
   7.17382e+50  -2.16757e+63   4.98122e+61  -1.03691e+67 -9.30663e+135  3.64824e+203   9.70265e+67  -5.59022e+67  -5.66856e+67   1.02219e+68   1.16265e+67  -2.53792e+67  -1.36975e+67
   5.78114e+50  -2.16898e+63   1.78303e+62   9.63917e+68  2.11002e+137  1.28836e+205   8.47428e+68   1.14246e+68    1.6815e+68   6.81522e+68   1.53844e+67  -2.00442e+67  -5.37852e+66
  -1.98367e+60  -2.16843e+63   1.78098e+62    6.9362e+68  8.47757e+136  2.31282e+204   6.29549e+68   5.18694e+67   1.11036e+68   5.30714e+68  -4.07442e+66  -4.42728e+67  -7.39143e+67
  -9.71805e+59  -2.16716e+63   4.93094e+61  -1.25201e+68 -1.77152e+135  4.26236e+203   1.32086e+68  -8.24018e+67  -7.79221e+67   3.51233e+67  -7.83236e+66  -4.98453e+67  -3.92847e+66
   8.51373e+59  -2.29873e+63  -8.21269e+61  -1.49115e+68 -6.16875e+133  3.44848e+202   1.49322e+68   1.42296e+67  -2.74189e+67  -1.35926e+68   2.33629e+66   3.79655e+67   4.17944e+66
  -4.40626e+59  -2.29855e+63   5.09856e+61   1.42553e+68  2.56678e+135 -2.96638e+202   1.33247e+68   6.70157e+66   3.98892e+67   9.59626e+67   2.64478e+66   3.35766e+67  -3.22045e+67
  -9.05986e+59  -2.29757e+63   4.94838e+61   7.10949e+67 -1.17086e+135 -4.57495e+202   7.89009e+67  -9.78884e+66   2.38463e+67   5.70375e+67  -2.29562e+67   1.37394e+67  -3.19919e+67
   1.71726e+60  -2.29776e+63  -8.22894e+61  -1.15884e+68 -1.64732e+135  1.03747e+203   1.22786e+68   2.18983e+67  -1.93027e+67  -1.18479e+68  -2.32646e+67   1.48686e+67   1.24408e+67
   4.15748e+59  -2.16757e+63  -7.94915e+61  -1.98024e+68  6.02948e+135 -4.82907e+202   1.82165e+68  -2.06611e+67  -2.99175e+67  -1.47445e+68  -3.29975e+66  -4.50146e+67  -3.00123e+66
  -9.71805e+59  -2.16716e+63   4.93094e+61   1.70876e+68  4.91859e+135  8.18681e+201    1.5582e+68     1.263e+67   5.52132e+67   1.03033e+68  -7.64799e+66  -4.94811e+67  -1.61848e+67
  -1.45957e+60  -2.16646e+63   4.83542e+61   7.99987e+67 -2.87754e+135 -8.16917e+202   9.63189e+67  -8.34167e+66   2.81799e+67   6.01605e+67  -2.58238e+67  -5.39797e+67  -1.59772e+67
   8.73121e+59  -2.16671e+63  -7.99122e+61  -1.86704e+68  4.29451e+135  4.33538e+202   1.74825e+68  -1.80487e+67  -3.33668e+67  -1.35288e+68  -2.14756e+67  -5.26953e+67   5.06347e+66
  -4.40626e+59  -2.29855e+63   5.09856e+61  -3.70381e+66 -1.96931e+136  5.58632e+203   1.40381e+68  -2.70501e+67  -3.88646e+67   6.22109e+67  -6.98171e+67   1.03596e+68  -3.22045e+67
  -5.50064e+60  -2.29953e+63   1.87739e+62   1.22398e+69  3.72995e+137  3.35249e+205   1.06072e+69   3.32554e+68   2.44447e+68    6.4698e+68  -6.29718e+67    1.0922e+68  -2.56341e+68
  -4.59802e+60  -2.29831e+63   1.80996e+62   5.43345e+68  5.10921e+136  6.90111e+203   4.94097e+68   1.75484e+68   9.67141e+67   2.71147e+68  -3.66645e+67   1.20199e+67  -1.95439e+68
  -9.05986e+59  -2.29757e+63   4.94838e+61  -4.62722e+67 -3.82488e+135  5.41411e+202   7.72399e+67  -3.68736e+67  -3.93514e+67   2.99528e+67  -4.35098e+67   8.72807e+66  -3.19919e+67
  -9.71805e+59  -2.16716e+63   4.93094e+61  -3.97565e+67  -5.7662e+135   2.1747e+203   8.57134e+67  -3.59775e+67  -5.82043e+67   5.44252e+67  -4.23136e+65  -4.97218e+67  -1.61848e+67
  -1.98367e+60  -2.16843e+63   1.78098e+62   6.39579e+68  5.32357e+136  1.83802e+203   5.96511e+68    2.3687e+67   9.85655e+67   5.17327e+68   9.75374e+66  -4.40423e+67  -1.01532e+68
  -4.22623e+60  -2.16737e+63   1.76879e+62  -8.22856e+66  -2.4881e+136   8.5813e+203   1.57952e+68  -1.25807e+68  -3.66994e+67   1.54278e+68  -2.39923e+67  -4.56126e+67  -4.20799e+67
  -1.45957e+60  -2.16646e+63   4.83542e+61  -6.46886e+67 -4.19858e+135  8.37363e+202   9.15598e+67   -4.1731e+67  -4.97287e+67   2.67711e+67  -3.41692e+67  -4.90155e+67  -1.59772e+67
   1.71726e+60  -2.29776e+63  -8.22894e+61  -1.94333e+68  8.31553e+135 -9.54154e+202    1.7161e+68  -1.96196e+67  -3.74064e+67  -1.37307e+68   -2.1286e+66   1.55731e+67   1.18784e+66
  -9.05986e+59  -2.29757e+63   4.94838e+61   1.61376e+68   6.9991e+135   7.8646e+202   1.37996e+68   3.88523e+67   4.46803e+67    7.7843e+67   2.33119e+66   1.45824e+67   -3.1956e+67
  -8.76184e+59  -2.29569e+63    4.7965e+61    5.4604e+67  2.13937e+134 -1.42273e+202   5.26085e+67   1.42127e+67   2.61371e+67   1.42542e+67  -5.69849e+66  -2.85068e+66  -2.63077e+67
   2.16461e+60  -2.29604e+63  -8.28403e+61  -2.16758e+68  1.03165e+136 -1.24314e+203   1.91488e+68  -2.47946e+67   -3.6485e+67  -1.55479e+68  -1.01583e+67  -2.03185e+66  -2.91643e+66
   8.73121e+59  -2.16671e+63  -7.99122e+61  -1.46805e+68 -2.36286e+134  2.07808e+201   1.47607e+68   3.07507e+66  -2.41594e+67   -1.2572e+68    2.0194e+66  -5.19121e+67   1.06664e+67
  -1.45957e+60  -2.16646e+63   4.83542e+61   1.22362e+68  1.31518e+135 -2.17275e+201   1.16864e+68   1.37113e+67    3.7956e+67   7.06945e+67   6.23356e+66  -5.29111e+67  -4.40406e+66
  -1.72278e+60   -2.1646e+63   4.78112e+61   1.79696e+67 -3.61023e+135  3.32725e+202   6.27147e+67  -1.03792e+67   1.97666e+67   8.58215e+66  -1.17454e+67  -5.78485e+67   1.10971e+66
   1.54482e+60  -2.16501e+63  -8.01386e+61  -1.68858e+68  1.36309e+134  4.95059e+202   1.68454e+68  -2.01425e+66  -2.33475e+67  -1.43497e+68  -1.59596e+67  -5.70174e+67   6.65986e+66
  -9.05986e+59  -2.29757e+63   4.94838e+61   4.40085e+67 -2.00536e+135  1.06319e+201   6.27862e+67   1.17676e+67  -1.85174e+67   5.07583e+67  -1.82225e+67   9.57098e+66   -3.1956e+67
  -4.59802e+60  -2.29831e+63   1.80996e+62   3.94801e+68   3.6981e+136  1.01307e+204     3.448e+68   8.70998e+67   6.24347e+67   2.45266e+68  -3.17179e+66   1.31363e+67  -7.03576e+67
  -4.66523e+60   -2.2959e+63   1.78749e+62     3.313e+68  2.91068e+136  7.61294e+203   2.83994e+68   7.24457e+67   6.84047e+67   1.90449e+68  -5.03734e+66   7.21051e+66  -5.09548e+67
  -8.76184e+59  -2.29569e+63    4.7965e+61  -1.55481e+67 -1.05697e+135  5.35681e+201   3.60377e+67  -1.97621e+66  -1.16371e+67  -1.93479e+66   -2.0088e+67  -3.26844e+66  -2.63077e+67
  -1.45957e+60  -2.16646e+63   4.83542e+61  -2.23256e+67 -3.76111e+135  7.42838e+202   6.52651e+67  -1.96781e+67  -3.99526e+67   3.73051e+67  -2.11179e+66  -4.79469e+67  -4.40406e+66
  -4.22623e+60  -2.16737e+63   1.76879e+62   2.00933e+68 -4.27897e+135 -1.57068e+202   2.11313e+68  -1.30755e+67   1.15687e+67    2.0244e+68   3.06232e+66  -4.47108e+67  -4.25938e+67
  -5.30412e+60  -2.16532e+63   1.75621e+62   9.72324e+67 -8.94819e+135  7.12712e+202   1.35655e+68  -3.70065e+67  -5.06368e+66   1.39303e+68  -1.26047e+67  -5.05644e+67  -2.36529e+67
  -1.72278e+60   -2.1646e+63   4.78112e+61  -1.22176e+68  7.34126e+134  1.10059e+203   1.19134e+68  -4.27205e+67  -5.56964e+67  -2.37592e+67  -1.77788e+67  -6.05495e+67   1.10971e+66
    9.0674e+50  -2.43398e+63  -8.17101e+61   8.02217e+66 -3.29963e+136 -1.05957e+204   1.81826e+68   9.62364e+67  -1.28193e+68   3.99788e+67   8.57829e+66  -1.19125e+68  -7.15374e+67
   7.58438e+50  -2.43736e+63     4.623e+61  -8.08671e+68  8.63112e+136  4.18416e+204   7.53417e+68  -6.30034e+67  -3.16661e+68  -4.29007e+68   4.82061e+67   -2.3141e+68   2.01603e+68
   2.15339e+60  -2.43567e+63   5.32544e+61   4.58138e+68 -8.90783e+135 -9.98617e+203   4.67759e+68   2.29337e+68   2.90953e+67   1.99706e+68   5.80909e+67   7.14858e+66   2.52518e+68
   1.63938e+60  -2.43368e+63  -8.42028e+61  -2.09531e+68 -1.20839e+135  9.75549e+203   2.12395e+68   4.60318e+67  -1.24982e+68  -1.30581e+68   1.84631e+67   4.82987e+67  -5.55969e+67
   8.84598e+50  -2.29984e+63  -8.27014e+61   5.86248e+68  1.11945e+137  7.00025e+204   4.81395e+68   1.83018e+68   2.29814e+68   1.73415e+68   3.14054e+67   2.11345e+67   1.65272e+67
   7.36941e+50  -2.29738e+63   5.25321e+61  -5.63129e+68  6.51575e+136 -5.49555e+203   5.01953e+68  -1.55359e+68  -3.54266e+67  -3.72343e+68  -3.30672e+67  -9.11509e+67   -4.4523e+67
  -4.40626e+59  -2.29855e+63   5.09856e+61    2.1893e+68   3.2802e+135 -3.67253e+203   2.11306e+68   2.51158e+67   5.75145e+67   1.36299e+68  -5.79133e+67  -7.77581e+67   5.15009e+66
   8.51373e+59  -2.29873e+63  -8.21269e+61  -7.98514e+67 -4.36931e+135 -1.59641e+201   1.03661e+68   2.93028e+67   -1.1435e+67  -9.77192e+67   6.55922e+66  -3.48729e+67   3.20789e+67
   7.58438e+50  -2.43736e+63     4.623e+61  -1.88654e+69   1.1577e+137   1.6044e+206    1.8556e+69  -3.11743e+68  -8.97052e+68  -6.77746e+68   4.82061e+67   9.69622e+68   2.01603e+68
   6.01701e+50  -2.44936e+63   2.36624e+62   4.33152e+69  2.27959e+138 -1.04883e+207   4.05986e+69   1.01002e+69   5.37886e+68   2.78362e+69   3.21417e+68   7.60585e+68  -1.37501e+69
   2.04149e+59  -2.43817e+63   1.88767e+62  -2.98225e+68   -1.658e+138  3.08468e+206   1.32172e+69  -5.83824e+67  -1.64735e+68  -7.51079e+67   2.83932e+68   -5.4639e+67  -1.26522e+69
   2.15339e+60  -2.43567e+63   5.32544e+61   3.95462e+68  -2.6853e+136 -2.70022e+203   4.28069e+68   2.14873e+68  -4.65338e+66   1.85242e+68   1.07207e+67  -3.02406e+67   2.52518e+68
   7.36941e+50  -2.29738e+63   5.25321e+61  -1.01211e+69  3.21995e+137 -3.27322e+205   8.38081e+68  -2.58971e+68  -2.77188e+68  -4.75955e+68  -3.30672e+67    -4.359e+67   -4.4523e+67
   5.90974e+50  -2.29852e+63   1.90239e+62   4.64588e+69  5.82567e+138  2.17962e+207    3.9697e+69   7.61214e+68    1.0285e+69   2.85616e+69  -3.00586e+67  -2.52627e+68  -6.50223e+67
  -5.50064e+60  -2.29953e+63   1.87739e+62  -1.01251e+69   2.8881e+137 -2.42476e+205   8.58115e+68  -5.44566e+68  -2.71665e+68  -1.96276e+68  -1.27367e+68  -3.66401e+67   4.20942e+67
  -4.40626e+59  -2.29855e+63   5.09856e+61   7.26726e+67 -1.99643e+136 -1.71279e+204   1.58889e+68  -8.63588e+66  -2.12393e+67   1.02548e+68  -1.30375e+68  -7.73826e+66   5.15009e+66
   1.63938e+60  -2.43368e+63  -8.42028e+61  -2.23292e+68 -1.77211e+135  1.69817e+204   2.27225e+68   3.54012e+67  -1.28158e+68  -1.30535e+68   7.24147e+67   4.91979e+67    4.0974e+67
   2.15339e+60  -2.43567e+63   5.32544e+61   8.47627e+66 -2.48417e+136 -1.28074e+204    1.5784e+68  -2.79078e+66  -7.46728e+67   8.59399e+67   1.26388e+68   8.28687e+66  -4.84797e+67
   2.07266e+60  -2.43162e+63   4.98377e+61  -6.67684e+66 -1.10737e+136  6.45222e+202   1.05443e+68  -6.28765e+66  -5.90602e+66   5.51684e+66   9.58056e+67  -1.31829e+67  -4.11224e+67
   3.14894e+60  -2.43151e+63  -8.33285e+61    1.4389e+68 -2.04962e+135  -1.4404e+203   1.50844e+68   1.20135e+68   2.88401e+67  -5.08584e+66   4.18323e+67  -9.07952e+66   5.40766e+67
   8.51373e+59  -2.29873e+63  -8.21269e+61  -7.93855e+67 -3.54838e+135 -3.11274e+201   9.92493e+67   3.02611e+67  -1.13274e+67  -9.83191e+67   2.20752e+66  -3.49455e+67   1.08628e+67
  -4.40626e+59  -2.29855e+63   5.09856e+61   2.16359e+68  6.33181e+135  3.67147e+202   2.01195e+68   2.36485e+67   5.69212e+67   1.35789e+68   2.31598e+66  -7.67542e+67   7.62833e+66
  -9.05986e+59  -2.29757e+63   4.94838e+61  -2.60993e+67 -2.79969e+135  8.60774e+202   5.89988e+67  -3.23033e+67   1.41685e+66   4.78722e+66   -2.3285e+67  -4.29493e+67   1.48062e+67
   1.71726e+60  -2.29776e+63  -8.22894e+61   5.11659e+67 -3.58401e+135 -7.01799e+202   7.87525e+67   6.03883e+67   1.92473e+67  -2.84697e+67  -2.33934e+67  -3.70504e+67   2.36459e+67
   2.15339e+60  -2.43567e+63   5.32544e+61  -5.41998e+67 -1.65531e+136  1.79833e+203   1.39609e+68  -1.72545e+67  -1.08421e+68   7.14761e+67   7.90178e+67  -2.91023e+67  -4.84797e+67
   2.04149e+59  -2.43817e+63   1.88767e+62  -3.20233e+68  8.05606e+134  1.92829e+204   3.18973e+68  -1.10646e+68  -1.69814e+68  -3.97736e+67   1.51901e+68  -5.68395e+67  -5.32319e+67
  -4.39125e+59  -2.43158e+63   1.83133e+62   1.17771e+68  -2.5265e+136 -2.34948e+204   1.97826e+68  -9.56777e+66   2.88106e+67   9.85281e+67   1.41083e+68   6.88959e+66  -8.32668e+67
   2.07266e+60  -2.43162e+63   4.98377e+61   1.28163e+67 -6.43672e+135  5.75357e+201   8.12464e+67  -1.78923e+66   4.59029e+66   1.00153e+67   6.81996e+67  -1.06928e+67  -4.11224e+67
  -4.40626e+59  -2.29855e+63   5.09856e+61   7.01016e+67 -8.06205e+135 -4.70626e+203   1.13913e+68  -1.01031e+67  -2.18326e+67   1.02037e+68  -7.01459e+67  -6.73443e+66   7.62833e+66
  -5.50064e+60  -2.29953e+63   1.87739e+62   1.50702e+68 -6.32063e+135 -7.42758e+203   1.70387e+68   8.59387e+67  -3.23254e+66   6.79958e+67  -6.35837e+67   -3.5577e+67  -7.97364e+67
  -4.59802e+60  -2.29831e+63   1.80996e+62   2.99073e+68  1.27479e+136 -3.92984e+203   2.76942e+68   1.20178e+68   4.03437e+67   1.38551e+68  -3.72765e+67   -3.2589e+67  -1.09039e+68
  -9.05986e+59  -2.29757e+63   4.94838e+61  -1.43466e+68  1.92953e+135  1.73452e+203   1.36576e+68   -5.9388e+67  -6.17808e+67  -2.22975e+67  -4.38386e+67  -4.79607e+67   1.48062e+67
   3.14894e+60  -2.43151e+63  -8.33285e+61   -5.2675e+67 -2.26406e+135  1.06017e+203   7.09839e+67   1.73829e+67   -1.6521e+67  -5.35369e+67     4.246e+67   -9.0586e+66   6.76981e+66
   2.07266e+60  -2.43162e+63   4.98377e+61  -3.03854e+67 -3.18801e+135  -7.9318e+201   6.41193e+67  -2.19756e+67  -1.13772e+67   2.96747e+66   5.58747e+67  -1.45139e+67    2.5351e+66
   1.81209e+60  -2.42896e+63   4.79468e+61  -2.45193e+67 -2.12008e+135  3.55723e+202   5.21658e+67  -2.06219e+67   7.91272e+66  -1.18101e+67   4.10113e+67  -2.03715e+67  -3.17379e+66
   3.66126e+60  -2.42932e+63  -8.40661e+61    -2.003e+67 -2.87559e+135  7.75869e+201   5.72433e+67   2.49163e+67   8.94869e+66  -5.38951e+67   2.75966e+67  -2.10597e+67   8.26547e+66
   1.71726e+60  -2.29776e+63  -8.22894e+61  -2.72847e+67  -2.4058e+135 -2.39105e+202   5.61272e+67   1.88647e+67   1.14329e+66  -4.72926e+67  -2.18329e+66  -3.63434e+67   1.24712e+67
  -9.05986e+59  -2.29757e+63   4.94838e+61   6.48422e+67 -6.10263e+134  -2.7655e+202   6.93886e+67   1.67089e+67   2.24033e+67     2.573e+67   2.24095e+66  -4.20985e+67   1.46169e+67
  -8.76184e+59  -2.29569e+63    4.7965e+61   3.35077e+67 -1.83488e+135 -1.55981e+202   5.43842e+67   9.47788e+66   2.12687e+67    2.7611e+66  -5.78873e+66  -4.47883e+67    9.0473e+66
   2.16461e+60  -2.29604e+63  -8.28403e+61  -3.24936e+67 -3.55095e+135 -2.43005e+202   6.78733e+67   1.76626e+67   6.03765e+66  -5.61938e+67   -1.0213e+67   -4.5027e+67   1.39304e+67
   2.07266e+60  -2.43162e+63   4.98377e+61  -1.08922e+67 -1.07178e+135 -5.04211e+201   3.45024e+67  -1.74772e+67  -8.80914e+65   7.46589e+66   2.82686e+67  -1.20238e+67    2.5351e+66
  -4.39125e+59  -2.43158e+63   1.83133e+62   1.54036e+68  3.26318e+135 -1.32347e+203   1.43052e+68   5.98228e+66   3.71794e+67   1.10874e+68   3.43794e+67   3.33282e+66  -2.34884e+67
  -9.53445e+59  -2.42871e+63   1.79558e+62   3.22342e+66 -2.97062e+135  1.01289e+202   5.45986e+67  -2.88206e+67   1.04742e+67   2.15699e+67   2.94997e+67  -1.89039e+67  -3.23331e+67
   1.81209e+60  -2.42896e+63   4.79468e+61  -3.70016e+67 -1.04691e+135   3.1164e+202   4.91532e+67  -2.35025e+67   1.19146e+66  -1.46906e+67   2.33889e+67  -2.80991e+67  -3.17379e+66
  -9.05986e+59  -2.29757e+63   4.94838e+61  -5.25249e+67 -2.27575e+135  5.68445e+202    7.0955e+67  -1.03758e+67  -4.07943e+67  -1.35475e+66  -1.83127e+67  -4.71098e+67   1.46169e+67
  -4.59802e+60  -2.29831e+63   1.80996e+62   1.48315e+68  2.93838e+135 -1.05239e+202   1.38054e+68    3.0549e+67   5.55329e+66   1.12213e+68  -3.18523e+66  -3.14526e+67   1.68221e+67
  -4.66523e+60   -2.2959e+63   1.78749e+62   4.25338e+67 -1.07259e+135 -5.44503e+201   5.36815e+67   6.13799e+66    1.7664e+66   3.46294e+67  -5.05078e+66    -3.556e+67   8.19313e+66
  -8.76184e+59  -2.29569e+63    4.7965e+61  -3.66444e+67 -2.11009e+135  3.55511e+202   5.87614e+67  -6.71106e+66  -1.65055e+67  -1.34278e+67  -2.01782e+67  -4.52061e+67    9.0473e+66
   3.12572e+48   1.45437e+60  -1.61981e+60  -1.61342e+68  6.77757e+135 -8.28371e+202   1.38758e+68  -3.43216e+67  -2.74874e+67  -9.95332e+67   1.29766e+66   -1.7746e+67  -1.13367e+66
  -8.85293e+47   1.20099e+60    7.5735e+59   1.12088e+68   3.3922e+135  3.10279e+202   9.57676e+67   2.14807e+67   3.56118e+67   5.49952e+67    9.8123e+65  -2.26187e+67  -2.62261e+64
   1.50455e+59   1.13366e+60   7.59149e+59   1.09602e+68  3.19015e+135  2.78226e+202   9.39273e+67   2.09069e+67    3.4203e+67   5.44916e+67  -3.83277e+66  -2.24685e+67   2.90369e+66
  -9.98728e+58   1.36533e+60  -1.54203e+60   -1.5421e+68  6.15522e+135 -7.10414e+202   1.32762e+68  -3.26758e+67  -2.66767e+67   -9.4858e+67  -3.51633e+66  -1.80186e+67  -3.07857e+66
             0            20           -50  -2.02496e+68  1.15923e+136 -2.01559e+203     1.715e+68  -4.67359e+67  -4.67299e+67   -1.0903e+68  -2.70913e+63   2.79686e+67   2.36677e+63
             0            15           -50   9.46985e+67   2.1731e+135  1.26961e+202   8.24299e+67   2.18626e+67   2.18535e+67   5.09823e+67  -2.04851e+63   2.30959e+67   5.47522e+61
      -6.66667            15           -50   9.49234e+67  2.23573e+135  1.39325e+202   8.23087e+67   2.19146e+67   2.19054e+67   5.11034e+67  -2.04851e+63   2.18013e+67   2.89334e+66
      -6.66667            20           -50  -1.92773e+68  1.05217e+136 -1.74604e+203   1.63217e+68  -4.44923e+67  -4.44862e+67  -1.03795e+68  -2.70913e+63   2.62564e+67  -1.91821e+66
  -8.85293e+47   1.20099e+60    7.5735e+59  -3.86737e+67 -1.21692e+135  2.06604e+202   5.20824e+67  -1.33104e+67  -4.55674e+67   2.02041e+67    9.8123e+65  -2.51576e+67  -2.62261e+64
  -4.41947e+48    2.1537e+60   3.26653e+60   2.50585e+68  1.32378e+136  1.76005e+203    2.2261e+68   4.59374e+67   2.11847e+67   1.83463e+68   1.36425e+66  -6.83626e+66   1.11474e+66
   4.07894e+59    2.0601e+60   3.19005e+60   2.44189e+68   1.2443e+136  1.59091e+203   2.17222e+68   4.44614e+67   2.07193e+67   1.79008e+68   -3.5865e+66  -7.15361e+66   9.05794e+66
   1.50455e+59   1.13366e+60   7.59149e+59  -3.51611e+67 -1.28647e+135   1.9931e+202   5.02272e+67  -1.24998e+67  -4.37461e+67   2.10848e+67  -3.96952e+66  -2.49632e+67   2.90369e+66
             0            15           -50   9.46985e+67   2.1731e+135  1.26961e+202   8.24299e+67   2.18626e+67   2.18535e+67   5.09823e+67  -2.04851e+63   2.30959e+67   5.47522e+61
             0            10           -50   4.08397e+68  4.86203e+136  1.79184e+204   3.43756e+68   9.42704e+67   9.42455e+67   2.19881e+68  -2.84814e+63   4.14173e+67  -2.32724e+63
      -6.66667            10           -50   3.98837e+68  4.63757e+136  1.66939e+204   3.35701e+68   9.20642e+67   9.20393e+67   2.14734e+68  -2.84814e+63   3.96173e+67   7.84158e+66
      -6.66667            15           -50   9.49234e+67  2.23573e+135  1.39325e+202   8.23087e+67   2.19146e+67   2.19054e+67   5.11034e+67  -2.04851e+63   2.18013e+67   2.89334e+66
  -9.98728e+58   1.36533e+60  -1.54203e+60  -1.45412e+68  5.20994e+135  -5.3861e+202   1.26233e+68   -2.8045e+67  -2.46463e+67  -9.27207e+67   3.03496e+65  -1.80823e+67  -6.30676e+66
   1.50455e+59   1.13366e+60   7.59149e+59   1.06555e+68  2.96718e+135  2.47246e+202   9.15791e+67   1.92681e+67   3.34999e+67   5.37868e+67  -7.85847e+65  -2.25193e+67   2.96299e+66
   3.33011e+59   8.57287e+59   7.57415e+59   9.69926e+67    2.232e+135   1.4453e+202   8.47087e+67   1.70614e+67   2.84186e+67   5.15126e+67  -7.93268e+66  -2.21414e+67   6.51803e+66
  -2.88952e+59   1.01421e+60  -1.24424e+60  -1.17061e+68  3.10561e+135 -2.27822e+202   1.02945e+68  -2.15025e+67  -2.09784e+67  -7.45801e+67  -6.84334e+66  -1.91598e+67  -9.98883e+66
      -6.66667            20           -50  -1.92792e+68  1.05242e+136  -1.7467e+203   1.63231e+68  -4.45019e+67  -4.44904e+67  -1.03799e+68  -1.06835e+64   2.62566e+67  -1.91147e+66
      -6.66667            15           -50   9.49297e+67  2.23615e+135  1.39362e+202   8.23135e+67    2.1918e+67   2.19069e+67   5.11049e+67  -8.40936e+63   2.18014e+67   2.89322e+66
      -13.3333            15           -50    9.4713e+67   2.3946e+135  1.75286e+202   8.10922e+67   2.18679e+67   2.18568e+67   5.09882e+67  -8.40936e+63   1.64866e+67   6.40383e+66
      -13.3333            20           -50  -1.55569e+68  6.89286e+135 -9.32157e+202   1.31564e+68  -3.59121e+67  -3.59006e+67  -8.37566e+67  -1.06835e+64   1.95045e+67  -5.54751e+66
   1.50455e+59   1.13366e+60   7.59149e+59  -3.82078e+67  -1.2009e+135   2.2164e+202   5.15823e+67  -1.41386e+67  -4.44492e+67     2.038e+67  -9.22598e+65   -2.5014e+67   2.96299e+66
   4.07894e+59    2.0601e+60   3.19005e+60   2.29893e+68  9.96902e+135  1.07973e+203    2.0708e+68   3.68755e+67   1.74204e+67   1.75598e+68    6.8288e+65  -7.22476e+66   1.24467e+67
   9.62852e+59   1.67356e+60   2.88351e+60   2.04861e+68  7.24924e+135  6.29778e+202    1.8633e+68   3.10987e+67   1.58803e+67   1.57882e+68   -6.4787e+66  -8.89024e+66   2.32538e+67
   3.33011e+59   8.57287e+59   7.57415e+59  -2.46581e+67 -1.42877e+135  1.88298e+202   4.51308e+67  -1.10118e+67  -3.70856e+67   2.34393e+67  -8.08418e+66  -2.45344e+67   6.51803e+66
      -6.66667            15           -50   9.49297e+67  2.23615e+135  1.39362e+202   8.23135e+67    2.1918e+67   2.19069e+67   5.11049e+67  -8.40936e+63   2.18014e+67   2.89322e+66
      -6.66667            10           -50   3.98867e+68  4.63841e+136  1.66988e+204   3.35724e+68     9.208e+67   9.20462e+67   2.14741e+68   -1.1761e+64   3.96174e+67    7.8345e+66
      -13.3333            10           -50    3.6055e+68  3.78551e+136  1.22961e+204   3.03548e+68   8.32376e+67   8.32039e+67   1.94109e+68   -1.1761e+64   3.21843e+67   1.85065e+67
      -13.3333            15           -50    9.4713e+67   2.3946e+135  1.75286e+202   8.10922e+67   2.18679e+67   2.18568e+67   5.09882e+67  -8.40936e+63   1.64866e+67   6.40383e+66
  -2.88952e+59   1.01421e+60  -1.24424e+60  -9.99597e+67  1.79261e+135 -6.48243e+201   9.05502e+67   -1.2278e+67  -1.70319e+67  -7.06498e+67   3.23244e+66  -1.94957e+67  -9.83465e+66
   3.33011e+59   8.57287e+59   7.57415e+59   8.40716e+67  1.44648e+135  6.11323e+201    7.4977e+67    9.9559e+66   2.54368e+67   4.86789e+67   2.27357e+66  -2.24816e+67   4.36531e+66
   6.57037e+59  -1.19356e+59   9.08097e+59   9.49212e+67  7.20197e+134 -1.55388e+201   9.10485e+67   1.24596e+67   2.54102e+67   5.70513e+67  -1.10759e+67  -3.89909e+67   1.06753e+67
  -6.59099e+59  -2.82171e+58  -9.63066e+59  -7.25927e+67  -6.7863e+134  5.26675e+200   7.71254e+67  -5.96249e+66  -1.32468e+67  -5.33834e+67   -1.0117e+67  -3.72862e+67  -1.70428e+67
      -13.3333            20           -50  -1.55605e+68  6.89671e+135 -9.32957e+202   1.31591e+68  -3.59314e+67  -3.59089e+67  -8.37648e+67   -3.1719e+64   1.95052e+67  -5.54783e+66
      -13.3333            15           -50   9.47399e+67  2.39631e+135  1.75443e+202   8.11132e+67   2.18828e+67   2.18631e+67   5.09941e+67  -2.97171e+64   1.64873e+67   6.40832e+66
           -20            15           -50   1.13575e+68  3.72834e+135  3.77049e+202   9.57648e+67   2.62293e+67   2.62096e+67   6.11359e+67  -2.97171e+64  -2.29381e+66   1.26394e+67
           -20            20           -50  -1.20459e+68  4.21901e+135 -4.56783e+202   1.01447e+68  -2.78208e+67  -2.77983e+67  -6.48402e+67   -3.1719e+64  -5.41051e+65  -1.26659e+67
   3.33011e+59   8.57287e+59   7.57415e+59   -3.7579e+67 -1.11532e+135  2.63778e+202   5.02743e+67  -1.81173e+67  -4.00674e+67   2.06057e+67   2.12208e+66  -2.48746e+67   4.36531e+66
   9.62852e+59   1.67356e+60   2.88351e+60   1.62241e+68   1.6572e+135  1.66921e+201   1.57051e+68   7.84204e+66   6.04504e+66   1.48354e+68   3.13539e+66  -9.21071e+66   1.88612e+67
   1.97824e+60   6.27397e+59    2.8937e+60   1.72222e+68  9.90798e+134 -1.38107e+201   1.69321e+68   1.01453e+67   1.10223e+67   1.51054e+68  -1.01601e+67  -2.68817e+67   3.86345e+67
   6.57037e+59  -1.19356e+59   9.08097e+59  -9.81518e+66 -2.97662e+135  4.10535e+202   5.54343e+67  -1.17103e+67  -3.09863e+67   3.28814e+67  -1.11734e+67  -4.11916e+67   1.06753e+67
      -13.3333            15           -50   9.47399e+67  2.39631e+135  1.75443e+202   8.11132e+67   2.18828e+67   2.18631e+67   5.09941e+67  -2.97171e+64   1.64873e+67   6.40832e+66
      -13.3333            10           -50   3.60639e+68  3.78772e+136  1.23075e+204   3.03617e+68   8.32862e+67   8.32244e+67   1.94128e+68  -3.18327e+64    3.2185e+67   1.85157e+67
           -20            10           -50   3.61913e+68  3.79409e+136  1.22683e+204   3.05025e+68   8.35802e+67   8.35184e+67   1.94814e+68  -3.18327e+64   1.20669e+67   3.80419e+67
           -20            15           -50   1.13575e+68  3.72834e+135  3.77049e+202   9.57648e+67   2.62293e+67   2.62096e+67   6.11359e+67  -2.97171e+64  -2.29381e+66   1.26394e+67
   3.96241e+48   5.29258e+60  -3.23203e+60  -1.71869e+68  7.89184e+135 -1.07701e+203    1.4713e+68  -3.48923e+67  -3.53064e+67  -1.01671e+68   3.15694e+66  -2.15498e+67  -1.69681e+66
  -3.65441e+48   5.17933e+60   1.72677e+60   1.09401e+68   3.0774e+135  2.52624e+202   9.42925e+67   1.72666e+67   2.96021e+67   6.25319e+67   2.99992e+66   -1.8855e+67  -1.66924e+64
   2.69972e+59   4.97625e+60    1.7279e+60   1.07994e+68  2.93063e+135  2.26624e+202   9.34461e+67   1.69421e+67   2.88702e+67   6.21821e+67  -5.29484e+66  -1.93301e+67    2.3482e+66
  -1.61356e+59   5.07891e+60  -3.11725e+60  -1.68384e+68  7.53668e+135 -9.97827e+202    1.4428e+68   -3.4088e+67  -3.49095e+67  -9.93867e+67  -5.13782e+66  -2.18137e+67  -2.91892e+66
   3.12572e+48   1.45437e+60  -1.61981e+60  -1.60386e+68  6.21382e+135  -6.5028e+202   1.39678e+68  -3.40988e+67  -2.72669e+67  -9.90208e+67   1.29648e+66   2.80972e+67  -1.13489e+66
  -8.85293e+47   1.20099e+60    7.5735e+59   1.38592e+68  5.00429e+135  5.35297e+202   1.19178e+68   2.75953e+67   4.17281e+67   6.92683e+67   9.79041e+65    3.0792e+67  -2.63018e+64
   1.50455e+59   1.13366e+60   7.59149e+59   1.35797e+68  4.79664e+135  4.90057e+202   1.16808e+68   2.69503e+67    4.0248e+67   6.85983e+67  -3.83496e+66   2.96261e+67   2.30866e+66
  -9.98728e+58   1.36533e+60  -1.54203e+60  -1.58352e+68  6.12276e+135 -6.36519e+202   1.37669e+68  -3.36293e+67  -2.76324e+67  -9.70904e+67  -3.51752e+66   2.71398e+67  -2.34153e+66
  -3.65441e+48   5.17933e+60   1.72677e+60  -1.46798e+66  -1.5319e+135  1.18635e+202    3.9167e+67  -8.31842e+66  -3.00964e+67   3.69468e+67   2.99992e+66  -1.88136e+67  -1.66924e+64
  -1.08063e+49   5.95303e+60   6.68343e+60   2.62436e+68  1.42383e+136  2.12411e+203    2.3374e+68   3.96502e+67   3.08045e+67   1.91981e+68   3.31033e+66  -2.22561e+67   1.66978e+66
   7.07473e+59   5.72897e+60   6.57047e+60   2.60317e+68  1.39792e+136   2.0657e+203   2.31918e+68   3.91613e+67   3.11222e+67   1.90034e+68  -5.10316e+66  -2.26262e+67   7.60519e+66
   2.69972e+59   4.97625e+60    1.7279e+60   1.07137e+66 -1.55124e+135  1.07484e+202   3.94003e+67  -7.73241e+66  -2.87037e+67   3.75075e+67  -5.41357e+66  -1.92805e+67    2.3482e+66
  -8.85293e+47   1.20099e+60    7.5735e+59  -1.21698e+67 -2.12357e+135   1.5497e+202   4.76621e+67  -7.19582e+66  -3.94511e+67   3.44772e+67   9.79041e+65   2.82531e+67  -2.63018e+64
  -4.41947e+48    2.1537e+60   3.26653e+60   2.69361e+68  1.53337e+136   2.1703e+203    2.3921e+68   5.02641e+67   2.55174e+67   1.93579e+68   1.36302e+66   2.48106e+67   1.11593e+66
   4.07894e+59    2.0601e+60   3.19005e+60   2.67965e+68  1.52881e+136  2.17861e+203   2.37734e+68   4.99421e+67   2.62062e+67   1.91817e+68  -3.58772e+66   2.37845e+67    6.9762e+66
   1.50455e+59   1.13366e+60   7.59149e+59  -8.96606e+66 -2.06777e+135  1.24672e+202   4.63483e+67   -6.4565e+66  -3.77011e+67   3.51915e+67  -3.97171e+66   2.71314e+67   2.30866e+66
  -1.61356e+59   5.07891e+60  -3.11725e+60  -1.55853e+68  6.07715e+135 -6.83226e+202   1.34956e+68  -2.74605e+67  -3.20177e+67  -9.63749e+67   3.08808e+66  -2.19508e+67  -6.55043e+66
   2.69972e+59   4.97625e+60    1.7279e+60   1.04304e+68  2.66298e+135  1.91882e+202   9.06436e+67   1.49429e+67   2.80185e+67   6.13423e+67   2.84992e+66  -1.94659e+67   2.00027e+66
   5.78745e+59   4.22184e+60   1.75325e+60   1.05733e+68  2.52293e+135  1.53948e+202   9.30406e+67   1.52727e+67   2.77339e+67   6.27264e+67  -8.62082e+66  -2.24431e+67   4.50358e+66
  -4.49061e+59   4.30852e+60  -2.75902e+60  -1.49721e+68  5.39815e+135 -5.50567e+202   1.30454e+68  -2.60455e+67  -3.12172e+67  -9.24588e+67  -8.38265e+66   -2.3802e+67  -8.51796e+66
  -9.98728e+58   1.36533e+60  -1.54203e+60  -1.49543e+68  5.16149e+135 -4.85039e+202   1.31155e+68   -2.8993e+67  -2.55996e+67  -9.49504e+67   3.01091e+65   2.70762e+67  -5.57572e+66
   1.50455e+59   1.13366e+60   7.59149e+59   1.32745e+68  4.52283e+135  4.54334e+202   1.14448e+68   2.53087e+67   3.95437e+67   6.78922e+67  -7.92359e+65   2.95754e+67   2.36894e+66
   3.33011e+59   8.57287e+59   7.57415e+59   1.26785e+68  4.07957e+135  3.37038e+202   1.09521e+68   2.39334e+67   3.52938e+67   6.75579e+67  -7.93919e+66   2.60755e+67   4.84057e+66
  -2.88952e+59   1.01421e+60  -1.24424e+60   -1.5086e+68  5.51868e+135 -5.18546e+202   1.31301e+68  -2.92968e+67  -2.87781e+67  -9.27848e+67  -6.84574e+66   2.46882e+67  -7.51834e+66
   2.69972e+59   4.97625e+60    1.7279e+60  -2.61939e+66  -1.5414e+135  1.38478e+202   3.93479e+67  -9.73166e+66  -2.95555e+67   3.66677e+67   2.73118e+66  -1.94162e+67   2.00027e+66
   7.07473e+59   5.72897e+60   6.57047e+60     2.401e+68  1.02682e+136  1.17765e+203   2.17669e+68   2.83715e+67   2.64568e+67   1.85272e+68   3.33307e+66  -2.27668e+67   1.05415e+67
   1.62208e+60   4.93402e+60   6.26253e+60     2.445e+68  1.07462e+136  1.26477e+203   2.21437e+68   2.93869e+67   2.90315e+67   1.86082e+68  -8.31765e+66  -2.44074e+67   1.76832e+67
   5.78745e+59   4.22184e+60   1.75325e+60   5.87478e+66 -1.74017e+135   1.1093e+202   4.21269e+67  -7.77147e+66   -2.6036e+67   3.96822e+67  -8.91954e+66  -2.23855e+67   4.50358e+66
   1.50455e+59   1.13366e+60   7.59149e+59  -1.20179e+67 -2.03252e+135  1.67306e+202   4.66578e+67  -8.09805e+66  -3.84053e+67   3.44855e+67   -9.2911e+65   2.70807e+67   2.36894e+66
   4.07894e+59    2.0601e+60   3.19005e+60   2.53652e+68  1.25927e+136  1.56697e+203   2.27479e+68   4.23469e+67   2.29031e+67   1.88402e+68   6.81891e+65   2.37133e+67   1.03731e+67
   9.62852e+59   1.67356e+60   2.88351e+60   2.66762e+68      1.5e+136   2.1843e+203   2.36985e+68   4.53723e+67   3.01652e+67   1.91225e+68  -6.47969e+66    2.1627e+67   1.74244e+67
   3.33011e+59   8.57287e+59   7.57415e+59   5.13443e+66 -1.88099e+135  3.52828e+201   4.36733e+67  -4.13982e+66  -3.02104e+67   3.94847e+67  -8.09069e+66   2.36825e+67   4.84057e+66
  -4.49061e+59   4.30852e+60  -2.75902e+60  -1.30931e+68  3.51269e+135 -2.16895e+202   1.16749e+68  -1.58992e+67  -2.68809e+67  -8.81509e+67   5.47781e+66   -2.4264e+67  -8.18883e+66
   5.78745e+59   4.22184e+60   1.75325e+60   1.03138e+68  2.35381e+135  1.29779e+202   9.10149e+67   1.38051e+67   2.71351e+67   6.21982e+67   5.49419e+66  -2.29136e+67   3.45979e+66
   9.16652e+59   2.51269e+60   1.84998e+60   9.67047e+67  1.34141e+135  1.18063e+201   8.95008e+67   1.23204e+67   2.56984e+67   5.86859e+67  -1.03141e+67  -3.29466e+67   3.81003e+66
  -9.33183e+59   2.60062e+60  -2.42962e+60  -1.24218e+68  2.40878e+135 -1.04014e+202   1.14111e+68  -1.43501e+67  -2.52838e+67  -8.45844e+67  -1.03304e+67  -3.30075e+67     -1.05e+67
  -2.88952e+59   1.01421e+60  -1.24424e+60  -1.33726e+68  3.82742e+135 -3.12213e+202   1.18554e+68  -2.00547e+67  -2.48241e+67  -8.88469e+67   3.24338e+66   2.43518e+67  -7.36421e+66
   3.33011e+59   8.57287e+59   7.57415e+59   1.13815e+68  3.04554e+135  2.37377e+202   9.95404e+67   1.68009e+67   3.23007e+67   6.47133e+67   2.28042e+66   2.57348e+67   2.68094e+66
   6.57037e+59  -1.19356e+59   9.08097e+59   9.90849e+67  2.38696e+135  9.92344e+201   8.62024e+67   1.34017e+67   2.63711e+67   5.93122e+67  -1.10691e+67   1.39203e+67   3.02675e+66
  -6.59099e+59  -2.82171e+58  -9.63066e+59  -1.35476e+68  4.38934e+135 -3.14644e+202   1.18171e+68  -2.04586e+67  -2.77583e+67  -8.72589e+67  -1.01061e+67   1.38105e+67  -9.64609e+66
   5.78745e+59   4.22184e+60   1.75325e+60    3.2801e+66 -1.71988e+135  1.29019e+202    4.1601e+67  -9.23915e+66  -2.66347e+67    3.9154e+67   5.19547e+66   -2.2856e+67   3.45979e+66
   1.62208e+60   4.93402e+60   6.26253e+60   2.22362e+68  6.98914e+135  4.71434e+202   2.06048e+68   1.73018e+67   2.39227e+67   1.81138e+68   6.13194e+66   -2.4889e+67   1.53307e+67
   2.77203e+60   3.16158e+60   6.12118e+60   2.11105e+68  5.36337e+135  3.11785e+202   1.97994e+68   1.47039e+67   2.37592e+67   1.72642e+68   -9.4841e+66  -3.47139e+67   1.82017e+67
   9.16652e+59   2.51269e+60   1.84998e+60   4.60207e+66 -2.21334e+135  1.64795e+202   4.72707e+67  -8.93408e+66  -2.38953e+67   3.74314e+67  -1.04206e+67  -3.27851e+67   3.81003e+66
   3.33011e+59   8.57287e+59   7.57415e+59  -7.83576e+66 -1.81188e+135  2.01944e+202   4.32814e+67  -1.12723e+67  -3.32035e+67   3.66401e+67   2.12892e+66   2.33418e+67   2.68094e+66
   9.62852e+59   1.67356e+60   2.88351e+60   2.24009e+68  7.50627e+135  6.77883e+202   2.06576e+68   2.20428e+67   2.02991e+67   1.81667e+68   3.14455e+66   2.13061e+67   1.30182e+67
   1.97824e+60   6.27397e+59    2.8937e+60   2.13773e+68  6.94533e+135  4.22798e+202   1.96859e+68   1.96805e+67    2.0611e+67   1.73481e+68  -1.01509e+67   9.78684e+66   1.58528e+67
   6.57037e+59  -1.19356e+59   9.08097e+59  -5.65148e+66 -1.38146e+135  7.94219e+201   3.75952e+67  -1.07683e+67  -3.00254e+67   3.51422e+67  -1.11665e+67   1.17196e+67   3.02675e+66
   4.12735e+48   1.16057e+61  -4.71132e+60  -1.44897e+68  5.18802e+135 -5.25029e+202   1.25726e+68  -2.58843e+67  -2.86792e+67  -9.03331e+67   5.12792e+66  -2.13168e+67  -1.58228e+66
  -8.17074e+48    1.1482e+61   2.71025e+60   1.04813e+68  2.56649e+135   1.6875e+202   9.17569e+67   1.38533e+67   2.89462e+67   6.20138e+67   5.06299e+66  -2.15181e+67  -5.37437e+64
   3.44994e+59   1.11438e+61   2.71385e+60   1.04587e+68  2.49775e+135  1.55782e+202   9.18734e+67   1.38011e+67   2.87278e+67   6.20582e+67  -6.42213e+66  -2.22391e+67   1.47511e+66
  -2.52233e+59   1.12632e+61  -4.60574e+60  -1.46417e+68  5.27706e+135 -5.40202e+202   1.27125e+68  -2.62351e+67  -2.91961e+67  -9.09854e+67   -6.3572e+66  -2.19182e+67  -3.39285e+66
   3.96241e+48   5.29258e+60  -3.23203e+60  -1.55258e+68  6.08487e+135 -6.88419e+202    1.3424e+68  -3.10609e+67  -3.14731e+67  -9.27243e+67   3.15671e+66    2.6044e+67  -1.69826e+66
  -3.65441e+48   5.17933e+60   1.72677e+60   1.11149e+68  2.87935e+135  2.12768e+202   9.73379e+67   1.76674e+67   3.00055e+67   6.34758e+67   2.99983e+66   2.58426e+67  -1.65925e+64
   2.69972e+59   4.97625e+60    1.7279e+60   1.10135e+68  2.80149e+135  1.89507e+202   9.65823e+67   1.74334e+67   2.93641e+67   6.33371e+67  -5.29493e+66   2.53807e+67   1.49266e+66
  -1.61356e+59   5.07891e+60  -3.11725e+60   -1.5755e+68  6.31191e+135 -7.11283e+202   1.36051e+68  -3.15897e+67  -3.24092e+67  -9.35507e+67  -5.13806e+66      2.57e+67  -3.48561e+66
  -8.17074e+48    1.1482e+61   2.71025e+60  -4.57972e+66 -1.66039e+135  1.68072e+202   4.10045e+67  -1.13912e+67  -2.99577e+67   3.67692e+67   5.06299e+66  -2.13458e+67  -5.37437e+64
   -2.0005e+49   1.22334e+61   1.01229e+61   2.43725e+68   1.0664e+136  1.24829e+203   2.20767e+68   2.78518e+67   2.73435e+67    1.8853e+68    5.2287e+66  -2.17741e+67   1.45793e+66
   9.47903e+59   1.18842e+61   1.00256e+61   2.46909e+68  1.10725e+136  1.33378e+203   2.23364e+68   2.85865e+67   2.85027e+67    1.8982e+68  -6.36571e+66  -2.23285e+67   6.31818e+66
   3.44994e+59   1.11438e+61   2.71385e+60  -2.88611e+66 -1.70774e+135  1.62104e+202   4.14255e+67  -1.10004e+67  -2.91424e+67   3.72567e+67  -6.53141e+66  -2.20884e+67   1.47511e+66
  -3.65441e+48   5.17933e+60   1.72677e+60   2.80058e+65 -1.86898e+135  1.38693e+202   4.32326e+67  -7.91767e+66   -2.9693e+67   3.78907e+67   2.99983e+66   2.58841e+67  -1.65925e+64
  -1.08063e+49   5.95303e+60   6.68343e+60   2.65242e+68  1.44883e+136  2.17189e+203   2.36358e+68   4.02946e+67   3.14521e+67   1.93496e+68   3.31039e+66   2.54557e+67   1.67142e+66
   7.07473e+59   5.72897e+60   6.57047e+60   2.69645e+68  1.52208e+136  2.33784e+203   2.39765e+68   4.13105e+67   3.32747e+67   1.95059e+68   -5.1031e+66   2.51878e+67   6.46936e+66
   2.69972e+59   4.97625e+60    1.7279e+60   3.21156e+66 -1.84459e+135  1.10993e+202   4.30686e+67  -7.24117e+66  -2.82099e+67   3.86626e+67  -5.41366e+66   2.54303e+67   1.49266e+66
  -2.52233e+59   1.12632e+61  -4.60574e+60   -1.3483e+68  4.08698e+135 -3.20261e+202   1.18711e+68  -2.00917e+67  -2.65223e+67  -8.82163e+67   5.42927e+66  -2.21146e+67  -6.28375e+66
   3.44994e+59   1.11438e+61   2.71385e+60   1.03518e+68   2.4207e+135  1.44936e+202   9.10781e+67   1.32194e+67   2.84811e+67   6.18173e+67   5.34608e+66  -2.24352e+67    1.3005e+66
   7.01105e+59   1.00198e+61   2.72925e+60   1.01608e+68   2.1575e+135  1.03995e+202   9.03698e+67   1.27787e+67   2.78277e+67   6.10017e+67   -8.5788e+66  -2.44188e+67   2.29976e+66
  -6.20215e+59   1.01336e+61  -4.30928e+60  -1.42761e+68  4.57881e+135  -4.0026e+202   1.25706e+68  -2.19219e+67  -2.85652e+67  -9.22741e+67  -8.49562e+66  -2.38987e+67  -7.91941e+66
  -1.61356e+59   5.07891e+60  -3.11725e+60  -1.45009e+68  4.95462e+135 -4.91457e+202   1.26779e+68  -2.49569e+67  -2.95151e+67  -9.05366e+67   3.08966e+66   2.55629e+67  -7.11956e+66
   2.69972e+59   4.97625e+60    1.7279e+60   1.06437e+68  2.53931e+135  1.72788e+202   9.37523e+67   1.54303e+67   2.85108e+67   6.24958e+67   2.85299e+66   2.52449e+67   1.14348e+66
   5.78745e+59   4.22184e+60   1.75325e+60   1.03237e+68  2.29619e+135  1.02044e+202   9.14421e+67   1.46919e+67   2.71578e+67   6.13872e+67  -8.61775e+66   2.43525e+67   2.12993e+66
  -4.49061e+59   4.30852e+60  -2.75902e+60  -1.54153e+68  5.73271e+135 -5.32653e+202   1.34277e+68  -2.70671e+67  -3.22397e+67  -9.48458e+67  -8.38108e+66   2.48675e+67  -8.73424e+66
   3.44994e+59   1.11438e+61   2.71385e+60  -3.95554e+66 -1.70191e+135  1.70826e+202   4.14434e+67  -1.15822e+67  -2.93892e+67   3.70158e+67    5.2368e+66  -2.22845e+67    1.3005e+66
   9.47903e+59   1.18842e+61   1.00256e+61   2.32981e+68  8.58277e+135  7.88599e+202    2.1377e+68   2.11706e+67   2.52886e+67   1.86522e+68   5.67296e+66  -2.25291e+67   8.86193e+66
   2.03587e+60   1.07311e+61   9.76097e+60   2.41601e+68  9.63819e+135  9.85536e+202   2.20755e+68   2.31598e+67   2.83963e+67   1.90045e+68  -8.40114e+66  -2.43193e+67   1.24673e+67
   7.01105e+59   1.00198e+61   2.72925e+60  -1.53874e+66 -1.80874e+135  1.60969e+202   4.25571e+67  -1.10244e+67  -2.77129e+67   3.71986e+67  -8.83729e+66  -2.42878e+67   2.29976e+66
   2.69972e+59   4.97625e+60    1.7279e+60  -4.86187e+65 -1.82876e+135  1.59893e+202   4.27668e+67  -9.24422e+66  -2.90632e+67   3.78212e+67   2.73426e+66   2.52945e+67   1.14348e+66
   7.07473e+59   5.72897e+60   6.57047e+60   2.49402e+68  1.13938e+136  1.43833e+203   2.25405e+68   3.05066e+67   2.86032e+67   1.90292e+68   3.33434e+66   2.50472e+67   9.40557e+66
   1.62208e+60   4.93402e+60   6.26253e+60    2.5939e+68  1.29054e+136  1.63158e+203    2.3319e+68   3.28115e+67   3.24675e+67   1.94111e+68  -8.31638e+66   2.43732e+67   1.29647e+67
   5.78745e+59   4.22184e+60   1.75325e+60   3.37863e+66 -1.79826e+135  9.64454e+201   4.25403e+67  -8.35234e+66   -2.6612e+67    3.8343e+67  -8.91646e+66   2.44101e+67   2.12993e+66
  -6.20215e+59   1.01336e+61  -4.30928e+60  -1.26661e+68   2.9976e+135 -1.26562e+202   1.14217e+68  -1.32129e+67  -2.48498e+67  -8.85986e+67   7.19609e+66  -2.44218e+67  -7.40545e+66
   7.01105e+59   1.00198e+61   2.72925e+60   1.01761e+68   2.1619e+135  9.55941e+201   9.05175e+67   1.28608e+67    2.7863e+67   6.10372e+67   7.37004e+66  -2.49505e+67   2.29575e+66
   1.05559e+60   7.83116e+60   2.74472e+60   9.30834e+67  1.35714e+135  2.24765e+201   8.54832e+67   1.08583e+67   2.63078e+67   5.59173e+67  -9.72661e+66  -3.00804e+67   2.70304e+66
  -1.15476e+60   7.95666e+60   -4.0527e+60  -1.33894e+68  3.16243e+135 -1.71886e+202   1.21512e+68   -1.4882e+67  -2.60715e+67  -9.29403e+67  -9.90057e+66  -2.93492e+67  -8.50855e+66
  -4.49061e+59   4.30852e+60  -2.75902e+60  -1.35353e+68  3.83318e+135 -3.02112e+202   1.20363e+68  -1.69157e+67  -2.79013e+67  -9.05358e+67   5.48354e+66   2.44053e+67  -8.40513e+66
   5.78745e+59   4.22184e+60   1.75325e+60   1.00659e+68   2.1718e+135  1.22581e+202   8.92208e+67    1.3233e+67   2.65628e+67   6.08627e+67   5.50168e+66   2.38819e+67   1.08631e+66
   9.16652e+59   2.51269e+60   1.84998e+60    9.0813e+67  1.76769e+135  4.44552e+201   8.04942e+67   1.09609e+67   2.43388e+67   5.55132e+67  -1.03066e+67    1.8715e+67   1.48838e+66
  -9.33183e+59   2.60062e+60  -2.42962e+60  -1.43772e+68  4.61521e+135 -2.96856e+202   1.26709e+68  -1.88586e+67  -2.97961e+67   -9.5117e+67  -1.03247e+67   1.94384e+67  -9.49409e+66
   7.01105e+59   1.00198e+61   2.72925e+60  -1.38578e+66 -1.80697e+135  1.54695e+202   4.25311e+67  -1.09423e+67  -2.76776e+67   3.72341e+67   7.11155e+66  -2.48195e+67   2.29575e+66
   2.03587e+60   1.07311e+61   9.76097e+60   2.25635e+68  6.85285e+135  3.87807e+202     2.099e+68   1.45185e+67   2.47118e+67   1.86404e+68   7.70887e+66  -2.48563e+67   1.18894e+67
   3.28908e+60   8.50265e+60   9.54017e+60   2.20322e+68  6.13396e+135  3.51812e+202   2.05932e+68   1.32924e+67    2.5017e+67   1.82013e+68  -9.57435e+66  -2.96377e+67   1.41882e+67
   1.05559e+60   7.83116e+60   2.74472e+60  -6.54078e+66 -1.98124e+135  2.03145e+202   4.49892e+67  -1.21319e+67  -2.73359e+67   3.29271e+67  -1.01717e+67  -3.00425e+67   2.70304e+66
   5.78745e+59   4.22184e+60   1.75325e+60   8.00291e+65 -1.73439e+135  1.49968e+202   4.16537e+67  -9.81122e+66   -2.7207e+67   3.78185e+67   5.20296e+66   2.39395e+67   1.08631e+66
   1.62208e+60   4.93402e+60   6.26253e+60   2.37283e+68   8.9475e+135  8.84451e+202   2.17613e+68   2.07432e+67   2.73659e+67   1.89174e+68   6.13999e+66   2.38913e+67   1.06128e+67
   2.77203e+60   3.16158e+60   6.12118e+60   2.35037e+68  9.15041e+135  7.61482e+202   2.14691e+68    2.0225e+67    2.9282e+67    1.8553e+68  -9.47605e+66   1.92642e+67   1.28822e+67
   9.16652e+59   2.51269e+60   1.84998e+60  -1.28961e+66 -1.42485e+135  8.32981e+201   3.77692e+67  -1.02935e+67  -2.52549e+67   3.42588e+67  -1.04131e+67   1.88764e+67   1.48838e+66
   3.60544e+48   2.03233e+61  -6.20012e+60   -1.3782e+68  4.34619e+135 -3.63537e+202    1.2103e+68   -2.1261e+67   -2.7493e+67  -8.90665e+67   6.63963e+66  -2.31343e+67  -1.18583e+66
  -1.42609e+49   2.02112e+61   3.72051e+60   1.02862e+68  2.29451e+135  1.22895e+202   9.10277e+67   1.22194e+67    2.8049e+67   6.25933e+67   6.62309e+66  -2.29109e+67   1.35761e+64
   3.79408e+59   1.97748e+61   3.71961e+60   1.02163e+68  2.21823e+135  1.11869e+202    9.0659e+67   1.20582e+67   2.78461e+67   6.22587e+67  -7.35509e+66  -2.33933e+67   7.71378e+65
  -3.47457e+59   1.98858e+61  -6.12207e+60  -1.41268e+68  4.58576e+135 -4.04571e+202   1.23979e+68  -2.20565e+67  -2.83303e+67  -9.08812e+67  -7.33855e+66  -2.35547e+67  -3.10493e+66
   4.12735e+48   1.16057e+61  -4.71132e+60  -1.46088e+68  5.12136e+135  -5.0595e+202    1.2736e+68  -2.61598e+67  -2.89542e+67  -9.09745e+67   5.12892e+66   2.49246e+67  -1.58289e+66
  -8.17074e+48    1.1482e+61   2.71025e+60   1.08152e+68  2.60582e+135  1.68298e+202   9.53471e+67   1.46213e+67   2.97167e+67   6.38142e+67   5.06408e+66    2.5148e+67  -5.39703e+64
   3.44994e+59   1.11438e+61   2.71385e+60   1.07056e+68  2.51549e+135  1.47558e+202   9.45807e+67   1.43683e+67   2.92976e+67   6.33901e+67  -6.42104e+66   2.51344e+67    6.9399e+65
  -2.52233e+59   1.12632e+61  -4.60574e+60  -1.49898e+68  5.43158e+135 -5.32429e+202   1.30529e+68  -2.70388e+67  -2.99994e+67  -9.28594e+67   -6.3562e+66   2.49722e+67  -3.47707e+66
  -1.42609e+49   2.02112e+61   3.72051e+60  -2.38475e+66 -1.77935e+135  1.78495e+202   4.22497e+67  -1.20682e+67  -2.86222e+67   3.83057e+67   6.62309e+66  -2.28523e+67   1.35761e+64
  -3.16905e+49   2.09411e+61   1.36381e+61   2.38602e+68  9.18529e+135  8.90565e+202   2.18508e+68   2.13486e+67   2.69902e+67   1.90263e+68   6.72354e+66  -2.32668e+67   1.20334e+66
   1.11068e+60    2.0498e+61   1.35589e+61   2.41552e+68  9.55056e+135  9.62041e+202     2.209e+68   2.20294e+67   2.79251e+67   1.91598e+68  -7.33936e+66  -2.36778e+67   4.61461e+66
   3.79408e+59   1.97748e+61   3.71961e+60  -2.12229e+66 -1.80087e+135  1.76979e+202   4.24897e+67  -1.20077e+67  -2.83075e+67   3.81929e+67  -7.43982e+66  -2.33469e+67   7.71378e+65
  -8.17074e+48    1.1482e+61   2.71025e+60  -1.24077e+66 -1.89218e+135  1.77669e+202   4.35169e+67  -1.06232e+67  -2.91872e+67   3.85697e+67   5.06408e+66   2.53204e+67  -5.39703e+64
   -2.0005e+49   1.22334e+61   1.01229e+61   2.53186e+68  1.17688e+136  1.48083e+203   2.28767e+68   3.00303e+67   2.95266e+67   1.93629e+68   5.22962e+66   2.49059e+67   1.45802e+66
   9.47903e+59   1.18842e+61   1.00256e+61   2.56662e+68  1.22757e+136  1.55623e+203   2.31516e+68   3.08326e+67   3.07534e+67   1.95076e+68  -6.36479e+66   2.49531e+67   4.82498e+66
   3.44994e+59   1.11438e+61   2.71385e+60  -4.17231e+65 -1.88954e+135  1.63127e+202   4.34709e+67  -1.04332e+67  -2.85726e+67   3.85886e+67  -6.53032e+66   2.52851e+67    6.9399e+65
  -3.47457e+59   1.98858e+61  -6.12207e+60  -1.31991e+68  3.64915e+135 -2.34215e+202   1.17356e+68  -1.71263e+67  -2.61894e+67  -8.86751e+67   6.95993e+66   -2.3793e+67  -5.08431e+66
   3.79408e+59   1.97748e+61   3.71961e+60    1.0238e+68  2.22869e+135  1.10236e+202   9.08454e+67   1.21784e+67   2.78961e+67    6.2305e+67   6.97359e+66  -2.36321e+67   8.80891e+65
   7.56472e+59   1.83941e+61   3.71141e+60   9.95302e+67  1.97825e+135  7.92956e+201   8.90393e+67   1.15209e+67   2.72737e+67   6.07356e+67  -8.72513e+66   -2.4782e+67   1.37921e+66
  -7.86727e+59   1.85061e+61  -5.91531e+60  -1.42748e+68  4.38539e+135 -3.53843e+202   1.26458e+68  -1.96088e+67  -2.86367e+67  -9.45026e+67   -8.7388e+66  -2.48188e+67  -6.56633e+66
  -2.52233e+59   1.12632e+61  -4.60574e+60  -1.38308e+68  4.23103e+135 -3.65563e+202   1.22058e+68  -2.08939e+67   -2.7325e+67  -9.00895e+67   5.43253e+66   2.47757e+67  -6.36834e+66
   3.44994e+59   1.11438e+61   2.71385e+60    1.0599e+68  2.45508e+135  1.50441e+202   9.36947e+67   1.37881e+67   2.90515e+67   6.31499e+67   5.34948e+66   2.49383e+67   5.19139e+65
   7.01105e+59   1.00198e+61   2.72925e+60   1.02373e+68  2.17222e+135  9.11902e+201   9.11486e+67   1.29536e+67   2.80043e+67   6.14154e+67  -8.57541e+66    2.5128e+67   1.01099e+66
  -6.20215e+59   1.01336e+61  -4.30928e+60   -1.4973e+68  5.10404e+135 -4.12533e+202   1.31586e+68  -2.35296e+67  -3.01733e+67  -9.60269e+67  -8.49235e+66    2.5088e+67  -7.83111e+66
   3.79408e+59   1.97748e+61   3.71961e+60  -1.90574e+66 -1.80372e+135  1.73786e+202   4.25129e+67  -1.18874e+67  -2.82575e+67   3.82392e+67   6.88887e+66  -2.35857e+67   8.80891e+65
   1.11068e+60    2.0498e+61   1.35589e+61   2.32584e+68  7.94846e+135  6.15815e+202   2.14819e+68   1.72716e+67   2.58556e+67   1.89457e+68   7.13566e+66  -2.39191e+67   6.76957e+66
   2.30978e+60   1.91012e+61   1.33392e+61   2.39875e+68  8.83615e+135  7.82361e+202    2.2069e+68   1.89541e+67   2.81622e+67   1.92759e+68  -8.67282e+66  -2.48936e+67   9.21023e+66
   7.56472e+59   1.83941e+61   3.71141e+60  -2.84086e+66 -1.84229e+135  1.76655e+202   4.30158e+67  -1.21032e+67  -2.78492e+67   3.71115e+67  -8.91961e+66  -2.48033e+67   1.37921e+66
   3.44994e+59   1.11438e+61   2.71385e+60  -1.48375e+66 -1.86729e+135  1.81952e+202   4.32376e+67  -1.10134e+67  -2.88187e+67   3.83484e+67   5.24019e+66    2.5089e+67   5.19139e+65
   9.47903e+59   1.18842e+61   1.00256e+61   2.42737e+68  9.71846e+135  1.03733e+203   2.21817e+68   2.34182e+67     2.754e+67   1.91779e+68    5.6764e+66   2.47524e+67   7.36872e+66
   2.03587e+60   1.07311e+61   9.76097e+60   2.51567e+68   1.0955e+136  1.15731e+203   2.28759e+68   2.54557e+67   3.06961e+67   1.95415e+68  -8.39769e+66   2.51624e+67   9.77768e+66
   7.01105e+59   1.00198e+61   2.72925e+60   -7.7356e+65  -1.8621e+135  1.48008e+202    4.3159e+67  -1.08495e+67  -2.75363e+67   3.76122e+67   -8.8339e+66    2.5259e+67   1.01099e+66
  -7.86727e+59   1.85061e+61  -5.91531e+60  -1.30385e+68  3.13282e+135 -1.25914e+202    1.1776e+68  -1.29223e+67  -2.57836e+67  -9.16789e+67   8.14522e+66  -2.53816e+67  -6.18997e+66
   7.56472e+59   1.83941e+61   3.71141e+60   1.00635e+68  2.03862e+135  7.50522e+201   8.99381e+67   1.21526e+67   2.75287e+67    6.0954e+67   8.27171e+66  -2.53485e+67    1.9217e+66
   1.12111e+60   1.58938e+61   3.66699e+60   9.41169e+67  1.52901e+135  3.62145e+201   8.56095e+67   1.06483e+67   2.63447e+67   5.71239e+67  -9.61421e+66  -2.77017e+67   2.20921e+66
  -1.35216e+60   1.60141e+61  -5.73752e+60  -1.38901e+68  3.57994e+135 -2.12081e+202   1.25353e+68  -1.48876e+67  -2.74286e+67  -9.65846e+67  -9.74071e+66  -2.77963e+67  -6.92704e+66
  -6.20215e+59   1.01336e+61  -4.30928e+60  -1.33628e+68  3.49522e+135 -2.36503e+202   1.19838e+68  -1.48194e+67  -2.64575e+67  -9.23509e+67   7.20073e+66   2.45649e+67  -7.31645e+66
   7.01105e+59   1.00198e+61   2.72925e+60    1.0253e+68  2.22954e+135  1.15731e+202   9.10103e+67   1.30379e+67   2.80405e+67   6.14517e+67   7.37513e+66   2.45964e+67   1.00805e+66
   1.05559e+60   7.83116e+60   2.74472e+60   9.65231e+67  1.94342e+135  6.16747e+201   8.58679e+67   1.16517e+67   2.71016e+67   5.77698e+67  -9.72152e+66   2.26927e+67   1.29183e+66
  -1.15476e+60   7.95666e+60   -4.0527e+60  -1.41606e+68  4.11245e+135 -2.16349e+202   1.26253e+68  -1.66606e+67  -2.78513e+67  -9.70943e+67  -9.89592e+66   2.26006e+67  -8.04395e+66
   7.56472e+59   1.83941e+61   3.71141e+60  -1.73565e+66 -1.85434e+135  1.60789e+202    4.3097e+67  -1.14715e+67  -2.75941e+67     3.733e+67   8.07723e+66  -2.53699e+67    1.9217e+66
   2.30978e+60   1.91012e+61   1.33392e+61   2.29911e+68  7.05488e+135  3.78762e+202   2.14019e+68   1.36315e+67   2.58627e+67   1.90417e+68   8.45546e+66  -2.54646e+67   9.90381e+66
   3.60831e+60    1.6576e+61    1.3077e+61   2.27417e+68  6.75908e+135  4.00983e+202   2.12037e+68    1.3056e+67   2.62443e+67   1.88117e+68  -9.50397e+66  -2.76224e+67   1.11038e+67
   1.12111e+60   1.58938e+61   3.66699e+60  -6.18452e+66 -1.89471e+135  1.94437e+202   4.39654e+67  -1.24982e+67  -2.76638e+67   3.39774e+67  -9.88221e+66  -2.78085e+67   2.20921e+66
   7.01105e+59   1.00198e+61   2.72925e+60  -6.16738e+65 -1.80769e+135  1.62039e+202   4.25215e+67  -1.07652e+67  -2.75001e+67   3.76486e+67   7.11663e+66   2.47273e+67   1.00805e+66
   2.03587e+60   1.07311e+61   9.76097e+60   2.35601e+68  8.10838e+135  6.67036e+202   2.17714e+68   1.68147e+67   2.70116e+67   1.91774e+68    7.7137e+66   2.46253e+67   9.20087e+66
   3.28908e+60   8.50265e+60   9.54017e+60   2.35046e+68  8.31685e+135  5.62955e+202   2.16633e+68   1.66867e+67   2.84149e+67   1.89945e+68  -9.56952e+66   2.29058e+67   1.03853e+67
   1.05559e+60   7.83116e+60   2.74472e+60  -3.10105e+66 -1.63824e+135  1.21777e+202   4.05938e+67  -1.13385e+67  -2.65422e+67   3.47796e+67  -1.01666e+67   2.27306e+67   1.29183e+66
   2.23547e+48   3.15389e+61  -7.73134e+60  -1.34899e+68  3.87334e+135 -2.72854e+202   1.19684e+68   -1.7913e+67  -2.69625e+67  -9.00234e+67   7.69313e+66  -2.42838e+67  -7.67413e+65
  -2.18606e+49   3.14306e+61   4.74704e+60   1.02758e+68  2.18042e+135   9.9488e+201   9.15353e+67    1.1681e+67   2.78813e+67   6.31953e+67   7.69299e+66   -2.4212e+67    1.1994e+65
   3.91086e+59   3.09304e+61   4.73923e+60    1.0188e+68  2.10992e+135  9.12461e+201   9.09379e+67   1.14786e+67   2.76786e+67   6.27232e+67  -8.09255e+66  -2.44575e+67   4.44775e+65
  -4.29763e+59   3.10387e+61  -7.68151e+60  -1.38345e+68  4.11635e+135 -3.12664e+202   1.22568e+68  -1.87082e+67   -2.7758e+67  -9.18787e+67  -8.09242e+66  -2.45087e+67  -2.46035e+66
   3.60544e+48   2.03233e+61  -6.20012e+60  -1.43119e+68  4.68615e+135 -4.17003e+202   1.25686e+68  -2.24831e+67  -2.87159e+67  -9.19204e+67   6.64063e+66   2.49036e+67  -1.18587e+66
  -1.42609e+49   2.02112e+61   3.72051e+60   1.04891e+68   2.3183e+135  1.23376e+202   9.31876e+67   1.26864e+67   2.85174e+67   6.36877e+67   6.62416e+66   2.49754e+67   1.34908e+64
   3.79408e+59   1.97748e+61   3.71961e+60   1.03891e+68   2.2366e+135  1.08034e+202    9.2503e+67   1.24555e+67    2.8245e+67   6.31908e+67  -7.35402e+66   2.51577e+67   3.34052e+65
  -3.47457e+59   1.98858e+61  -6.12207e+60  -1.46655e+68  4.95519e+135 -4.35897e+202   1.28656e+68  -2.32989e+67  -2.95733e+67  -9.37824e+67  -7.33755e+66   2.51063e+67  -2.85654e+66
  -2.18606e+49   3.14306e+61   4.74704e+60  -1.27814e+66 -1.88446e+135  1.84579e+202   4.34292e+67  -1.23272e+67   -2.8138e+67    3.9187e+67   7.69299e+66   -2.4216e+67    1.1994e+65
   -4.5525e+49   3.21545e+61   1.72256e+61   2.36474e+68  8.26355e+135  6.63332e+202   2.18303e+68   1.71929e+67   2.67279e+67   1.92553e+68    7.7519e+66  -2.43304e+67   9.95741e+65
   1.21505e+60   3.16505e+61   1.71609e+61    2.3866e+68  8.53208e+135  7.14792e+202    2.2006e+68   1.76974e+67   2.73794e+67   1.93583e+68  -8.09352e+66  -2.45379e+67    3.3143e+66
   3.91086e+59   3.09304e+61   4.73923e+60  -1.67669e+66 -1.88948e+135  1.85837e+202   4.35004e+67  -1.24192e+67  -2.80829e+67   3.88254e+67  -8.15242e+66   -2.4476e+67   4.44775e+65
  -1.42609e+49   2.02112e+61   3.72051e+60  -3.55034e+65 -1.91032e+135  1.84151e+202   4.37086e+67  -1.16013e+67  -2.81538e+67   3.94001e+67   6.62416e+66    2.5034e+67   1.34908e+64
  -3.16905e+49   2.09411e+61   1.36381e+61   2.47628e+68  1.02578e+136  1.09894e+203   2.25968e+68   2.34278e+67    2.9073e+67   1.95127e+68   6.72457e+66   2.49196e+67   1.20324e+66
   1.11068e+60    2.0498e+61   1.35589e+61    2.5014e+68  1.05992e+136  1.13492e+203   2.27971e+68   2.40075e+67   2.99068e+67   1.96225e+68  -7.33834e+66   2.51416e+67   3.49129e+66
   3.79408e+59   1.97748e+61   3.71961e+60  -3.94018e+65 -1.91284e+135  1.77659e+202   4.37379e+67  -1.16103e+67  -2.79087e+67   3.91249e+67  -7.43874e+66   2.52041e+67   3.34052e+65
  -4.29763e+59   3.10387e+61  -7.68151e+60  -1.31528e+68  3.42903e+135 -1.88995e+202   1.17773e+68  -1.50768e+67  -2.61848e+67  -9.02662e+67   7.94091e+66  -2.47759e+67  -3.65716e+66
   3.91086e+59   3.09304e+61   4.73923e+60   1.02544e+68  2.14878e+135  9.16538e+201   9.14683e+67   1.18478e+67   2.78317e+67   6.28643e+67    7.9633e+66  -2.47251e+67   8.03562e+65
   7.75136e+59   2.93863e+61   4.70794e+60   9.97878e+67  1.94605e+135  7.10212e+201   8.95073e+67   1.12118e+67   2.72517e+67   6.13242e+67  -8.97235e+66  -2.52322e+67   1.03639e+66
  -9.26366e+59   2.94961e+61  -7.55513e+60  -1.41182e+68  4.10881e+135 -2.96361e+202   1.25791e+68  -1.73046e+67  -2.83566e+67  -9.55205e+67  -8.99474e+66  -2.52722e+67  -4.88703e+66
  -3.47457e+59   1.98858e+61  -6.12207e+60  -1.37377e+68  4.00789e+135 -3.13788e+202    1.2192e+68  -1.83685e+67  -2.74324e+67  -9.15762e+67   6.96263e+66    2.4868e+67  -4.83563e+66
   3.79408e+59   1.97748e+61   3.71961e+60    1.0411e+68   2.2707e+135  1.17653e+202   9.25642e+67   1.25768e+67   2.82954e+67   6.32375e+67   6.97649e+66   2.49189e+67   4.43641e+65
   7.56472e+59   1.83941e+61   3.71141e+60   1.01324e+68  2.04535e+135  7.58457e+201   9.06713e+67   1.19341e+67   2.76878e+67   6.17026e+67  -8.72223e+66     2.556e+67   6.73402e+65
  -7.86727e+59   1.85061e+61  -5.91531e+60  -1.46969e+68  4.70278e+135 -3.44097e+202   1.29989e+68  -2.05821e+67  -2.96108e+67  -9.67765e+67  -8.73609e+66   2.55198e+67  -6.04931e+66
   3.91086e+59   3.09304e+61   4.73923e+60  -1.01326e+66 -1.89667e+135  1.77615e+202   4.35626e+67  -1.20499e+67  -2.79298e+67   3.89665e+67   7.90343e+66  -2.47436e+67   8.03562e+65
   1.21505e+60   3.16505e+61   1.71609e+61   2.33174e+68  7.54633e+135  4.99705e+202   2.16388e+68   1.48058e+67   2.61135e+67   1.92255e+68   8.05339e+66   -2.4807e+67   5.19559e+66
   2.48285e+60   3.00967e+61   1.69749e+61   2.38278e+68  8.17335e+135  6.21072e+202   2.20461e+68   1.59835e+67   2.76656e+67   1.94629e+68   -8.9419e+66  -2.52475e+67   6.84179e+66
   7.75136e+59   2.93863e+61   4.70794e+60  -2.73466e+66 -1.89789e+135  1.84698e+202   4.36505e+67  -1.24472e+67  -2.79527e+67   3.76652e+67  -9.09187e+66  -2.53065e+67   1.03639e+66
   3.79408e+59   1.97748e+61   3.71961e+60  -1.75629e+65 -1.89219e+135  1.79958e+202   4.34997e+67   -1.1489e+67  -2.78583e+67   3.91717e+67   6.89177e+66   2.49653e+67   4.43641e+65
   1.11068e+60    2.0498e+61   1.35589e+61   2.41175e+68  8.97243e+135  8.33079e+202   2.21795e+68   1.92514e+67    2.7838e+67   1.94086e+68   7.13836e+66   2.49003e+67     5.646e+66
   2.30978e+60   1.91012e+61   1.33392e+61   2.47039e+68  9.74476e+135  8.77096e+202   2.26459e+68   2.06046e+67   2.98154e+67   1.96619e+68  -8.67012e+66   2.55945e+67   7.27054e+66
   7.56472e+59   1.83941e+61   3.71141e+60  -1.04659e+66  -1.9013e+135  1.65152e+202   4.36164e+67    -1.169e+67  -2.74351e+67   3.80785e+67  -8.91671e+66   2.55387e+67   6.73402e+65
  -9.26366e+59   2.94961e+61  -7.55513e+60  -1.32419e+68  3.20177e+135 -1.26615e+202   1.19721e+68  -1.25816e+67  -2.63345e+67   -9.3503e+67   8.70836e+66  -2.58623e+67  -4.86226e+66
   7.75136e+59   2.93863e+61   4.70794e+60   1.00987e+68  2.00816e+135  6.58641e+201      9.05e+67   1.19104e+67   2.75285e+67   6.15482e+67   8.77123e+66  -2.58237e+67   1.82055e+66
   1.14548e+60   2.66888e+61    4.6252e+60   9.65683e+67  1.71516e+135  5.05365e+201   8.72369e+67   1.08907e+67   2.66656e+67    5.9012e+67  -9.58719e+66  -2.63724e+67   2.02518e+66
  -1.51066e+60   2.68027e+61  -7.43322e+60  -1.38691e+68  3.60573e+135  -2.0675e+202   1.25018e+68  -1.40291e+67  -2.76251e+67  -9.70372e+67  -9.65006e+66  -2.64916e+67  -5.37489e+66
  -7.86727e+59   1.85061e+61  -5.91531e+60  -1.34607e+68  3.46993e+135 -2.14864e+202   1.21033e+68  -1.38958e+67  -2.67579e+67  -9.39529e+67   8.14874e+66   2.49569e+67  -5.67249e+66
   7.56472e+59   1.83941e+61   3.71141e+60   1.02432e+68  2.16497e+135  1.01156e+202   9.12538e+67   1.25668e+67   2.79432e+67   6.19215e+67   8.27527e+66   2.49934e+67   1.21655e+66
   1.12111e+60   1.58938e+61   3.66699e+60   9.86084e+67  1.93454e+135  5.60739e+201   8.82557e+67   1.16846e+67   2.73812e+67   5.95427e+67  -9.61065e+66   2.48414e+67   1.41849e+66
  -1.35216e+60   1.60141e+61  -5.73752e+60  -1.40259e+68  3.85634e+135 -1.84835e+202   1.25762e+68  -1.52002e+67   -2.7742e+67  -9.73165e+67  -9.73718e+66   2.47253e+67  -6.17837e+66
   7.75136e+59   2.93863e+61   4.70794e+60  -1.53528e+66 -1.91748e+135  1.66395e+202   4.38159e+67  -1.17486e+67  -2.76759e+67   3.78892e+67   8.65172e+66  -2.58979e+67   1.82055e+66
   2.48285e+60   3.00967e+61   1.69749e+61   2.32052e+68  7.04011e+135  3.50774e+202   2.16352e+68   1.27316e+67   2.62289e+67   1.93091e+68   8.87714e+66  -2.58414e+67   8.37783e+66
   3.80957e+60   2.73845e+61   1.66908e+61   2.30674e+68  6.92072e+135  3.94611e+202    2.1515e+68   1.24135e+67   2.64735e+67   1.91787e+68  -9.51465e+66   -2.6261e+67   9.26003e+66
   1.14548e+60   2.66888e+61    4.6252e+60  -4.63502e+66 -1.89167e+135  1.89051e+202   4.37396e+67   -1.2464e+67  -2.78285e+67   3.56574e+67  -9.74008e+66  -2.65109e+67   2.02518e+66
   7.56472e+59   1.83941e+61   3.71141e+60   6.04956e+64 -1.85423e+135  1.64354e+202   4.30608e+67  -1.10573e+67  -2.71796e+67   3.82974e+67   8.08079e+66   2.49721e+67   1.21655e+66
   2.30978e+60   1.91012e+61   1.33392e+61   2.37079e+68  7.97486e+135  5.98657e+202   2.19617e+68   1.52848e+67   2.75171e+67   1.94278e+68   8.45888e+66   2.50235e+67   7.96507e+66
   3.60831e+60    1.6576e+61    1.3077e+61   2.37025e+68  8.09578e+135  5.06276e+202   2.19283e+68   1.52721e+67   2.84614e+67   1.93291e+68  -9.50056e+66   2.49768e+67   8.83566e+66
   1.12111e+60   1.58938e+61   3.66699e+60  -1.69307e+66  -1.7925e+135  1.39291e+202   4.23718e+67  -1.14619e+67  -2.66273e+67   3.63962e+67  -9.87865e+66   2.47346e+67   1.41849e+66
  -1.51351e+47   4.53242e+61  -9.31434e+60  -1.34615e+68  3.63855e+135 -2.22438e+202   1.20344e+68  -1.56684e+67  -2.69968e+67    -9.195e+67   8.39912e+66  -2.52344e+67  -4.28959e+65
  -3.09332e+49   4.52184e+61   5.78305e+60   1.02992e+68   2.1214e+135  8.53418e+201   9.21193e+67   1.15424e+67   2.78357e+67   6.36141e+67   8.40083e+66  -2.51846e+67   2.18945e+65
    3.9203e+59   4.46795e+61     5.769e+60   1.02202e+68   2.0662e+135  8.03014e+201   9.15366e+67   1.13599e+67   2.76574e+67   6.31842e+67  -8.63585e+66  -2.52699e+67   3.38975e+65
  -4.93877e+59   4.47854e+61  -9.28688e+60   -1.3735e+68  3.83506e+135 -2.53421e+202   1.22597e+68  -1.62995e+67  -2.76237e+67  -9.34268e+67  -8.63755e+66  -2.53176e+67  -1.79024e+66
   2.23547e+48   3.15389e+61  -7.73134e+60   -1.4137e+68  4.33623e+135  -3.4123e+202   1.25097e+68  -1.94051e+67  -2.84558e+67  -9.35087e+67    7.6939e+66   2.51314e+67  -7.67235e+65
  -2.18606e+49   3.14306e+61   4.74704e+60    1.0394e+68  2.20341e+135  1.01701e+202   9.27373e+67   1.19533e+67   2.81543e+67   6.38329e+67    7.6938e+66   2.51812e+67   1.19956e+65
   3.91086e+59   3.09304e+61   4.73923e+60   1.03146e+68   2.1374e+135  9.01875e+201   9.22048e+67     1.177e+67   2.79707e+67   6.34054e+67  -8.09175e+66   2.54176e+67   2.38386e+65
  -4.29763e+59   3.10387e+61  -7.68151e+60  -1.44082e+68  4.53321e+135 -3.52171e+202   1.27383e+68  -2.00311e+67   -2.9082e+67  -9.49691e+67  -8.09165e+66   2.53699e+67  -2.11036e+66
  -3.09332e+49   4.52184e+61   5.78305e+60  -7.22457e+65 -1.96311e+135  1.87675e+202   4.43129e+67  -1.23918e+67  -2.80106e+67   3.96799e+67   8.40083e+66  -2.52274e+67   2.18945e+65
  -6.12866e+49   4.59423e+61   2.08827e+61   2.36941e+68  7.81521e+135  5.37397e+202   2.19831e+68   1.47715e+67   2.68347e+67   1.95335e+68    8.4366e+66  -2.52269e+67   8.57992e+65
   1.27987e+60   4.54012e+61   2.08277e+61   2.38345e+68   7.9902e+135    5.724e+202   2.20948e+68   1.50956e+67   2.72469e+67   1.96003e+68  -8.63728e+66  -2.52944e+67   2.43717e+66
    3.9203e+59   4.46795e+61     5.769e+60  -1.24034e+66 -1.96005e+135  1.90109e+202   4.42899e+67  -1.25113e+67   -2.8042e+67    3.9313e+67  -8.67305e+66  -2.53237e+67   3.38975e+65
  -2.18606e+49   3.14306e+61   4.74704e+60    -9.528e+64 -1.94699e+135  1.87086e+202   4.41248e+67   -1.2055e+67   -2.7865e+67   3.98247e+67    7.6938e+66   2.51772e+67   1.19956e+65
   -4.5525e+49   3.21545e+61   1.72256e+61   2.45155e+68  9.30876e+135  8.51044e+202   2.25372e+68   1.91939e+67   2.87313e+67    1.9723e+68   7.75267e+66   2.51777e+67   9.95585e+65
   1.21505e+60   3.16505e+61   1.71609e+61   2.46736e+68  9.51294e+135  8.63592e+202    2.2664e+68   1.95587e+67   2.92432e+67   1.97934e+68  -8.09275e+66    2.5428e+67    2.5537e+66
   3.91086e+59   3.09304e+61   4.73923e+60  -4.10958e+65 -1.95167e+135  1.84172e+202   4.41796e+67  -1.21278e+67  -2.77908e+67   3.95077e+67  -8.15162e+66   2.53991e+67   2.38386e+65
  -4.93877e+59   4.47854e+61  -9.28688e+60  -1.32617e+68  3.35114e+135 -1.67099e+202   1.19316e+68  -1.37719e+67  -2.65316e+67  -9.23141e+67   8.56659e+66  -2.56043e+67  -2.42093e+66
    3.9203e+59   4.46795e+61     5.769e+60   1.02873e+68  2.10344e+135  7.93616e+201   9.20842e+67   1.17399e+67   2.78125e+67   6.33211e+67   8.58148e+66  -2.55569e+67   8.81163e+65
   7.76848e+59   4.30363e+61   5.72002e+60   1.00699e+68  1.95995e+135  6.87503e+201   9.04451e+67   1.12381e+67   2.73474e+67   6.21135e+67  -9.20087e+66  -2.56595e+67   9.95925e+65
  -1.03374e+60   4.31431e+61  -9.21982e+60    -1.398e+68  3.86999e+135 -2.47034e+202   1.25196e+68  -1.54294e+67  -2.81525e+67  -9.62184e+67  -9.21576e+66  -2.57163e+67  -3.39314e+66
  -4.29763e+59   3.10387e+61  -7.68151e+60  -1.37266e+68  3.84619e+135 -2.69115e+202   1.22457e+68  -1.64001e+67   -2.7509e+67  -9.33568e+67   7.94293e+66   2.51027e+67  -3.30668e+66
   3.91086e+59   3.09304e+61   4.73923e+60   1.03811e+68  2.20373e+135  1.02148e+202   9.25899e+67   1.21397e+67    2.8124e+67   6.35467e+67   7.96536e+66     2.515e+67   5.97319e+65
   7.75136e+59   2.93863e+61   4.70794e+60   1.01729e+68   2.0271e+135  6.97209e+201   9.12237e+67   1.16595e+67   2.76998e+67   6.23701e+67  -8.97029e+66   2.58792e+67   7.10551e+65
  -9.26366e+59   2.94961e+61  -7.55513e+60  -1.44289e+68  4.33535e+135  -2.8536e+202   1.28389e+68  -1.80207e+67  -2.90736e+67  -9.71943e+67  -8.99272e+66   2.58226e+67  -4.26593e+66
    3.9203e+59   4.46795e+61     5.769e+60  -5.68416e+65  -1.9701e+135  1.80591e+202   4.43894e+67  -1.21313e+67   -2.7887e+67   3.94499e+67   8.54428e+66  -2.56106e+67   8.81163e+65
   1.27987e+60   4.54012e+61   2.08277e+61   2.34993e+68  7.37909e+135  4.34061e+202   2.18729e+68   1.33467e+67   2.64733e+67   1.95173e+68   8.63256e+66  -2.55822e+67   4.12946e+66
   2.59097e+60   4.37523e+61   2.06647e+61   2.38308e+68  7.79525e+135  5.20871e+202   2.21349e+68   1.41116e+67   2.74557e+67    1.9674e+68  -9.18055e+66  -2.56466e+67   5.30272e+66
   7.76848e+59   4.30363e+61   5.72002e+60   -2.1556e+66 -1.95528e+135   1.8941e+202    4.4271e+67  -1.24976e+67  -2.80358e+67   3.83778e+67  -9.26883e+66  -2.57521e+67   9.95925e+65
   3.91086e+59   3.09304e+61   4.73923e+60   2.53436e+65 -1.93147e+135    1.808e+202   4.39493e+67   -1.1758e+67  -2.76375e+67    3.9649e+67   7.90549e+66   2.51315e+67   5.97319e+65
   1.21505e+60   3.16505e+61   1.71609e+61   2.41254e+68  8.52667e+135  6.96276e+202   2.22883e+68   1.66687e+67    2.7978e+67   1.96607e+68   8.05537e+66   2.51589e+67   4.43481e+66
   2.48285e+60   3.00967e+61   1.69749e+61   2.45044e+68  9.00359e+135  7.05352e+202   2.25927e+68   1.75433e+67    2.9227e+67   1.98273e+68  -8.93992e+66   2.59083e+67   5.59243e+66
   7.75136e+59   2.93863e+61   4.70794e+60  -7.93056e+65 -1.94823e+135  1.72488e+202   4.41459e+67  -1.19995e+67  -2.75046e+67   3.87111e+67  -9.08981e+66   2.58049e+67   7.10551e+65
  -1.03374e+60   4.31431e+61  -9.21982e+60  -1.33902e+68  3.24453e+135 -1.27326e+202   1.21182e+68  -1.22745e+67  -2.67912e+67  -9.48359e+67   9.06115e+66  -2.63255e+67  -3.74294e+66
   7.76848e+59   4.30363e+61   5.72002e+60    1.0166e+68  2.00239e+135  6.01515e+201   9.12821e+67   1.18135e+67   2.75692e+67   6.22776e+67   9.08082e+66  -2.62689e+67   1.85618e+66
   1.15033e+60   4.02205e+61   5.61549e+60   9.89174e+67  1.87002e+135  6.30646e+201   8.89642e+67   1.11805e+67   2.69845e+67   6.07524e+67  -9.58844e+66  -2.55794e+67   2.01374e+66
  -1.63106e+60   4.03286e+61  -9.13219e+60   -1.3788e+68  3.55932e+135 -1.93153e+202   1.24305e+68  -1.31927e+67  -2.76611e+67  -9.70265e+67  -9.60811e+66    -2.569e+67  -4.14849e+66
  -9.26366e+59   2.94961e+61  -7.55513e+60  -1.35528e+68  3.46965e+135 -1.99289e+202   1.22058e+68  -1.32986e+67  -2.70518e+67  -9.51772e+67   8.71093e+66   2.52325e+67  -4.24111e+66
   7.75136e+59   2.93863e+61   4.70794e+60   1.02929e+68  2.15182e+135  9.52157e+201   9.18839e+67   1.23585e+67   2.79767e+67   6.25943e+67   8.77375e+66   2.52877e+67   1.49508e+66
   1.14548e+60   2.66888e+61    4.6252e+60   1.00578e+68  1.95254e+135   5.2706e+201   9.03516e+67   1.18158e+67   2.75909e+67   6.11713e+67  -9.58467e+66   2.62573e+67   1.65054e+66
  -1.51066e+60   2.68027e+61  -7.43322e+60  -1.39098e+68  3.66247e+135 -1.64252e+202   1.25243e+68  -1.41226e+67   -2.7719e+67  -9.72567e+67   -9.6475e+66   2.61488e+67  -4.64126e+66
   7.76848e+59   4.30363e+61   5.72002e+60  -1.19418e+66 -1.97951e+135  1.71486e+202   4.45077e+67  -1.19222e+67   -2.7814e+67   3.85419e+67   9.01285e+66  -2.63615e+67   1.85618e+66
   2.59097e+60   4.37523e+61   2.06647e+61   2.34434e+68  7.07442e+135   3.3491e+202   2.18826e+68   1.21628e+67   2.65618e+67    1.9571e+68   9.14481e+66  -2.62575e+67   7.37179e+66
   3.93585e+60    4.0928e+61     2.037e+61    2.3367e+68   7.0592e+135  3.90897e+202   2.18043e+68   1.19865e+67   2.67105e+67   1.94973e+68  -9.53577e+66  -2.54911e+67   8.07056e+66
   1.15033e+60   4.02205e+61   5.61549e+60  -3.03777e+66 -1.91266e+135  1.86284e+202   4.38394e+67  -1.23476e+67  -2.79144e+67   3.72243e+67  -9.66773e+66  -2.57118e+67   2.01374e+66
   7.75136e+59   2.93863e+61   4.70794e+60   4.07063e+65 -1.90527e+135  1.69611e+202   4.36513e+67  -1.13006e+67  -2.72276e+67   3.89353e+67   8.65424e+66   2.52135e+67   1.49508e+66
   2.48285e+60   3.00967e+61   1.69749e+61   2.38821e+68  7.90623e+135   5.5269e+202   2.21651e+68   1.42931e+67    2.7791e+67   1.96737e+68   8.87953e+66   2.53144e+67   7.12916e+66
   3.80957e+60   2.73845e+61   1.66908e+61   2.38854e+68  7.93041e+135  4.62523e+202   2.21632e+68   1.43007e+67   2.83613e+67   1.96192e+68  -9.51226e+66   2.63348e+67    7.8186e+66
   1.14548e+60   2.66888e+61    4.6252e+60  -6.25216e+65 -1.92305e+135   1.5259e+202   4.38571e+67  -1.15388e+67  -2.69031e+67   3.78167e+67  -9.73756e+66   2.61188e+67   1.65054e+66
  -3.65831e+48   6.17459e+61   -1.0946e+61  -1.35373e+68  3.52047e+135  -1.9177e+202   1.21677e+68  -1.41468e+67  -2.72312e+67  -9.39949e+67   8.86705e+66  -2.59887e+67   -1.8802e+65
  -4.14651e+49   6.16417e+61   6.82721e+60   1.03572e+68  2.10231e+135  7.74949e+201   9.28701e+67   1.16009e+67     2.791e+67   6.40612e+67   8.86726e+66   -2.5959e+67   2.94044e+65
   3.89106e+59   6.10806e+61    6.8086e+60   1.02972e+68  2.06437e+135  7.54723e+201   9.24061e+67   1.14625e+67    2.7772e+67   6.37376e+67  -9.01621e+66  -2.59475e+67   3.40319e+65
  -5.40835e+59   6.11849e+61  -1.09341e+61  -1.37301e+68  3.66291e+135 -2.13396e+202   1.23242e+68  -1.45917e+67  -2.76756e+67  -9.50336e+67  -9.01643e+66  -2.59791e+67  -1.23349e+66
  -1.51351e+47   4.53242e+61  -9.31434e+60  -1.40689e+68  4.09484e+135 -2.85453e+202   1.25294e+68   -1.7069e+67  -2.83985e+67  -9.52218e+67   8.39966e+66   2.54687e+67  -4.28739e+65
  -3.09332e+49   4.52184e+61   5.78305e+60   1.04009e+68  2.16646e+135   9.1175e+201   9.30134e+67   1.17769e+67   2.80704e+67   6.41621e+67   8.40137e+66   2.54985e+67   2.18999e+65
    3.9203e+59   4.46795e+61     5.769e+60    1.0343e+68   2.1159e+135   8.1815e+201   9.26379e+67   1.16431e+67   2.79408e+67   6.38457e+67   -8.6353e+66   2.57301e+67   2.64649e+65
  -4.93877e+59   4.47854e+61  -9.28688e+60  -1.42579e+68  4.22705e+135 -2.91225e+202   1.26893e+68  -1.75052e+67  -2.88304e+67  -9.62437e+67  -8.63702e+66   2.56985e+67  -1.46009e+66
  -4.14651e+49   6.16417e+61   6.82721e+60  -4.75459e+65 -2.03017e+135  1.90973e+202   4.50599e+67  -1.24101e+67  -2.81156e+67   4.00502e+67   8.86726e+66  -2.60252e+67   2.94044e+65
  -7.88607e+49   6.23699e+61   2.46038e+61   2.38507e+68  7.60205e+135  4.63209e+202   2.21999e+68   1.33111e+67   2.70342e+67   1.98162e+68   8.88905e+66  -2.59442e+67   7.70109e+65
   1.32016e+60   6.18074e+61   2.45551e+61   2.39383e+68  7.71447e+135  4.87942e+202   2.22687e+68   1.35132e+67   2.72892e+67    1.9858e+68  -9.01579e+66  -2.59228e+67   1.89259e+66
   3.89106e+59   6.10806e+61    6.8086e+60  -9.05004e+65 -2.02393e+135   1.9394e+202   4.49972e+67  -1.25092e+67  -2.81618e+67    3.9766e+67  -9.03758e+66   -2.6021e+67   3.40319e+65
  -3.09332e+49   4.52184e+61   5.78305e+60   2.94779e+65 -1.98737e+135  1.87175e+202   4.45809e+67  -1.21573e+67  -2.77759e+67   4.02279e+67   8.40137e+66   2.54557e+67   2.18999e+65
  -6.12866e+49   4.59423e+61   2.08827e+61   2.44949e+68  8.79685e+135  7.04624e+202   2.26281e+68    1.6618e+67   2.86828e+67   1.99648e+68   8.43713e+66   2.55367e+67    8.5788e+65
   1.27987e+60   4.54012e+61   2.08277e+61    2.4593e+68  8.91802e+135  7.06285e+202   2.27076e+68   1.68443e+67   2.89972e+67   2.00088e+68  -8.63675e+66   2.57743e+67   1.96519e+66
    3.9203e+59   4.46795e+61     5.769e+60  -1.23017e+64 -1.99357e+135   1.8508e+202   4.46494e+67  -1.22281e+67  -2.77586e+67   3.99745e+67  -8.67251e+66   2.56763e+67   2.64649e+65
  -5.40835e+59   6.11849e+61  -1.09341e+61  -1.34141e+68  3.33144e+135 -1.55126e+202   1.21088e+68  -1.28983e+67  -2.69463e+67  -9.42962e+67   8.97336e+66   -2.6279e+67    -1.487e+66
   3.89106e+59   6.10806e+61    6.8086e+60   1.03492e+68  2.08908e+135  7.19558e+201    9.2852e+67   1.17645e+67    2.7892e+67   6.38355e+67   8.97842e+66  -2.62474e+67   1.00202e+66
   7.72456e+59    5.9381e+61   6.74801e+60   1.01976e+68  2.00008e+135  6.99844e+201   9.16462e+67   1.14147e+67   2.75544e+67    6.3007e+67  -9.38025e+66  -2.60887e+67   1.07477e+66
  -1.11214e+60   5.94855e+61  -1.09068e+61   -1.3902e+68  3.69695e+135 -2.09889e+202   1.25018e+68  -1.40242e+67    -2.806e+67  -9.69355e+67  -9.38531e+66  -2.61324e+67  -2.24202e+66
  -4.93877e+59   4.47854e+61  -9.28688e+60  -1.37848e+68  3.75563e+135 -2.36576e+202   1.23476e+68  -1.49781e+67  -2.77386e+67  -9.51312e+67   8.56799e+66   2.54118e+67  -2.09035e+66
    3.9203e+59   4.46795e+61     5.769e+60   1.04102e+68  2.18307e+135  9.45114e+201   9.30276e+67   1.20232e+67    2.8096e+67   6.39827e+67   8.58289e+66   2.54431e+67   8.06981e+65
   7.76848e+59   4.30363e+61   5.72002e+60   1.02686e+68  2.05125e+135   6.7515e+201   9.21589e+67   1.16966e+67    2.7806e+67   6.31838e+67  -9.19946e+66   2.61631e+67   8.78751e+65
  -1.03374e+60   4.31431e+61  -9.21982e+60  -1.42581e+68  4.07155e+135 -2.43599e+202   1.27506e+68  -1.60704e+67  -2.87941e+67  -9.77164e+67  -9.21436e+66   2.61198e+67  -2.83517e+66
   3.89106e+59   6.10806e+61    6.8086e+60   -3.8515e+65 -2.03619e+135  1.84603e+202   4.51258e+67  -1.22072e+67  -2.80418e+67   3.98638e+67   8.95704e+66   -2.6321e+67   1.00202e+66
   1.32016e+60   6.18074e+61   2.45551e+61   2.37302e+68  7.32696e+135  3.94898e+202   2.21326e+68   1.24446e+67    2.6809e+67   1.98048e+68   9.00891e+66  -2.62232e+67   3.45588e+66
    2.6589e+60   6.01045e+61   2.44078e+61   2.39422e+68  7.60379e+135  4.59816e+202   2.22978e+68   1.29339e+67   2.74243e+67   1.99064e+68  -9.36403e+66  -2.60434e+67   4.34012e+66
   7.72456e+59    5.9381e+61   6.74801e+60  -1.53127e+66 -2.01439e+135  1.93951e+202   4.49081e+67  -1.24716e+67  -2.81803e+67   3.91207e+67   -9.4159e+66  -2.61859e+67   1.07477e+66
    3.9203e+59   4.46795e+61     5.769e+60   6.59985e+65 -1.97371e+135  1.81946e+202   4.44314e+67   -1.1848e+67  -2.76035e+67   4.01115e+67   8.54568e+66   2.53894e+67   8.06981e+65
   1.27987e+60   4.54012e+61   2.08277e+61   2.42579e+68   8.3206e+135  6.14732e+202   2.24776e+68   1.50964e+67   2.82241e+67   1.99259e+68   8.63391e+66   2.54865e+67   3.65735e+66
   2.59097e+60   4.37523e+61   2.06647e+61   2.44974e+68  8.60527e+135  6.04898e+202   2.26731e+68    1.5649e+67    2.8994e+67   2.00331e+68   -9.1792e+66   2.62118e+67   4.52964e+66
   7.76848e+59   4.30363e+61   5.72002e+60  -1.68038e+65 -1.99711e+135  1.74882e+202   4.46894e+67  -1.20391e+67  -2.75772e+67   3.94482e+67  -9.26742e+66   2.60705e+67   8.78751e+65
  -1.11214e+60   5.94855e+61  -1.09068e+61  -1.35204e+68  3.27877e+135 -1.27815e+202    1.2248e+68   -1.2013e+67  -2.71793e+67  -9.60112e+67   9.29048e+66  -2.67549e+67   -2.9155e+66
   7.72456e+59    5.9381e+61   6.74801e+60   1.02642e+68  2.01937e+135  5.73582e+201   9.22821e+67   1.18312e+67   2.77081e+67   6.31026e+67   9.28682e+66  -2.67109e+67   1.94027e+66
    1.1475e+60   5.65003e+61   6.63238e+60   1.01028e+68  1.99723e+135  7.37776e+201   9.06062e+67   1.14588e+67   2.73267e+67   6.22428e+67  -9.59887e+66  -2.51714e+67   2.06898e+66
  -1.71915e+60   5.66046e+61   -1.0838e+61  -1.37469e+68  3.52031e+135 -1.81189e+202   1.24006e+68  -1.25358e+67  -2.77112e+67  -9.72221e+67  -9.59522e+66   -2.5244e+67  -3.26192e+66
  -1.03374e+60   4.31431e+61  -9.21982e+60  -1.36684e+68  3.49833e+135  -1.9011e+202   1.23224e+68  -1.29164e+67  -2.74333e+67  -9.63342e+67   9.06295e+66   2.55105e+67  -3.18508e+66
   7.76848e+59   4.30363e+61   5.72002e+60   1.03648e+68  2.15838e+135  9.27244e+201   9.26528e+67   1.22721e+67   2.80279e+67    6.3348e+67   9.08257e+66   2.55537e+67   1.73916e+66
   1.15033e+60   4.02205e+61   5.61549e+60   1.02242e+68  1.97546e+135  5.03233e+201   9.20758e+67   1.19476e+67   2.77517e+67   6.25426e+67  -9.58669e+66   2.72693e+67   1.86613e+66
  -1.63106e+60   4.03286e+61  -9.13219e+60  -1.38733e+68  3.54957e+135 -1.52721e+202   1.25289e+68  -1.33893e+67  -2.78579e+67  -9.74859e+67  -9.60631e+66   2.71978e+67  -3.52682e+66
   7.72456e+59    5.9381e+61   6.74801e+60  -8.65403e+65 -2.04202e+135  1.77003e+202    4.5197e+67  -1.20551e+67  -2.80266e+67   3.92163e+67   9.25118e+66  -2.68082e+67   1.94027e+66
    2.6589e+60   6.01045e+61   2.44078e+61      2.37e+68  7.14007e+135  3.25991e+202   2.21425e+68   1.17893e+67   2.68654e+67   1.98345e+68   9.32838e+66  -2.66665e+67   6.74574e+66
   4.01613e+60   5.72189e+61   2.41089e+61   2.36563e+68  7.18854e+135  3.89782e+202   2.20847e+68   1.16886e+67   2.69521e+67   1.97923e+68  -9.55993e+66  -2.50814e+67   7.34091e+66
    1.1475e+60   5.65003e+61   6.63238e+60  -1.84026e+66 -1.94554e+135  1.86767e+202   4.41467e+67  -1.22801e+67  -2.80641e+67   3.85039e+67  -9.63713e+66  -2.52905e+67   2.06898e+66
   7.76848e+59   4.30363e+61   5.72002e+60   7.93514e+65 -1.95667e+135  1.75155e+202   4.42414e+67  -1.14636e+67  -2.73553e+67   3.96123e+67    9.0146e+66   2.54611e+67   1.73916e+66
   2.59097e+60   4.37523e+61   2.06647e+61   2.41103e+68  7.93356e+135  5.29475e+202   2.24047e+68   1.37013e+67   2.81007e+67   1.99301e+68   9.14647e+66   2.56009e+67   6.59915e+66
   3.93585e+60    4.0928e+61     2.037e+61   2.41127e+68   7.8845e+135  4.39953e+202   2.24182e+68   1.37068e+67   2.84312e+67   1.98989e+68  -9.53411e+66   2.73433e+67   7.18628e+66
   1.15033e+60   4.02205e+61   5.61549e+60   2.86736e+65 -2.02989e+135  1.62637e+202   4.50552e+67  -1.15805e+67  -2.71472e+67   3.90145e+67  -9.66598e+66   2.71369e+67   1.86613e+66
  -8.26004e+48   8.08627e+61  -1.26204e+61  -1.36612e+68  3.47183e+135   -1.731e+202   1.23252e+68  -1.31323e+67   -2.7554e+67  -9.59262e+67   9.17806e+66  -2.66205e+67  -2.82224e+64
  -5.34647e+49   8.07594e+61   7.88066e+60   1.04422e+68  2.10965e+135  7.37004e+201   9.37784e+67   1.17383e+67   2.80695e+67   6.46147e+67   9.17673e+66  -2.66021e+67    3.4435e+65
   3.85612e+59   8.01868e+61   7.85917e+60   1.04015e+68  2.08682e+135  7.41974e+201   9.34464e+67   1.16442e+67   2.79722e+67   6.43983e+67   -9.2769e+66  -2.65314e+67   3.80154e+65
  -5.73977e+59   8.02899e+61  -1.26186e+61  -1.37885e+68  3.56991e+135 -1.87319e+202   1.24267e+68   -1.3426e+67  -2.78509e+67  -9.66083e+67  -9.27557e+66  -2.65517e+67   -8.1885e+65
  -3.65831e+48   6.17459e+61   -1.0946e+61  -1.40717e+68  3.93875e+135 -2.46076e+202   1.25946e+68  -1.53791e+67  -2.84644e+67  -9.68734e+67   8.86741e+66   2.58383e+67  -1.87835e+65
  -4.14651e+49   6.16417e+61   6.82721e+60   1.04733e+68  2.17763e+135  8.74436e+201   9.37624e+67   1.18688e+67   2.81779e+67   6.46864e+67   8.86762e+66   2.58566e+67     2.941e+65
   3.89106e+59   6.10806e+61    6.8086e+60   1.04343e+68  2.14018e+135   7.9262e+201   9.35267e+67   1.17787e+67   2.80884e+67   6.44757e+67  -9.01585e+66   2.60718e+67   3.29414e+65
  -5.40835e+59   6.11849e+61  -1.09341e+61   -1.4196e+68  4.02207e+135 -2.48917e+202   1.27006e+68   -1.5666e+67  -2.87508e+67  -9.75434e+67  -9.01607e+66   2.60515e+67  -9.67631e+65
  -5.34647e+49   8.07594e+61   7.88066e+60  -3.39887e+65 -2.09279e+135  1.95383e+202   4.57483e+67  -1.24377e+67   -2.8341e+67   4.04388e+67   9.17673e+66  -2.66817e+67    3.4435e+65
  -9.82196e+49   8.14943e+61   2.83858e+61   2.40719e+68  7.53045e+135  4.20257e+202   2.24533e+68   1.24192e+67    2.7288e+67   2.01012e+68   9.19021e+66  -2.65533e+67   7.13361e+65
    1.3458e+60   8.09207e+61   2.83413e+61   2.41272e+68  7.60492e+135   4.3908e+202   2.24961e+68   1.25468e+67   2.74479e+67   2.01278e+68  -9.27496e+66  -2.64768e+67   1.56592e+66
   3.85612e+59   8.01868e+61   7.85917e+60  -6.32346e+65 -2.08538e+135  1.98602e+202   4.56703e+67  -1.25052e+67  -2.83762e+67    4.0249e+67  -9.28843e+66  -2.66153e+67   3.80154e+65
  -4.14651e+49   6.16417e+61   6.82721e+60   6.85644e+65 -2.03234e+135  1.87683e+202   4.50867e+67  -1.21421e+67  -2.78477e+67   4.06754e+67   8.86762e+66   2.57904e+67     2.941e+65
  -7.88607e+49   6.23699e+61   2.46038e+61   2.46108e+68   8.5517e+135  6.19483e+202   2.28073e+68   1.50642e+67   2.87883e+67   2.02256e+68    8.8894e+66   2.59187e+67   7.70038e+65
   1.32016e+60   6.18074e+61   2.45551e+61   2.46722e+68  8.62345e+135  6.15758e+202   2.28579e+68    1.5206e+67    2.8983e+67   2.02533e+68  -9.01545e+66   2.61365e+67   1.61092e+66
   3.89106e+59   6.10806e+61    6.8086e+60   4.65758e+65 -2.03989e+135  1.85333e+202   4.51675e+67  -1.21929e+67  -2.78455e+67   4.05041e+67  -9.03723e+66   2.59982e+67   3.29414e+65
  -5.73977e+59   8.02899e+61  -1.26186e+61  -1.35835e+68  3.34632e+135 -1.48965e+202   1.22901e+68  -1.23223e+67  -2.73777e+67  -9.61347e+67   9.24176e+66  -2.68603e+67  -8.35613e+65
   3.85612e+59   8.01868e+61   7.85917e+60   1.04365e+68  2.09799e+135  6.80647e+201   9.37762e+67    1.1857e+67   2.80529e+67   6.44546e+67   9.24066e+66    -2.684e+67   1.11376e+66
   7.67105e+59   7.84585e+61   7.79181e+60   1.03394e+68  2.05189e+135  7.29268e+201   9.29432e+67   1.16331e+67   2.78263e+67   6.39346e+67  -9.51159e+66  -2.65099e+67   1.17994e+66
   -1.1676e+60   7.85616e+61  -1.26162e+61  -1.38953e+68  3.59391e+135 -1.84757e+202   1.25356e+68   -1.3042e+67     -2.81e+67  -9.78113e+67   -9.5105e+66  -2.65376e+67  -1.42345e+66
  -5.40835e+59   6.11849e+61  -1.09341e+61  -1.38801e+68  3.71175e+135 -2.13644e+202   1.24716e+68  -1.39732e+67  -2.80218e+67  -9.68062e+67   8.97431e+66   2.57517e+67  -1.22082e+66
   3.89106e+59   6.10806e+61    6.8086e+60   1.04863e+68  2.19659e+135  9.20598e+201   9.38062e+67   1.20808e+67   2.82083e+67   6.45736e+67   8.97935e+66   2.57718e+67   9.91221e+65
   7.72456e+59    5.9381e+61   6.74801e+60   1.03954e+68  2.09834e+135  6.79837e+201   9.33169e+67    1.1871e+67   2.80108e+67   6.40719e+67  -9.37931e+66    2.6465e+67    1.0565e+66
  -1.11214e+60   5.94855e+61  -1.09068e+61  -1.41829e+68  3.90166e+135 -2.15555e+202   1.27333e+68  -1.46718e+67  -2.87082e+67  -9.84487e+67  -9.38436e+66   2.64375e+67   -1.8006e+66
   3.85612e+59   8.01868e+61   7.85917e+60  -2.82471e+65  -2.0994e+135  1.89779e+202     4.582e+67  -1.22923e+67  -2.82955e+67   4.03053e+67   9.22913e+66  -2.69239e+67   1.11376e+66
    1.3458e+60   8.09207e+61   2.83413e+61   2.39951e+68  7.35166e+135  3.72988e+202   2.24109e+68   1.18845e+67    2.7143e+67   2.00923e+68   9.25984e+66  -2.67857e+67   3.04266e+66
   2.70274e+60   7.91906e+61   2.82049e+61   2.41307e+68  7.54041e+135  4.24704e+202   2.25141e+68   1.21974e+67   2.75295e+67    2.0158e+68  -9.49866e+66  -2.64427e+67   3.75491e+66
   7.67105e+59   7.84585e+61   7.79181e+60   -1.0052e+66 -2.07389e+135  1.99318e+202   4.55511e+67  -1.24591e+67  -2.83887e+67   3.98425e+67  -9.52937e+66  -2.66065e+67   1.17994e+66
   3.89106e+59   6.10806e+61    6.8086e+60   9.85654e+65 -2.02045e+135  1.84638e+202   4.49602e+67  -1.18908e+67  -2.77255e+67    4.0602e+67   8.95798e+66   2.56983e+67   9.91221e+65
   1.32016e+60   6.18074e+61   2.45551e+61   2.44642e+68  8.25775e+135  5.67569e+202   2.27139e+68    1.4138e+67    2.8503e+67   2.02001e+68   9.00982e+66   2.58361e+67   3.17411e+66
    2.6589e+60   6.01045e+61   2.44078e+61   2.46153e+68  8.42295e+135  5.47589e+202   2.28404e+68   1.44867e+67   2.89777e+67   2.02689e+68  -9.36312e+66   2.65309e+67   3.87661e+66
   7.72456e+59    5.9381e+61   6.74801e+60   4.46495e+65 -2.04885e+135  1.76842e+202   4.52664e+67  -1.20153e+67  -2.77239e+67   4.01856e+67  -9.41496e+66   2.63677e+67    1.0565e+66
   -1.1676e+60   7.85616e+61  -1.26162e+61  -1.36565e+68  3.31893e+135 -1.28904e+202   1.23818e+68  -1.18168e+67  -2.75488e+67   -9.7199e+67   9.44434e+66  -2.71694e+67  -2.35136e+66
   7.67105e+59   7.84585e+61   7.79181e+60   1.03814e+68  2.05174e+135  5.66541e+201    9.3411e+67    1.1916e+67   2.79232e+67   6.39748e+67   9.43086e+66  -2.71413e+67   2.02837e+66
    1.1428e+60   7.55482e+61   7.67133e+60   1.02892e+68  2.10191e+135  8.27818e+201   9.21137e+67   1.17033e+67   2.76781e+67   6.35109e+67   -9.6136e+66  -2.50233e+67   2.14129e+66
  -1.78222e+60   7.56505e+61  -1.25566e+61  -1.37709e+68  3.51306e+135 -1.73765e+202   1.24301e+68  -1.20809e+67  -2.78452e+67  -9.77827e+67  -9.60012e+66  -2.50634e+67  -2.66171e+66
  -1.11214e+60   5.94855e+61  -1.09068e+61  -1.38014e+68   3.5422e+135 -1.85212e+202   1.24522e+68  -1.26615e+67  -2.78279e+67  -9.75248e+67    9.2917e+66   2.58149e+67  -2.47424e+66
   7.72456e+59    5.9381e+61   6.74801e+60    1.0462e+68  2.18397e+135  9.28347e+201   9.36017e+67   1.22875e+67   2.81645e+67   6.41676e+67   9.28801e+66   2.58427e+67   1.92205e+66
    1.1475e+60   5.65003e+61   6.63238e+60   1.03785e+68  2.00728e+135   4.9478e+201   9.36165e+67   1.20949e+67   2.79629e+67   6.37272e+67  -9.59768e+66   2.80615e+67   2.03342e+66
  -1.71915e+60   5.66046e+61   -1.0838e+61  -1.39068e+68   3.4973e+135 -1.46689e+202   1.25868e+68  -1.29047e+67  -2.80802e+67  -9.80833e+67    -9.594e+66    2.8022e+67  -2.78033e+66
   7.67105e+59   7.84585e+61   7.79181e+60  -5.85123e+65 -2.10411e+135  1.83148e+202   4.58743e+67  -1.21761e+67  -2.82917e+67   3.98827e+67   9.41308e+66   -2.7238e+67   2.02837e+66
   2.70274e+60   7.91906e+61   2.82049e+61   2.39794e+68  7.23937e+135  3.23174e+202   2.24191e+68   1.15575e+67   2.71804e+67   2.01056e+68   9.46033e+66  -2.70747e+67   6.38129e+66
   4.06872e+60   7.62773e+61   2.79048e+61   2.39496e+68   7.3246e+135  3.92212e+202   2.23682e+68   1.14888e+67   2.72249e+67   2.00783e+68  -9.58372e+66   -2.4931e+67   6.91443e+66
    1.1428e+60   7.55482e+61   7.67133e+60  -1.03349e+66 -1.98492e+135  1.89826e+202   4.45644e+67  -1.22796e+67   -2.8282e+67    3.9528e+67  -9.63098e+66  -2.51307e+67   2.14129e+66
   7.72456e+59    5.9381e+61   6.74801e+60   1.11225e+66 -2.01013e+135  1.81384e+202   4.48483e+67  -1.15988e+67  -2.75703e+67   4.02813e+67   9.25237e+66   2.57455e+67   1.92205e+66
    2.6589e+60   6.01045e+61   2.44078e+61   2.43732e+68  8.01611e+135  5.19648e+202   2.26692e+68   1.33428e+67    2.8419e+67   2.01971e+68   9.32951e+66   2.59078e+67   6.28249e+66
   4.01613e+60   5.72189e+61   2.41089e+61   2.43685e+68  7.91082e+135  4.29365e+202   2.26874e+68   1.33319e+67   2.85956e+67   2.01758e+68   -9.5588e+66   2.81405e+67   6.80834e+66
    1.1475e+60   5.65003e+61   6.63238e+60   9.16553e+65 -2.12081e+135  1.71678e+202   4.60614e+67  -1.16439e+67  -2.74279e+67   3.99884e+67  -9.63594e+66   2.79423e+67   2.03342e+66
  -1.40271e+49   1.02727e+62  -1.43322e+61  -1.38083e+68  3.46649e+135 -1.62189e+202   1.24901e+68  -1.24668e+67  -2.79105e+67  -9.77055e+67   9.38705e+66  -2.71739e+67   7.29631e+64
  -6.67994e+49   1.02624e+62   8.94524e+60    1.0549e+68  2.13532e+135  7.26112e+201   9.48307e+67    1.1902e+67   2.82987e+67   6.52894e+67   9.38497e+66  -2.71653e+67    3.7546e+65
     3.828e+59   1.02047e+62   8.92214e+60   1.05232e+68  2.12389e+135   7.5029e+201   9.46037e+67   1.18424e+67   2.82341e+67   6.51553e+67  -9.45536e+66  -2.70572e+67   4.25059e+65
  -5.96897e+59   1.02149e+62  -1.43367e+61  -1.38887e+68  3.53257e+135 -1.71151e+202   1.25527e+68  -1.26524e+67   -2.8101e+67  -9.81336e+67  -9.45328e+66  -2.70667e+67  -5.29469e+65
  -8.26004e+48   8.08627e+61  -1.26204e+61   -1.4129e+68  3.85308e+135 -2.20097e+202   1.26924e+68   -1.4211e+67  -2.86334e+67  -9.84456e+67    9.1783e+66    2.6219e+67  -2.80869e+64
  -5.34647e+49   8.07594e+61   7.88066e+60   1.05815e+68  2.21417e+135  8.74156e+201   9.47765e+67   1.20596e+67   2.83908e+67   6.53643e+67   9.17697e+66   2.62275e+67   3.44395e+65
   3.85612e+59   8.01868e+61   7.85917e+60   1.05565e+68  2.18635e+135  7.98671e+201   9.46451e+67   1.20021e+67     2.833e+67   6.52333e+67  -9.27666e+66   2.64282e+67   3.93305e+65
  -5.73977e+59   8.02899e+61  -1.26186e+61  -1.42078e+68  3.90255e+135 -2.21404e+202   1.27607e+68  -1.43928e+67  -2.88184e+67  -9.88665e+67  -9.27533e+66   2.64187e+67  -6.22151e+65
  -6.67994e+49   1.02624e+62   8.94524e+60  -2.44658e+65 -2.15493e+135  2.01268e+202   4.64218e+67  -1.24983e+67  -2.86355e+67   4.08891e+67   9.38497e+66  -2.72522e+67    3.7546e+65
  -1.19188e+50   1.03367e+62   3.22272e+61   2.43342e+68  7.54625e+135  3.96486e+202   2.27308e+68   1.18632e+67   2.75768e+67   2.03902e+68   9.39365e+66   -2.7094e+67   6.76099e+65
   1.36282e+60   1.02789e+62   3.21856e+61   2.43699e+68  7.59783e+135  4.11927e+202   2.27577e+68   1.19456e+67   2.76796e+67   2.04073e+68  -9.45284e+66  -2.69823e+67   1.37244e+66
     3.828e+59   1.02047e+62   8.92214e+60  -4.20311e+65 -2.14697e+135  2.04639e+202   4.63373e+67  -1.25388e+67  -2.86555e+67    4.0774e+67  -9.46152e+66  -2.71462e+67   4.25059e+65
  -5.34647e+49   8.07594e+61   7.88066e+60   1.05237e+66  -2.0817e+135  1.89673e+202   4.56377e+67  -1.21163e+67  -2.80197e+67   4.11884e+67   9.17697e+66    2.6148e+67   3.44395e+65
  -9.82196e+49   8.14943e+61   2.83858e+61   2.48142e+68   8.4754e+135  5.72535e+202   2.30432e+68   1.41315e+67   2.90009e+67   2.05009e+68   9.19043e+66   2.63062e+67   7.13316e+65
    1.3458e+60   8.09207e+61   2.83413e+61   2.48533e+68  8.51744e+135  5.65971e+202   2.30762e+68   1.42218e+67   2.91235e+67   2.05188e+68  -9.27474e+66   2.65082e+67   1.39998e+66
   3.85612e+59   8.01868e+61   7.85917e+60   9.18357e+65 -2.09027e+135  1.86808e+202   4.57287e+67  -1.21472e+67  -2.80184e+67    4.1084e+67   -9.2882e+66   2.63444e+67   3.93305e+65
  -5.96897e+59   1.02149e+62  -1.43367e+61  -1.37584e+68  3.38214e+135 -1.46371e+202   1.24688e+68  -1.19465e+67  -2.78003e+67  -9.78371e+67   9.42239e+66  -2.73813e+67  -4.04542e+65
     3.828e+59   1.02047e+62   8.92214e+60   1.05447e+68  2.12424e+135  6.67295e+201   9.48414e+67   1.19843e+67   2.82839e+67   6.51791e+67   9.41867e+66  -2.73717e+67   1.19987e+66
   7.62768e+59   1.00308e+62    8.8513e+60   1.04858e+68  2.10853e+135  7.66464e+201   9.42691e+67   1.18483e+67    2.8139e+67   6.48706e+67  -9.60664e+66  -2.69252e+67   1.27346e+66
  -1.20625e+60    1.0041e+62  -1.43492e+61   -1.3949e+68  3.54823e+135 -1.69145e+202   1.26131e+68  -1.23863e+67  -2.82489e+67  -9.88545e+67  -9.60292e+66  -2.69379e+67  -8.71956e+65
  -5.73977e+59   8.02899e+61  -1.26186e+61  -1.40028e+68  3.70573e+135 -1.98963e+202   1.26104e+68  -1.32896e+67  -2.83454e+67  -9.83932e+67   9.24238e+66   2.61101e+67  -6.38695e+65
   3.85612e+59   8.01868e+61   7.85917e+60   1.05915e+68  2.23056e+135  9.25648e+201   9.48022e+67   1.22149e+67   2.84107e+67   6.52895e+67   9.24128e+66   2.61196e+67   1.12698e+66
   7.67105e+59   7.84585e+61   7.79181e+60   1.05354e+68  2.15519e+135  7.00348e+201   9.45738e+67   1.20853e+67   2.82785e+67   6.49898e+67  -9.51097e+66   2.67939e+67   1.19954e+66
   -1.1676e+60   7.85616e+61  -1.26162e+61  -1.41888e+68  3.80965e+135 -1.98152e+202   1.27759e+68  -1.37187e+67  -2.87772e+67  -9.93918e+67  -9.50987e+66   2.67813e+67  -1.09962e+66
     3.828e+59   1.02047e+62   8.92214e+60  -2.04879e+65 -2.16233e+135  1.96228e+202   4.65013e+67   -1.2397e+67  -2.86058e+67   4.07979e+67   9.41252e+66  -2.74608e+67   1.19987e+66
   1.36282e+60   1.02789e+62   3.21856e+61   2.42844e+68  7.42756e+135  3.62264e+202   2.27037e+68    1.1533e+67   2.74825e+67   2.03829e+68   9.43165e+66   -2.7297e+67   2.79387e+66
   2.73225e+60   1.01049e+62   3.20567e+61   2.43703e+68  7.56001e+135  4.06031e+202   2.27665e+68   1.17312e+67   2.77259e+67   2.04246e+68   -9.5966e+66  -2.68426e+67   3.40519e+66
   7.62768e+59   1.00308e+62    8.8513e+60  -6.18552e+65 -2.13394e+135  2.05904e+202   4.61987e+67  -1.24924e+67   -2.8656e+67   4.05299e+67  -9.61573e+66  -2.70202e+67   1.27346e+66
   3.85612e+59   8.01868e+61   7.85917e+60   1.26815e+66 -2.07124e+135  1.88792e+202   4.55286e+67  -1.19344e+67  -2.79376e+67   4.11402e+67   9.22975e+66   2.60357e+67   1.12698e+66
    1.3458e+60   8.09207e+61   2.83413e+61   2.47213e+68  8.29093e+135   5.4329e+202   2.29833e+68   1.35599e+67   2.88188e+67   2.04834e+68   9.26043e+66   2.61993e+67   2.87665e+66
   2.70274e+60   7.91906e+61   2.82049e+61   2.48154e+68   8.3797e+135  5.17244e+202   2.30652e+68   1.37771e+67   2.91095e+67   2.05267e+68  -9.49806e+66   2.68744e+67   3.47948e+66
   7.67105e+59   7.84585e+61   7.79181e+60   9.54479e+65 -2.10313e+135  1.79924e+202   4.58699e+67  -1.20068e+67  -2.79364e+67   4.08977e+67  -9.52875e+66   2.66972e+67   1.19954e+66
  -1.20625e+60    1.0041e+62  -1.43492e+61  -1.38038e+68  3.36812e+135 -1.30726e+202   1.25246e+68  -1.16791e+67   -2.7914e+67  -9.84454e+67   9.55122e+66  -2.75764e+67  -1.99082e+66
   7.62768e+59   1.00308e+62    8.8513e+60   1.05109e+68   2.0946e+135  5.74562e+201   9.46219e+67    1.2039e+67    2.8197e+67    6.4873e+67   9.53569e+66  -2.75633e+67   2.10433e+66
   1.13865e+60    9.7391e+61    8.7292e+60   1.04573e+68  2.19047e+135  9.04397e+201   9.35147e+67   1.19152e+67   2.80364e+67   6.46211e+67  -9.63102e+66  -2.50535e+67   2.20984e+66
  -1.82703e+60   9.74925e+61  -1.42931e+61  -1.38508e+68  3.53594e+135  -1.7054e+202   1.25094e+68  -1.17873e+67   -2.8059e+67  -9.86613e+67  -9.61549e+66   -2.5069e+67  -2.27749e+66
   -1.1676e+60   7.85616e+61  -1.26162e+61    -1.395e+68  3.59789e+135 -1.83658e+202   1.25946e+68  -1.24942e+67  -2.82262e+67  -9.87797e+67   9.44515e+66   2.61494e+67  -2.02768e+66
   7.67105e+59   7.84585e+61   7.79181e+60   1.05774e+68  2.22289e+135  9.46364e+201   9.46846e+67   1.23682e+67   2.83754e+67     6.503e+67   9.43165e+66   2.61624e+67   2.04798e+66
    1.1428e+60   7.55482e+61   7.67133e+60   1.05257e+68  2.04569e+135  4.98592e+201   9.50444e+67   1.22491e+67   2.82239e+67   6.47844e+67  -9.61281e+66   2.87229e+67   2.15203e+66
  -1.78222e+60   7.56505e+61  -1.25566e+61   -1.3995e+68  3.49037e+135 -1.44415e+202   1.26869e+68   -1.2598e+67  -2.83625e+67  -9.89897e+67  -9.59931e+66   2.87075e+67  -2.31037e+66
   7.62768e+59   1.00308e+62    8.8513e+60  -3.67592e+65 -2.16613e+135  1.90093e+202   4.65431e+67  -1.23018e+67  -2.85981e+67   4.05323e+67    9.5266e+66  -2.76583e+67   2.10433e+66
   2.73225e+60   1.01049e+62   3.20567e+61   2.42774e+68  7.36439e+135  3.24711e+202     2.271e+68   1.14159e+67   2.75114e+67   2.03846e+68   9.55874e+66  -2.74811e+67   6.18708e+66
   4.10478e+60   9.81303e+61   3.17566e+61   2.42496e+68  7.46836e+135  3.97299e+202   2.26574e+68   1.13518e+67   2.75233e+67   2.03621e+68  -9.60732e+66  -2.49575e+67   6.68453e+66
   1.13865e+60    9.7391e+61    8.7292e+60  -5.37281e+65 -2.02901e+135  1.94956e+202   4.50477e+67  -1.23409e+67  -2.85613e+67   4.03649e+67  -9.63946e+66  -2.51528e+67   2.20984e+66
   7.67105e+59   7.84585e+61   7.79181e+60   1.37438e+66 -2.06549e+135   1.8821e+202   4.54685e+67  -1.17239e+67  -2.78395e+67   4.09378e+67   9.41387e+66   2.60658e+67   2.04798e+66
   2.70274e+60   7.91906e+61   2.82049e+61   2.46641e+68  8.14075e+135  5.19464e+202   2.29546e+68   1.31376e+67   2.87606e+67   2.04743e+68   9.46109e+66   2.62425e+67     6.106e+66
   4.06872e+60   7.62773e+61   2.79048e+61   2.46492e+68  7.99183e+135  4.27387e+202    2.2971e+68   1.31031e+67   2.88393e+67    2.0455e+68  -9.58296e+66   2.88101e+67   6.59654e+66
    1.1428e+60   7.55482e+61   7.67133e+60   1.33156e+66 -2.20121e+135  1.80455e+202   4.69359e+67  -1.17338e+67  -2.77362e+67   4.08015e+67  -9.63018e+66   2.86155e+67   2.15203e+66
  -2.09007e+49   1.27388e+62  -1.60777e+61   -1.3969e+68  3.49015e+135 -1.56563e+202   1.26583e+68  -1.20399e+67  -2.82821e+67   -9.9368e+67   9.53029e+66   -2.7681e+67   1.35053e+65
  -8.15331e+49   1.27285e+62   1.00227e+61   1.06723e+68  2.17381e+135  7.33577e+201       9.6e+67   1.20709e+67   2.85824e+67   6.60697e+67   9.52811e+66  -2.76806e+67   3.93946e+65
    3.8092e+59   1.26707e+62   9.99882e+60   1.06565e+68  2.17013e+135  7.71493e+201    9.5843e+67   1.20343e+67   2.85408e+67   6.59895e+67  -9.57952e+66  -2.75479e+67   4.62435e+65
  -6.12677e+59    1.2681e+62  -1.60859e+61  -1.40183e+68  3.53485e+135 -1.62021e+202   1.26951e+68  -1.21538e+67  -2.84011e+67  -9.96286e+67  -9.57734e+66  -2.75484e+67  -3.36708e+65
  -1.40271e+49   1.02727e+62  -1.43322e+61  -1.42279e+68  3.82189e+135  -2.0429e+202   1.28146e+68  -1.34347e+67  -2.88788e+67  -9.99655e+67    9.3872e+66   2.66056e+67   7.30547e+64
  -6.67994e+49   1.02624e+62   8.94524e+60   1.07102e+68  2.26458e+135  8.94871e+201   9.59489e+67    1.2274e+67   2.86706e+67   6.61571e+67   9.38512e+66    2.6606e+67    3.7549e+65
     3.828e+59   1.02047e+62   8.92214e+60   1.06946e+68  2.24316e+135  8.22643e+201   9.58866e+67    1.2238e+67   2.86297e+67    6.6078e+67  -9.45521e+66   2.67969e+67   4.43015e+65
  -5.96897e+59   1.02149e+62  -1.43367e+61  -1.42765e+68  3.84898e+135 -2.04814e+202    1.2858e+68  -1.35469e+67  -2.89959e+67  -1.00222e+68  -9.45313e+66   2.67964e+67  -3.92061e+65
  -8.15331e+49   1.27285e+62   1.00227e+61  -1.63131e+65 -2.21832e+135  2.08596e+202   4.70993e+67  -1.25952e+67  -2.89717e+67   4.14037e+67   9.52811e+66  -2.77716e+67   3.93946e+65
  -1.41767e+50   1.28038e+62   3.61278e+61   2.46256e+68  7.61936e+135  3.84951e+202   2.30267e+68   1.15109e+67   2.78944e+67   2.06851e+68   9.53418e+66  -2.75941e+67    6.5203e+65
    1.3747e+60   1.27459e+62   3.60883e+61   2.46487e+68  7.65639e+135  3.98374e+202   2.30433e+68   1.15642e+67   2.79618e+67   2.06961e+68  -9.57707e+66  -2.74592e+67   1.25828e+66
    3.8092e+59   1.26707e+62   9.99882e+60  -2.59132e+65 -2.20989e+135  2.12089e+202   4.70102e+67  -1.26173e+67  -2.89797e+67   4.13379e+67  -9.58314e+66  -2.76398e+67   4.62435e+65
  -6.67994e+49   1.02624e+62   8.94524e+60   1.36688e+66  -2.1353e+135  1.93524e+202   4.62296e+67  -1.21263e+67  -2.82636e+67   4.17568e+67   9.38512e+66   2.65191e+67    3.7549e+65
  -1.19188e+50   1.03367e+62   3.22272e+61    2.5074e+68  8.50482e+135  5.49222e+202   2.33165e+68   1.35703e+67   2.92841e+67   2.07886e+68   9.39379e+66   2.66966e+67   6.76069e+65
   1.36282e+60   1.02789e+62   3.21856e+61   2.50989e+68  8.52804e+135  5.40955e+202   2.33383e+68   1.36278e+67   2.93621e+67   2.07999e+68  -9.45269e+66   2.68884e+67   1.27378e+66
     3.828e+59   1.02047e+62   8.92214e+60   1.29358e+66 -2.14454e+135  1.90199e+202   4.63272e+67  -1.21432e+67    -2.826e+67   4.16968e+67  -9.46136e+66   2.67079e+67   4.43015e+65
  -6.12677e+59    1.2681e+62  -1.60859e+61  -1.39365e+68   3.4323e+135 -1.46182e+202   1.26453e+68  -1.17064e+67  -2.82123e+67  -9.94468e+67   9.54717e+66  -2.78671e+67  -1.30726e+65
    3.8092e+59   1.26707e+62   9.99882e+60   1.06691e+68  2.16311e+135  6.72293e+201   9.60199e+67   1.21289e+67   2.85699e+67    6.5992e+67   9.54312e+66  -2.78666e+67   1.26099e+66
   7.59855e+59   1.24969e+62   9.92643e+60   1.06338e+68  2.16734e+135  8.07286e+201   9.56051e+67   1.20474e+67   2.84789e+67   6.58112e+67  -9.67702e+66  -2.73385e+67   1.34524e+66
  -1.23319e+60   1.25071e+62  -1.61067e+61  -1.40486e+68  3.54566e+135 -1.60522e+202   1.27242e+68  -1.19649e+67  -2.84803e+67  -1.00041e+68  -9.67297e+66  -2.73394e+67  -5.15867e+65
  -5.96897e+59   1.02149e+62  -1.43367e+61  -1.41463e+68  3.72893e+135 -1.90747e+202   1.27604e+68  -1.28413e+67  -2.86954e+67   -9.9926e+67    9.4228e+66   2.64818e+67  -2.66993e+65
     3.828e+59   1.02047e+62   8.92214e+60   1.07161e+68  2.27762e+135  9.48755e+201   9.59472e+67   1.23798e+67   2.86793e+67   6.61019e+67   9.41908e+66   2.64823e+67   1.21787e+66
   7.62768e+59   1.00308e+62    8.8513e+60   1.06814e+68  2.21626e+135  7.30637e+201   9.58804e+67   1.22998e+67   2.85905e+67    6.5924e+67  -9.60624e+66   2.71492e+67   1.30092e+66
  -1.20625e+60    1.0041e+62  -1.43492e+61  -1.42566e+68  3.77654e+135 -1.88485e+202   1.28641e+68  -1.30959e+67  -2.89588e+67  -1.00511e+68  -9.60251e+66   2.71483e+67   -6.4671e+65
    3.8092e+59   1.26707e+62   9.99882e+60  -1.32871e+65 -2.22625e+135  2.03875e+202   4.71833e+67  -1.25227e+67  -2.89505e+67   4.13404e+67    9.5395e+66  -2.79585e+67   1.26099e+66
    1.3747e+60   1.27459e+62   3.60883e+61   2.45931e+68   7.5394e+135  3.59013e+202   2.30092e+68   1.13108e+67   2.78333e+67   2.06786e+68   9.55273e+66   -2.7778e+67   2.64833e+66
   2.75319e+60    1.2572e+62   3.59645e+61   2.46451e+68  7.63417e+135  3.97846e+202   2.30443e+68   1.14308e+67   2.79842e+67   2.07036e+68  -9.66945e+66  -2.72451e+67   3.20109e+66
   7.59855e+59   1.24969e+62   9.92643e+60  -3.55254e+65 -2.19506e+135  2.13725e+202   4.68528e+67   -1.2574e+67   -2.8971e+67   4.11898e+67  -9.68268e+66  -2.74325e+67   1.34524e+66
     3.828e+59   1.02047e+62   8.92214e+60    1.5089e+66 -2.12579e+135  1.94358e+202   4.61309e+67  -1.20014e+67  -2.82103e+67   4.17206e+67   9.41292e+66   2.63933e+67   1.21787e+66
   1.36282e+60   1.02789e+62   3.21856e+61   2.50135e+68  8.38779e+135  5.33989e+202   2.32766e+68   1.32154e+67   2.91651e+67   2.07755e+68   9.43204e+66   2.65737e+67   2.69516e+66
   2.73225e+60   1.01049e+62   3.20567e+61   2.50697e+68  8.42577e+135  5.03835e+202   2.33287e+68   1.33449e+67   2.93398e+67   2.08012e+68  -9.59621e+66   2.72414e+67   3.24014e+66
   7.62768e+59   1.00308e+62    8.8513e+60   1.33781e+66    -2.16e+135  1.84615e+202   4.64951e+67  -1.20409e+67  -2.82045e+67   4.15833e+67  -9.61532e+66   2.70542e+67   1.30092e+66
  -1.23319e+60   1.25071e+62  -1.61067e+61  -1.39631e+68  3.42639e+135 -1.33271e+202   1.26769e+68  -1.15883e+67   -2.8283e+67  -9.97596e+67    9.6289e+66  -2.79828e+67  -1.77549e+66
   7.59855e+59   1.24969e+62   9.92643e+60   1.06487e+68  2.14469e+135  5.93381e+201   9.58893e+67   1.21826e+67   2.85134e+67   6.57908e+67   9.61495e+66  -2.79815e+67   2.16562e+66
   1.13574e+60    1.2206e+62   9.80418e+60   1.06143e+68  2.26885e+135  9.71838e+201   9.48552e+67   1.21033e+67   2.84015e+67   6.56383e+67   -9.6508e+66  -2.52048e+67   2.26877e+66
  -1.85913e+60   1.22162e+62  -1.60513e+61   -1.3972e+68  3.58215e+135  -1.7056e+202   1.26252e+68  -1.16089e+67  -2.83361e+67   -9.9775e+67  -9.63685e+66  -2.52042e+67   -2.0466e+66
  -1.20625e+60    1.0041e+62  -1.43492e+61  -1.41116e+68  3.66302e+135 -1.84643e+202   1.27478e+68  -1.23891e+67  -2.86241e+67  -1.00102e+68   9.55176e+66   2.65098e+67  -1.76569e+66
   7.62768e+59   1.00308e+62    8.8513e+60   1.07065e+68  2.27164e+135  9.76407e+201   9.58713e+67   1.24904e+67   2.86484e+67   6.59264e+67   9.53621e+66   2.65111e+67   2.13177e+66
   1.13865e+60    9.7391e+61    8.7292e+60   1.06711e+68  2.09004e+135  5.12396e+201   9.64219e+67   1.24087e+67   2.85299e+67   6.57724e+67   -9.6305e+66   2.93065e+67   2.23347e+66
  -1.82703e+60   9.74925e+61  -1.42931e+61  -1.41219e+68  3.51531e+135 -1.44674e+202   1.28169e+68  -1.24129e+67  -2.86846e+67  -1.00121e+68  -9.61495e+66   2.93071e+67  -2.03298e+66
   7.59855e+59   1.24969e+62   9.92643e+60  -2.05946e+65 -2.22873e+135  1.97888e+202   4.72099e+67  -1.24388e+67  -2.89366e+67   4.11694e+67   9.60929e+66  -2.80756e+67   2.16562e+66
   2.75319e+60    1.2572e+62   3.59645e+61   2.45905e+68  7.50877e+135  3.29316e+202   2.30132e+68   1.13304e+67   2.78583e+67   2.06716e+68    9.6346e+66  -2.78886e+67   6.10233e+66
    4.1309e+60    1.2281e+62   3.56646e+61   2.45584e+68  7.62048e+135  4.04424e+202   2.29545e+68   1.12562e+67   2.78431e+67   2.06484e+68  -9.63123e+66  -2.51049e+67   6.58047e+66
   1.13574e+60    1.2206e+62   9.80418e+60  -2.52141e+65 -2.07722e+135   2.0171e+202   4.55773e+67  -1.24495e+67  -2.88882e+67   4.10855e+67  -9.65654e+66     -2.53e+67   2.26877e+66
   7.62768e+59   1.00308e+62    8.8513e+60   1.58861e+66 -2.12287e+135  1.95664e+202    4.6102e+67  -1.18503e+67  -2.81467e+67   4.15856e+67   9.52712e+66   2.64161e+67   2.13177e+66
   2.73225e+60   1.01049e+62   3.20567e+61   2.49767e+68  8.29606e+135  5.26022e+202   2.32568e+68   1.30298e+67   2.91253e+67   2.07612e+68   9.55924e+66   2.66029e+67   6.02211e+66
   4.10478e+60   9.81303e+61   3.17566e+61   2.49508e+68  8.11281e+135  4.31386e+202   2.32683e+68     1.297e+67   2.91415e+67   2.07397e+68  -9.60681e+66   2.94019e+67   6.49352e+66
   1.13865e+60    9.7391e+61    8.7292e+60    1.6009e+66 -2.27555e+135  1.89374e+202   4.77296e+67  -1.18475e+67  -2.80679e+67   4.15163e+67  -9.63893e+66   2.92071e+67   2.23347e+66
  -2.88665e+49   1.54892e+62  -1.78543e+61  -1.41397e+68  3.53398e+135 -1.54585e+202   1.28293e+68  -1.17727e+67  -2.86633e+67  -1.00961e+68   9.63146e+66  -2.81626e+67   1.72426e+65
  -9.76227e+49   1.54789e+62   1.11145e+61    1.0808e+68  2.22153e+135  7.53874e+201   9.72615e+67   1.22389e+67   2.89084e+67    6.6933e+67   9.62954e+66   -2.8169e+67   4.05162e+65
   3.79821e+59   1.54213e+62   1.10903e+61   1.07981e+68  2.22272e+135  8.01264e+201   9.71451e+67    1.2216e+67   2.88811e+67   6.68839e+67  -9.66863e+66  -2.80196e+67   4.89898e+65
  -6.23683e+59   1.54316e+62  -1.78646e+61  -1.41694e+68  3.56514e+135 -1.57806e+202     1.285e+68  -1.18413e+67  -2.87363e+67  -1.01117e+68  -9.66671e+66   -2.8013e+67  -2.13047e+65
  -2.09007e+49   1.27388e+62  -1.60777e+61  -1.43586e+68  3.83155e+135 -1.95929e+202   1.29559e+68  -1.29387e+67  -2.91812e+67  -1.01466e+68   9.53039e+66   2.69986e+67   1.35111e+65
  -8.15331e+49   1.27285e+62   1.00227e+61   1.08511e+68  2.32285e+135  9.28032e+201   9.72202e+67   1.24835e+67    2.8995e+67   6.70324e+67   9.52821e+66   2.69922e+67   3.93963e+65
    3.8092e+59   1.26707e+62   9.99882e+60   1.08411e+68  2.30526e+135  8.57141e+201   9.71988e+67   1.24604e+67   2.89668e+67   6.69835e+67  -9.57942e+66   2.71776e+67   4.77488e+65
  -6.12677e+59    1.2681e+62  -1.60859e+61  -1.43882e+68  3.84435e+135 -1.96054e+202   1.29837e+68  -1.30069e+67  -2.92545e+67   -1.0162e+68  -9.57724e+66   2.71842e+67  -2.44854e+65
  -9.76227e+49   1.54789e+62   1.11145e+61  -8.83376e+64 -2.28369e+135  2.17209e+202   4.77881e+67  -1.27231e+67  -2.93362e+67    4.1971e+67   9.62954e+66  -2.82626e+67   4.05162e+65
  -1.65964e+50   1.55551e+62   4.00881e+61   2.49391e+68  7.73156e+135  3.81414e+202   2.33376e+68   1.12844e+67    2.8236e+67   2.09871e+68   9.63428e+66  -2.80717e+67   6.37659e+65
   1.38347e+60   1.54975e+62     4.005e+61   2.49536e+68   7.7587e+135  3.93567e+202   2.33472e+68   1.13177e+67   2.82802e+67   2.09938e+68  -9.66658e+66  -2.79211e+67   1.19171e+66
   3.79821e+59   1.54213e+62   1.10903e+61   -1.3784e+65 -2.27475e+135  2.20821e+202   4.76945e+67  -1.27345e+67  -2.93368e+67   4.19334e+67  -9.67132e+66  -2.81136e+67   4.89898e+65
  -8.15331e+49   1.27285e+62   1.00227e+61   1.62475e+66 -2.19277e+135  1.99164e+202   4.68552e+67  -1.21825e+67  -2.85591e+67   4.23663e+67   9.52821e+66   2.69012e+67   3.93963e+65
  -1.41767e+50   1.28038e+62   3.61278e+61   2.53719e+68  8.60226e+135  5.40856e+202   2.36159e+68   1.32329e+67   2.96166e+67    2.1087e+68   9.53427e+66   2.70922e+67   6.52007e+65
    1.3747e+60   1.27459e+62   3.60883e+61   2.53872e+68  8.61285e+135  5.31405e+202   2.36301e+68   1.32683e+67   2.96661e+67   2.10938e+68  -9.57698e+66   2.72781e+67   1.19814e+66
    3.8092e+59   1.26707e+62   9.99882e+60     1.587e+66  -2.2024e+135  1.95509e+202   4.69565e+67  -1.21912e+67  -2.85536e+67   4.23319e+67  -9.58304e+66   2.70857e+67   4.77488e+65
  -6.23683e+59   1.54316e+62  -1.78646e+61  -1.41182e+68  3.49296e+135 -1.47686e+202   1.28216e+68  -1.15569e+67   -2.8618e+67  -1.01007e+68   9.63648e+66  -2.83347e+67   3.69223e+64
   3.79821e+59   1.54213e+62   1.10903e+61   1.08056e+68  2.21121e+135  6.90493e+201   9.72872e+67   1.22833e+67   2.88983e+67    6.6874e+67    9.6332e+66  -2.83413e+67   1.30355e+66
   7.58147e+59   1.52483e+62   1.10174e+61   1.07833e+68  2.22781e+135  8.50477e+201   9.69541e+67   1.22319e+67   2.88393e+67   6.67616e+67  -9.73158e+66  -2.77538e+67   1.39726e+66
  -1.25233e+60   1.52586e+62  -1.78899e+61  -1.41816e+68  3.57396e+135 -1.56802e+202     1.286e+68  -1.17033e+67   -2.8772e+67  -1.01341e+68   -9.7283e+66  -2.77462e+67  -2.94641e+65
  -6.12677e+59    1.2681e+62  -1.60859e+61  -1.43064e+68  3.77457e+135 -1.87392e+202     1.292e+68  -1.25597e+67  -2.90658e+67  -1.01438e+68   9.54744e+66   2.68655e+67   -3.8784e+64
    3.8092e+59   1.26707e+62   9.99882e+60   1.08537e+68  2.33327e+135  9.83479e+201   9.71956e+67    1.2555e+67   2.89959e+67    6.6986e+67   9.54339e+66   2.68589e+67   1.27607e+66
   7.59855e+59   1.24969e+62   9.92643e+60   1.08311e+68  2.27952e+135  7.67263e+201   9.72198e+67   1.25028e+67   2.89343e+67   6.68736e+67  -9.67676e+66   2.75277e+67   1.36844e+66
  -1.23319e+60   1.25071e+62  -1.61067e+61  -1.43696e+68  3.78623e+135 -1.84304e+202   1.29855e+68  -1.27055e+67  -2.92211e+67  -1.01769e+68   -9.6727e+66   2.75352e+67   -3.6561e+65
   3.79821e+59   1.54213e+62   1.10903e+61  -6.32991e+64 -2.29185e+135  2.12602e+202   4.78733e+67  -1.26672e+67  -2.93196e+67   4.19235e+67   9.63051e+66  -2.84352e+67   1.30355e+66
   1.38347e+60   1.54975e+62     4.005e+61   2.49175e+68  7.67712e+135  3.60813e+202   2.33262e+68   1.11693e+67   2.81969e+67   2.09809e+68   9.64102e+66  -2.82429e+67   2.56901e+66
   2.76887e+60   1.53245e+62   3.99295e+61   2.49455e+68  7.74552e+135  3.96514e+202   2.33414e+68   1.12339e+67   2.82857e+67   2.09935e+68  -9.72595e+66  -2.76525e+67   3.08818e+66
   7.58147e+59   1.52483e+62   1.10174e+61  -1.83074e+65 -2.25783e+135  2.22673e+202   4.75169e+67  -1.26949e+67   -2.9323e+67   4.18349e+67  -9.73646e+66   -2.7848e+67   1.39726e+66
    3.8092e+59   1.26707e+62   9.99882e+60   1.71317e+66 -2.18373e+135  2.01198e+202   4.67617e+67  -1.20966e+67  -2.85245e+67   4.23343e+67   9.53977e+66    2.6767e+67   1.27607e+66
    1.3747e+60   1.27459e+62   3.60883e+61   2.53316e+68  8.52822e+135  5.34661e+202   2.35883e+68    1.3015e+67   2.95377e+67   2.10763e+68   9.55299e+66   2.69593e+67   2.58815e+66
   2.75319e+60    1.2572e+62   3.59645e+61   2.53615e+68  8.53096e+135   5.0133e+202   2.36198e+68   1.30839e+67   2.96374e+67   2.10893e+68   -9.6692e+66   2.76291e+67    3.0999e+66
   7.59855e+59   1.24969e+62   9.92643e+60   1.61792e+66 -2.21954e+135  1.90869e+202   4.71398e+67  -1.21186e+67  -2.85157e+67   4.22522e+67  -9.68242e+66   2.74336e+67   1.36844e+66
  -1.25233e+60   1.52586e+62  -1.78899e+61   -1.4133e+68  3.49271e+135 -1.36461e+202   1.28381e+68  -1.15327e+67  -2.86599e+67  -1.01138e+68   9.68848e+66  -2.83935e+67  -1.65875e+66
   7.58147e+59   1.52483e+62   1.10174e+61   1.07928e+68  2.20013e+135  6.20136e+201    9.7203e+67    1.2338e+67   2.88614e+67    6.6729e+67   9.67727e+66  -2.84008e+67   2.21517e+66
   1.13396e+60   1.49592e+62   1.08954e+61   1.07667e+68   2.3419e+135  1.03426e+202   9.61785e+67   1.22777e+67   2.87753e+67   6.66141e+67  -9.67273e+66  -2.54394e+67   2.31861e+66
  -1.88271e+60   1.49695e+62  -1.78338e+61  -1.41217e+68  3.64495e+135 -1.72886e+202   1.27661e+68  -1.15066e+67  -2.86596e+67  -1.01051e+68  -9.66152e+66  -2.54289e+67  -1.91998e+66
  -1.23319e+60   1.25071e+62  -1.61067e+61  -1.42841e+68  3.73617e+135 -1.87555e+202   1.29103e+68  -1.23292e+67  -2.90239e+67  -1.01488e+68   9.62924e+66   2.68918e+67  -1.62532e+66
   7.59855e+59   1.24969e+62   9.92643e+60    1.0846e+68  2.32762e+135  1.01528e+202   9.71387e+67   1.26379e+67   2.89687e+67   6.68532e+67   9.61529e+66   2.68846e+67   2.18881e+66
   1.13574e+60    1.2206e+62   9.80418e+60   1.08179e+68  2.13971e+135  5.33987e+201   9.77907e+67   1.25731e+67   2.88714e+67   6.67346e+67  -9.65046e+66   2.98446e+67   2.29076e+66
  -1.85913e+60   1.22162e+62  -1.60513e+61  -1.42753e+68  3.56239e+135 -1.46689e+202   1.29677e+68  -1.23088e+67  -2.90361e+67  -1.01408e+68  -9.63651e+66    2.9855e+67  -1.88283e+66
   7.58147e+59   1.52483e+62   1.10174e+61  -8.74528e+64 -2.29265e+135  2.06529e+202   4.78817e+67  -1.25888e+67   -2.9301e+67   4.18023e+67   9.67239e+66   -2.8495e+67   2.21517e+66
   2.76887e+60   1.53245e+62   3.99295e+61   2.49167e+68  7.66792e+135  3.36071e+202   2.33273e+68   1.12791e+67   2.82193e+67   2.09669e+68   9.69512e+66  -2.82999e+67   6.08856e+66
   4.15094e+60   1.50352e+62   3.96295e+61   2.48776e+68  7.78155e+135  4.13199e+202   2.32611e+68   1.11889e+67   2.81813e+67   2.09406e+68  -9.65586e+66  -2.53353e+67   6.55757e+66
   1.13396e+60   1.49592e+62   1.08954e+61  -9.51728e+64 -2.12942e+135  2.09753e+202   4.61457e+67  -1.25906e+67  -2.92505e+67   4.17459e+67  -9.67858e+66  -2.55334e+67   2.31861e+66
   7.59855e+59   1.24969e+62   9.92643e+60   1.76711e+66 -2.18246e+135  2.03784e+202   4.67503e+67  -1.19835e+67  -2.84812e+67   4.22318e+67   9.60963e+66   2.67905e+67   2.18881e+66
   2.75319e+60    1.2572e+62   3.59645e+61   2.53069e+68  8.47451e+135  5.37404e+202   2.35732e+68   1.29837e+67   2.95116e+67   2.10574e+68   9.63493e+66   2.69856e+67   6.00119e+66
    4.1309e+60    1.2281e+62   3.56646e+61   2.52708e+68  8.26401e+135  4.39671e+202   2.35791e+68   1.29004e+67   2.94873e+67   2.10321e+68   -9.6309e+66   2.99474e+67    6.4635e+66
   1.13574e+60    1.2206e+62   9.80418e+60    1.7839e+66 -2.34714e+135  1.98626e+202   4.84801e+67  -1.19796e+67  -2.84184e+67   4.21819e+67   -9.6562e+66   2.97494e+67   2.29076e+66
  -3.78471e+49   1.85286e+62  -1.96608e+61  -1.43189e+68  3.59229e+135 -1.55139e+202   1.30041e+68  -1.16102e+67  -2.90535e+67  -1.02525e+68   9.70587e+66  -2.86327e+67   1.94785e+65
  -1.14973e+50   1.85182e+62   1.22216e+61   1.09532e+68  2.27617e+135  7.83496e+201   9.85961e+67   1.24064e+67   2.92668e+67   6.78592e+67   9.70434e+66  -2.86444e+67   4.12753e+65
   3.79257e+59    1.8461e+62   1.21973e+61   1.09465e+68  2.28023e+135  8.37392e+201      9.85e+67   1.23907e+67   2.92477e+67   6.78261e+67  -9.73545e+66  -2.84833e+67   5.09156e+65
  -6.31612e+59   1.84714e+62  -1.96723e+61  -1.43367e+68  3.61526e+135 -1.56979e+202   1.30149e+68  -1.16513e+67  -2.90981e+67  -1.02618e+68  -9.73391e+66  -2.84712e+67  -1.36289e+65
  -2.88665e+49   1.54892e+62  -1.78543e+61  -1.45136e+68   3.8711e+135 -1.92868e+202   1.31123e+68  -1.26353e+67  -2.95261e+67  -1.02974e+68   9.63152e+66   2.73993e+67   1.72462e+65
  -9.76227e+49   1.54789e+62   1.11145e+61   1.10002e+68  2.38622e+135  9.69431e+201   9.85603e+67   1.26823e+67   2.93518e+67   6.79675e+67   9.62961e+66   2.73877e+67   4.05171e+65
   3.79821e+59   1.54213e+62   1.10903e+61   1.09931e+68   2.3707e+135  8.98584e+201   9.85608e+67   1.26661e+67   2.93312e+67   6.79341e+67  -9.66856e+66   2.75706e+67   5.00176e+65
  -6.23683e+59   1.54316e+62  -1.78646e+61  -1.45315e+68  3.87498e+135 -1.92783e+202   1.31306e+68  -1.26766e+67  -2.95718e+67  -1.03066e+68  -9.66665e+66   2.75827e+67  -1.53813e+65
  -1.14973e+50   1.85182e+62   1.22216e+61  -1.94425e+64 -2.35139e+135  2.26932e+202   4.84912e+67  -1.28748e+67  -2.97227e+67    4.2578e+67   9.70434e+66  -2.87403e+67   4.12753e+65
  -1.91776e+50   1.85955e+62   4.41091e+61   2.52702e+68  7.87164e+135  3.83257e+202   2.36615e+68   1.11374e+67   2.85977e+67   2.12967e+68   9.70847e+66  -2.85391e+67    6.3075e+65
   1.39026e+60   1.85383e+62   4.40719e+61   2.52784e+68  7.89171e+135  3.94586e+202    2.3666e+68   1.11563e+67    2.8626e+67   2.13002e+68  -9.73386e+66  -2.83774e+67   1.15453e+66
   3.79257e+59    1.8461e+62   1.21973e+61  -4.56754e+64 -2.34188e+135  2.30668e+202    4.8393e+67  -1.28809e+67  -2.97194e+67   4.25545e+67    -9.738e+66  -2.85792e+67   5.09156e+65
  -9.76227e+49   1.54789e+62   1.11145e+61   1.83302e+66 -2.25371e+135  2.06359e+202   4.75086e+67  -1.22796e+67  -2.88928e+67   4.30055e+67   9.62961e+66    2.7294e+67   4.05171e+65
  -1.65964e+50   1.55551e+62   4.00881e+61    2.5697e+68  8.74543e+135  5.42264e+202    2.3935e+68   1.30333e+67    2.9985e+67   2.13952e+68   9.63435e+66   2.74952e+67   6.37641e+65
   1.38347e+60   1.54975e+62     4.005e+61   2.57056e+68  8.74714e+135  5.31877e+202   2.39439e+68   1.30532e+67   3.00158e+67   2.13988e+68  -9.66651e+66   2.76785e+67   1.15383e+66
   3.79821e+59   1.54213e+62   1.10903e+61   1.81259e+66 -2.26357e+135  2.02482e+202   4.76116e+67  -1.22844e+67  -2.88867e+67   4.29836e+67  -9.67125e+66   2.74766e+67   5.00176e+65
  -6.31612e+59   1.84714e+62  -1.96723e+61  -1.43042e+68  3.56185e+135 -1.50423e+202   1.29997e+68  -1.14673e+67  -2.90231e+67  -1.02552e+68   9.70334e+66  -2.87952e+67   1.35632e+65
   3.79257e+59    1.8461e+62   1.21973e+61   1.09513e+68  2.26623e+135  7.18319e+201   9.86247e+67   1.24443e+67   2.92588e+67   6.78098e+67   9.70117e+66  -2.88073e+67   1.33444e+66
   7.57266e+59   1.82893e+62   1.21243e+61   1.09354e+68  2.29028e+135  8.96075e+201   9.83259e+67   1.24076e+67   2.92172e+67    6.7729e+67  -9.77631e+66  -2.81746e+67   1.43525e+66
  -1.26643e+60   1.82996e+62  -1.96998e+61  -1.43385e+68  3.62388e+135  -1.5644e+202   1.30136e+68  -1.15465e+67  -2.91072e+67  -1.02732e+68  -9.77414e+66  -2.81612e+67  -1.62675e+65
  -6.23683e+59   1.54316e+62  -1.78646e+61  -1.44802e+68  3.83727e+135 -1.87576e+202   1.30883e+68  -1.23923e+67  -2.94535e+67  -1.02956e+68   9.63665e+66   2.72609e+67   9.62089e+64
   3.79821e+59   1.54213e+62   1.10903e+61   1.10006e+68  2.39504e+135  1.02646e+202   9.85203e+67   1.27334e+67   2.93484e+67   6.79242e+67   9.63337e+66   2.72489e+67   1.31384e+66
   7.58147e+59   1.52483e+62   1.10174e+61    1.0984e+68  2.34468e+135  8.08569e+201   9.85913e+67   1.26952e+67   2.93026e+67   6.78426e+67  -9.73141e+66   2.79262e+67   1.41318e+66
  -1.25233e+60   1.52586e+62  -1.78899e+61  -1.45149e+68  3.82624e+135 -1.83948e+202   1.31309e+68  -1.24723e+67  -2.95411e+67  -1.03136e+68  -9.72813e+66   2.79395e+67  -1.97775e+65
   3.79257e+59    1.8461e+62   1.21973e+61   2.66637e+63 -2.35954e+135  2.22296e+202   4.85751e+67  -1.28273e+67  -2.97082e+67   4.25382e+67   9.69861e+66  -2.89032e+67   1.33444e+66
   1.39026e+60   1.85383e+62   4.40719e+61   2.52555e+68  7.83422e+135  3.66103e+202   2.36537e+68   1.10791e+67   2.85732e+67   2.12903e+68   9.70806e+66  -2.87014e+67   2.53354e+66
   2.78123e+60   1.83665e+62   4.39535e+61   2.52661e+68  7.88373e+135  3.99849e+202   2.36546e+68   1.11034e+67    2.8619e+67   2.12938e+68  -9.77208e+66  -2.80671e+67   3.03397e+66
   7.57266e+59   1.82893e+62   1.21243e+61  -7.08123e+64 -2.32273e+135  2.32619e+202   4.81948e+67  -1.28443e+67  -2.97037e+67   4.24772e+67  -9.78153e+66  -2.82701e+67   1.43525e+66
   3.79821e+59   1.54213e+62   1.10903e+61   1.88707e+66 -2.24481e+135  2.09169e+202    4.7417e+67  -1.22171e+67  -2.88695e+67   4.29737e+67   9.63069e+66   2.71549e+67   1.31384e+66
   1.38347e+60   1.54975e+62     4.005e+61   2.56696e+68  8.69969e+135  5.42154e+202   2.39151e+68   1.29049e+67   2.99326e+67   2.13858e+68   9.64119e+66   2.73567e+67   2.53109e+66
   2.76887e+60   1.53245e+62   3.99295e+61    2.5681e+68  8.67718e+135  5.06114e+202    2.3932e+68   1.29312e+67    2.9983e+67   2.13896e+68  -9.72578e+66   2.80349e+67   3.02427e+66
   7.58147e+59   1.52483e+62   1.10174e+61   1.82455e+66 -2.28188e+135  1.98476e+202   4.78038e+67  -1.22315e+67  -2.88597e+67   4.29159e+67  -9.73629e+66   2.78319e+67   1.41318e+66
  -1.26643e+60   1.82996e+62  -1.96998e+61  -1.43124e+68  3.56593e+135 -1.40213e+202   1.30071e+68  -1.15022e+67  -2.90469e+67  -1.02575e+68   9.73689e+66  -2.88116e+67  -1.60671e+66
   7.57266e+59   1.82893e+62   1.21243e+61   1.09425e+68  2.25989e+135  6.52984e+201   9.85596e+67   1.25009e+67   2.92337e+67   6.76906e+67   9.72831e+66  -2.88247e+67   2.25709e+66
   1.13301e+60   1.80026e+62   1.20028e+61    1.0919e+68  2.41314e+135  1.09495e+202   9.75162e+67   1.24467e+67   2.91601e+67   6.75836e+67  -9.69647e+66  -2.57322e+67   2.36201e+66
  -1.90078e+60   1.80129e+62  -1.96423e+61  -1.42908e+68  3.71926e+135 -1.76804e+202   1.29242e+68  -1.14523e+67  -2.90165e+67  -1.02439e+68  -9.68789e+66   -2.5716e+67  -1.86222e+66
  -1.25233e+60   1.52586e+62  -1.78899e+61  -1.44664e+68  3.81633e+135 -1.91935e+202    1.3081e+68  -1.23018e+67  -2.94291e+67  -1.02933e+68   9.68871e+66   2.72923e+67  -1.56194e+66
   7.58147e+59   1.52483e+62   1.10174e+61   1.09936e+68  2.38917e+135  1.06106e+202   9.84721e+67   1.28013e+67   2.93247e+67     6.781e+67   9.67749e+66   2.72792e+67   2.23108e+66
   1.13396e+60   1.49592e+62   1.08954e+61   1.09683e+68  2.19425e+135  5.61728e+201   9.91772e+67   1.27429e+67   2.92405e+67   6.76996e+67  -9.67251e+66   3.03581e+67   2.33448e+66
  -1.88271e+60   1.49695e+62  -1.78338e+61  -1.44472e+68  3.62495e+135 -1.49956e+202   1.31329e+68  -1.22577e+67  -2.94107e+67  -1.02804e+68   -9.6613e+66   3.03741e+67  -1.81374e+66
   7.57266e+59   1.82893e+62   1.21243e+61   6.60621e+62  -2.3585e+135  2.15991e+202   4.85644e+67  -1.27509e+67  -2.96872e+67   4.24388e+67   9.72309e+66  -2.89202e+67   2.25709e+66
   2.78123e+60   1.83665e+62   4.39535e+61   2.52548e+68  7.83909e+135  3.44387e+202    2.3652e+68   1.12488e+67    2.8593e+67   2.12706e+68   9.74521e+66  -2.87177e+67    6.1219e+66
   4.16716e+60   1.80797e+62   4.36529e+61   2.52085e+68  7.95221e+135  4.23415e+202   2.35786e+68    1.1142e+67   2.85363e+67   2.12407e+68  -9.68128e+66  -2.56237e+67     6.588e+66
   1.13301e+60   1.80026e+62   1.20028e+61  -8.13615e+63 -2.18552e+135  2.18857e+202   4.67496e+67  -1.27529e+67  -2.96391e+67   4.23839e+67   -9.7034e+66  -2.58269e+67   2.36201e+66
   7.58147e+59   1.52483e+62   1.10174e+61    1.9201e+66 -2.24452e+135  2.12608e+202   4.74153e+67  -1.21255e+67  -2.88377e+67   4.28833e+67   9.67261e+66    2.7185e+67   2.23108e+66
   2.76887e+60   1.53245e+62   3.99295e+61   2.56522e+68  8.67108e+135  5.52331e+202   2.39024e+68   1.29765e+67   2.99167e+67   2.13629e+68   9.69533e+66   2.73875e+67   6.02468e+66
   4.15094e+60   1.50352e+62   3.96295e+61   2.56075e+68  8.43877e+135  4.51123e+202   2.39031e+68   1.28734e+67   2.98658e+67   2.13336e+68  -9.65564e+66   3.04673e+67   6.48403e+66
   1.13396e+60   1.49592e+62   1.08954e+61   1.92069e+66 -2.41826e+135  2.08326e+202   4.92133e+67  -1.21253e+67  -2.87853e+67   4.28313e+67  -9.67836e+66   3.02641e+67   2.33448e+66
  -4.80565e+49   2.18614e+62  -2.14968e+61  -1.45059e+68  3.66139e+135 -1.57467e+202   1.31836e+68   -1.1515e+67  -2.94537e+67   -1.0409e+68   9.76335e+66  -2.91004e+67   2.08275e+65
  -1.33677e+50    2.1851e+62    1.3345e+61   1.11061e+68  2.33628e+135  8.20253e+201   9.99911e+67   1.25756e+67   2.96508e+67   6.88343e+67   9.76219e+66  -2.91161e+67   4.18888e+65
   3.79009e+59   2.17943e+62   1.33206e+61   1.11007e+68  2.34198e+135  8.78781e+201    9.9903e+67   1.25632e+67   2.96358e+67   6.88081e+67  -9.78821e+66  -2.89465e+67   5.22898e+65
  -6.37612e+59   2.18047e+62  -2.15089e+61  -1.45166e+68  3.67959e+135 -1.58477e+202   1.31885e+68  -1.15399e+67  -2.94811e+67  -1.04145e+68  -9.78705e+66  -2.89304e+67   -9.0113e+64
  -3.78471e+49   1.85286e+62  -1.96608e+61  -1.46872e+68  3.93232e+135 -1.93518e+202   1.32812e+68    -1.246e+67  -2.99034e+67  -1.04508e+68   9.70591e+66   2.78095e+67   1.94806e+65
  -1.14973e+50   1.85182e+62   1.22216e+61   1.11556e+68  2.45362e+135  1.01713e+202   9.99551e+67   1.28733e+67   2.97337e+67   6.89485e+67   9.70438e+66   2.77938e+67   4.12757e+65
   3.79257e+59    1.8461e+62   1.21973e+61     1.115e+68  2.43901e+135  9.45412e+201   9.99659e+67   1.28604e+67   2.97173e+67    6.8922e+67   -9.7354e+66   2.79763e+67   5.15238e+65
  -6.31612e+59   1.84714e+62  -1.96723e+61  -1.46981e+68  3.93067e+135 -1.93315e+202   1.32939e+68  -1.24852e+67   -2.9932e+67  -1.04564e+68  -9.73387e+66   2.79923e+67  -9.91934e+64
  -1.33677e+50    2.1851e+62    1.3345e+61   4.32467e+64 -2.42164e+135  2.37634e+202   4.92101e+67  -1.30438e+67  -3.01278e+67   4.32149e+67   9.76219e+66  -2.92144e+67   4.18888e+65
  -2.18811e+50   2.19293e+62   4.81918e+61   2.56162e+68  8.03261e+135  3.88832e+202   2.39972e+68   1.10417e+67   2.89765e+67   2.16144e+68   9.76608e+66  -2.90046e+67   6.29628e+65
   1.39577e+60   2.18726e+62   4.81553e+61   2.56199e+68  8.04753e+135  3.99643e+202    2.3998e+68   1.10502e+67   2.89936e+67   2.16155e+68  -9.78705e+66  -2.88345e+67   1.13626e+66
   3.79009e+59   2.17943e+62   1.33206e+61   2.63819e+64 -2.41154e+135  2.41496e+202   4.91075e+67  -1.30477e+67   -3.0123e+67   4.31971e+67  -9.79095e+66  -2.90446e+67   5.22898e+65
  -1.14973e+50   1.85182e+62   1.22216e+61   2.00359e+66 -2.31786e+135  2.14849e+202   4.81858e+67  -1.24079e+67  -2.92558e+67   4.36673e+67   9.70438e+66   2.76979e+67   4.12757e+65
  -1.91776e+50   1.85955e+62   4.41091e+61   2.60432e+68   8.9213e+135   5.5037e+202     2.427e+68   1.29211e+67   3.03814e+67   2.17129e+68   9.70851e+66   2.79077e+67   6.30736e+65
   1.39026e+60   1.85383e+62   4.40719e+61    2.6047e+68  8.91658e+135  5.39177e+202   2.42751e+68     1.293e+67   3.03997e+67    2.1714e+68  -9.73382e+66   2.80904e+67   1.12992e+66
   3.79257e+59    1.8461e+62   1.21973e+61   1.98953e+66  -2.3279e+135  2.10821e+202   4.82893e+67  -1.24111e+67  -2.92497e+67   4.36504e+67  -9.73796e+66   2.78804e+67   5.15238e+65
  -6.37612e+59   2.18047e+62  -2.15089e+61  -1.44955e+68  3.63752e+135 -1.54091e+202   1.31812e+68  -1.14167e+67  -2.94324e+67  -1.04106e+68   9.75604e+66  -2.92561e+67   1.90826e+65
   3.79009e+59   2.17943e+62   1.33206e+61   1.11044e+68   2.3267e+135  7.53405e+201   1.00021e+68   1.26112e+67   2.96444e+67   6.87888e+67    9.7549e+66  -2.92722e+67   1.35903e+66
   7.56876e+59   2.16241e+62   1.32477e+61   1.10911e+68  2.35527e+135  9.44554e+201   9.97298e+67   1.25804e+67   2.96112e+67   6.87196e+67  -9.81502e+66  -2.86035e+67   1.46476e+66
  -1.27738e+60   2.16346e+62  -2.15373e+61  -1.45127e+68    3.689e+135 -1.58358e+202   1.31806e+68  -1.14563e+67  -2.94745e+67  -1.04196e+68  -9.81388e+66  -2.85863e+67  -8.79586e+64
  -6.31612e+59   1.84714e+62  -1.96723e+61  -1.46656e+68  3.91302e+135 -1.90301e+202   1.32646e+68  -1.23013e+67  -2.98571e+67  -1.04498e+68   9.70345e+66   2.76684e+67   1.72759e+65
   3.79257e+59    1.8461e+62   1.21973e+61   1.11548e+68  2.46165e+135  1.07598e+202   9.99065e+67    1.2914e+67   2.97285e+67   6.89056e+67   9.70128e+66   2.76523e+67   1.34052e+66
   7.57266e+59   1.82893e+62   1.21243e+61   1.11409e+68   2.4121e+135  8.53905e+201   9.99994e+67   1.28819e+67   2.96915e+67   6.88356e+67  -9.77619e+66   2.83424e+67    1.4447e+66
  -1.26643e+60   1.82996e+62  -1.96998e+61  -1.46833e+68  3.88757e+135 -1.86251e+202   1.32938e+68  -1.23421e+67  -2.99028e+67  -1.04588e+68  -9.77402e+66   2.83596e+67  -1.01926e+65
   3.79009e+59   2.17943e+62   1.33206e+61   6.36437e+64 -2.42967e+135  2.32878e+202   4.92917e+67  -1.29998e+67  -3.01144e+67   4.31779e+67   9.75216e+66  -2.93703e+67   1.35903e+66
   1.39577e+60   2.18726e+62   4.81553e+61   2.56059e+68  8.00661e+135  3.73872e+202   2.39916e+68   1.10216e+67   2.89615e+67   2.16076e+68   9.76135e+66  -2.91603e+67   2.52804e+66
   2.79144e+60   2.17024e+62   4.80379e+61   2.56038e+68  8.04259e+135  4.06513e+202   2.39819e+68   1.10167e+67   2.89772e+67   2.16044e+68  -9.81172e+66  -2.84907e+67   3.01881e+66
   7.56876e+59   2.16241e+62   1.32477e+61   5.47547e+63 -2.39017e+135  2.43469e+202   4.88893e+67  -1.30132e+67  -3.01073e+67    4.3126e+67  -9.82091e+66   -2.8701e+67   1.46476e+66
   3.79257e+59    1.8461e+62   1.21973e+61   2.03784e+66 -2.30891e+135  2.18142e+202   4.80943e+67  -1.23576e+67  -2.92385e+67    4.3634e+67   9.69872e+66   2.75564e+67   1.34052e+66
   1.39026e+60   1.85383e+62   4.40719e+61   2.60241e+68  8.89465e+135  5.54518e+202   2.42551e+68   1.28528e+67   3.03469e+67   2.17042e+68   9.70817e+66   2.77664e+67    2.5089e+66
   2.78123e+60   1.83665e+62   4.39535e+61   2.60224e+68  8.85365e+135  5.16024e+202   2.42617e+68   1.28489e+67   3.03644e+67   2.17011e+68  -9.77197e+66   2.84572e+67   2.99246e+66
   7.57266e+59   1.82893e+62   1.21243e+61   1.98439e+66 -2.34715e+135  2.07211e+202    4.8488e+67    -1.237e+67  -2.92295e+67   4.35838e+67  -9.78142e+66   2.82469e+67    1.4447e+66
  -1.27738e+60   2.16346e+62  -2.15373e+61  -1.45001e+68  3.64513e+135 -1.44455e+202   1.31834e+68  -1.14893e+67  -2.94455e+67  -1.04066e+68   9.77838e+66  -2.92393e+67  -1.59625e+66
   7.56876e+59   2.16241e+62   1.32477e+61   1.10975e+68  2.32348e+135  6.90813e+201   9.99593e+67   1.26699e+67   2.96258e+67   6.86788e+67   9.77185e+66  -2.92564e+67    2.2949e+66
   1.13257e+60   2.13402e+62   1.31266e+61   1.10741e+68  2.48488e+135  1.15629e+202   9.88876e+67   1.26161e+67   2.95574e+67   6.85678e+67   -9.7216e+66  -2.60669e+67   2.40173e+66
  -1.91535e+60   2.13506e+62  -2.14781e+61  -1.44733e+68  3.80176e+135 -1.81824e+202   1.30942e+68  -1.14274e+67  -2.93983e+67  -1.03907e+68  -9.71506e+66  -2.60475e+67  -1.84901e+66
  -1.26643e+60   1.82996e+62  -1.96998e+61  -1.46572e+68  3.90281e+135 -1.97461e+202   1.32592e+68  -1.22979e+67  -2.98426e+67  -1.04432e+68   9.73704e+66   2.77092e+67    -1.546e+66
   7.57266e+59   1.82893e+62   1.21243e+61    1.1148e+68  2.45531e+135  1.11264e+202   9.98628e+67   1.29752e+67    2.9708e+67   6.87973e+67   9.72846e+66   2.76923e+67   2.26654e+66
   1.13301e+60   1.80026e+62   1.20028e+61   1.11234e+68   2.2533e+135  5.94505e+201   1.00597e+68   1.29184e+67   2.96317e+67   6.86841e+67  -9.69633e+66   3.08605e+67    2.3718e+66
  -1.90078e+60   1.80129e+62  -1.96423e+61  -1.46325e+68  3.69868e+135 -1.54155e+202   1.33087e+68  -1.22408e+67  -2.98049e+67  -1.04279e+68  -9.68775e+66   3.08798e+67  -1.79504e+66
   7.56876e+59   2.16241e+62   1.32477e+61   6.87876e+64 -2.42675e+135  2.26255e+202   4.92621e+67  -1.29237e+67  -3.00927e+67   4.30852e+67   9.76595e+66  -2.93539e+67    2.2949e+66
   2.79144e+60   2.17024e+62   4.80379e+61   2.56045e+68  8.02078e+135  3.53908e+202   2.39871e+68   1.12317e+67   2.89787e+67   2.15834e+68   9.78828e+66  -2.91441e+67   6.18743e+66
    4.1809e+60   2.14184e+62   4.77363e+61   2.55519e+68  8.13294e+135  4.34949e+202   2.39076e+68   1.11105e+67   2.89073e+67   2.15502e+68  -9.70737e+66  -2.59541e+67    6.6544e+66
   1.13257e+60   2.13402e+62   1.31266e+61   4.50174e+64 -2.24548e+135  2.28881e+202   4.73865e+67  -1.29292e+67  -3.00483e+67   4.30225e+67   -9.7297e+66  -2.61637e+67   2.40173e+66
   7.57266e+59   1.82893e+62   1.21243e+61   2.05583e+66 -2.30931e+135  2.22162e+202   4.80992e+67  -1.22766e+67   -2.9213e+67   4.35454e+67   9.72323e+66   2.75968e+67   2.26654e+66
   2.78123e+60   1.83665e+62   4.39535e+61   2.60112e+68  8.88272e+135  5.69989e+202   2.42437e+68   1.29943e+67   3.03384e+67   2.16779e+68   9.74535e+66   2.78066e+67    6.0804e+66
   4.16716e+60   1.80797e+62   4.36529e+61   2.59598e+68  8.63272e+135  4.65029e+202   2.42401e+68   1.28757e+67   3.02699e+67   2.16452e+68  -9.68113e+66   3.09754e+67   6.54051e+66
   1.13301e+60   1.80026e+62   1.20028e+61   2.03569e+66 -2.49047e+135  2.18551e+202   4.99461e+67  -1.22813e+67  -2.91675e+67   4.34844e+67  -9.70325e+66   3.07657e+67    2.3718e+66
  -5.94282e+49   2.54924e+62  -2.33623e+61  -1.47003e+68  3.73887e+135  -1.6106e+202   1.33683e+68  -1.14625e+67  -2.98652e+67  -1.05676e+68   9.81016e+66   -2.9572e+67   2.16602e+65
  -1.53474e+50   2.54819e+62   1.44851e+61   1.12654e+68  2.40101e+135  8.62817e+201   1.01439e+68   1.27484e+67   3.00557e+67   6.98497e+67   9.80929e+66  -2.95906e+67   4.24698e+65
   3.78925e+59   2.54258e+62   1.44608e+61   1.12605e+68  2.40763e+135  9.24908e+201   1.01353e+68   1.27372e+67   3.00426e+67   6.98256e+67  -9.83216e+66  -2.94143e+67   5.33478e+65
  -6.42431e+59   2.54363e+62  -2.33747e+61   -1.4707e+68  3.75443e+135 -1.61583e+202   1.33698e+68  -1.14779e+67  -2.98825e+67   -1.0571e+68  -9.83129e+66  -2.93953e+67  -6.32544e+64
  -4.80565e+49   2.18614e+62  -2.14968e+61  -1.48753e+68  4.00933e+135  -1.9676e+202   1.34604e+68  -1.23676e+67  -3.03063e+67   -1.0608e+68   9.76338e+66   2.82303e+67   2.08288e+65
  -1.33677e+50    2.1851e+62    1.3345e+61   1.13166e+68  2.52474e+135  1.07032e+202   1.01399e+68   1.30614e+67   3.01366e+67   6.99679e+67   9.76221e+66   2.82116e+67   4.18889e+65
   3.79009e+59   2.17943e+62   1.33206e+61   1.13116e+68  2.51037e+135  9.97075e+201   1.01414e+68   1.30499e+67   3.01225e+67   6.99436e+67  -9.78819e+66    2.8395e+67   5.26045e+65
  -6.37612e+59   2.18047e+62  -2.15089e+61  -1.48821e+68  4.00425e+135  -1.9648e+202   1.34698e+68  -1.23833e+67  -3.03246e+67  -1.06113e+68  -9.78702e+66    2.8414e+67   -6.7392e+64
  -1.53474e+50   2.54819e+62   1.44851e+61   9.98845e+64 -2.49464e+135  2.49235e+202   4.99465e+67  -1.32256e+67  -3.05503e+67   4.38757e+67   9.80929e+66  -2.96915e+67   4.24698e+65
  -2.47156e+50   2.55614e+62   5.23378e+61   2.59756e+68  8.21013e+135  3.97093e+202    2.4344e+68   1.09797e+67   2.93704e+67   2.19406e+68   9.81314e+66  -2.94738e+67   6.32941e+65
   1.40044e+60   2.55052e+62   5.23016e+61    2.5976e+68  8.22133e+135  4.07616e+202   2.43421e+68   1.09805e+67   2.93797e+67   2.19399e+68  -9.83132e+66  -2.92972e+67   1.13067e+66
   3.78925e+59   2.54258e+62   1.44608e+61   8.52156e+64 -2.48398e+135  2.53228e+202   4.98396e+67   -1.3229e+67  -3.05452e+67   4.38594e+67  -9.83517e+66   -2.9515e+67   5.33478e+65
  -1.33677e+50    2.1851e+62    1.3345e+61   2.14849e+66  -2.3851e+135  2.24425e+202   4.88847e+67   -1.2558e+67   -2.9642e+67   4.43485e+67   9.76221e+66   2.81133e+67   4.18889e+65
  -2.18811e+50   2.19293e+62   4.81918e+61   2.64069e+68  9.12225e+135  5.63326e+202   2.46191e+68   1.28664e+67   3.08011e+67   2.20401e+68   9.76611e+66   2.83311e+67   6.29617e+65
   1.39577e+60   2.18726e+62   4.81553e+61   2.64073e+68  9.11282e+135  5.51403e+202   2.46215e+68   1.28674e+67   3.08109e+67   2.20395e+68  -9.78702e+66   2.85147e+67   1.11992e+66
   3.79009e+59   2.17943e+62   1.33206e+61   2.13525e+66 -2.39531e+135  2.20281e+202   4.89885e+67   -1.2561e+67  -2.96364e+67   4.43326e+67  -9.79092e+66   2.82968e+67   5.26045e+65
  -6.42431e+59   2.54363e+62  -2.33747e+61  -1.46927e+68  3.71909e+135 -1.58491e+202   1.33673e+68  -1.13914e+67  -2.98495e+67  -1.05686e+68   9.79982e+66  -2.97225e+67   2.19051e+65
   3.78925e+59   2.54258e+62   1.44608e+61   1.12639e+68  2.39172e+135  7.94277e+201   1.01469e+68   1.27838e+67   3.00505e+67   6.98052e+67   9.79947e+66  -2.97415e+67   1.38085e+66
   7.56742e+59   2.52573e+62   1.43881e+61   1.12513e+68  2.42325e+135  9.96435e+201   1.01173e+68   1.27547e+67   3.00206e+67    6.9738e+67  -9.85006e+66  -2.90425e+67   1.48998e+66
  -1.28639e+60   2.52679e+62  -2.34033e+61  -1.46998e+68  3.76508e+135 -1.61837e+202   1.33579e+68  -1.14079e+67  -2.98667e+67  -1.05724e+68  -9.84971e+66  -2.90226e+67  -4.91402e+64
  -6.37612e+59   2.18047e+62  -2.15089e+61   -1.4861e+68  3.99899e+135  -1.9486e+202   1.34484e+68  -1.22602e+67  -3.02758e+67  -1.06074e+68   9.75611e+66   2.80882e+67   2.13566e+65
   3.79009e+59   2.17943e+62   1.33206e+61   1.13153e+68  2.53251e+135  1.13123e+202   1.01347e+68   1.30978e+67   3.01311e+67   6.99243e+67   9.75497e+66   2.80693e+67   1.36218e+66
   7.56876e+59   2.16241e+62   1.32477e+61   1.13023e+68  2.48229e+135  9.03132e+201   1.01449e+68   1.30678e+67   3.00985e+67   6.98568e+67  -9.81495e+66    2.8775e+67   1.46967e+66
  -1.27738e+60   2.16346e+62  -2.15373e+61  -1.48686e+68  3.96412e+135 -1.90419e+202   1.34698e+68  -1.22778e+67   -3.0296e+67  -1.06113e+68  -9.81381e+66   2.87948e+67  -5.06225e+64
   3.78925e+59   2.54258e+62   1.44608e+61   1.19236e+65 -2.50251e+135  2.44309e+202   5.00252e+67  -1.31824e+67  -3.05374e+67    4.3839e+67   9.79646e+66  -2.98422e+67   1.38085e+66
   1.40044e+60   2.55052e+62   5.23016e+61   2.59681e+68  8.19181e+135  3.83481e+202   2.43398e+68   1.09854e+67   2.93616e+67   2.19334e+68   9.80574e+66  -2.96245e+67   2.54353e+66
   2.80021e+60   2.53368e+62   5.21846e+61   2.59569e+68  8.21829e+135  4.15671e+202   2.43224e+68   1.09596e+67   2.93562e+67   2.19254e+68  -9.84732e+66   -2.8925e+67    3.0304e+66
   7.56742e+59   2.52573e+62   1.43881e+61   6.18779e+64 -2.46045e+135  2.55171e+202    4.9603e+67  -1.31956e+67  -3.05302e+67   4.37877e+67   -9.8566e+66  -2.91426e+67   1.48998e+66
   3.79009e+59   2.17943e+62   1.33206e+61   2.17249e+66 -2.37601e+135  2.28022e+202   4.87928e+67  -1.25131e+67  -2.96278e+67   4.43134e+67   9.75223e+66   2.79711e+67   1.36218e+66
   1.39577e+60   2.18726e+62   4.81553e+61   2.63934e+68  9.10866e+135  5.70548e+202   2.46074e+68   1.28389e+67   3.07788e+67   2.20317e+68   9.76142e+66   2.81889e+67   2.51167e+66
   2.79144e+60   2.17024e+62   4.80379e+61   2.63825e+68  9.05387e+135  5.29747e+202   2.46069e+68   1.28137e+67   3.07742e+67   2.20237e+68  -9.81165e+66   2.88951e+67   2.99128e+66
   7.56876e+59   2.16241e+62   1.32477e+61   2.11732e+66  -2.4155e+135  2.16905e+202   4.91933e+67  -1.25258e+67    -2.962e+67   4.42631e+67  -9.82084e+66   2.86775e+67   1.46967e+66
  -1.28639e+60   2.52679e+62  -2.34033e+61  -1.46954e+68  3.72968e+135 -1.49137e+202   1.33663e+68  -1.14884e+67  -2.98565e+67  -1.05609e+68   9.81554e+66  -2.96781e+67  -1.61222e+66
   7.56742e+59   2.52573e+62   1.43881e+61   1.12576e+68  2.39069e+135  7.33015e+201   1.01403e+68   1.28446e+67    3.0035e+67   6.96963e+67   9.81039e+66  -2.96978e+67   2.33107e+66
    1.1324e+60   2.49765e+62   1.42671e+61   1.12336e+68  2.55857e+135   1.2199e+202   1.00303e+68   1.27891e+67   2.99683e+67   6.95783e+67  -9.74769e+66  -2.64332e+67    2.4399e+66
  -1.92775e+60    2.4987e+62  -2.33423e+61  -1.46659e+68  3.89052e+135 -1.87643e+202   1.32734e+68  -1.14203e+67  -2.97997e+67  -1.05439e+68  -9.74254e+66  -2.64119e+67  -1.86435e+66
  -1.27738e+60   2.16346e+62  -2.15373e+61  -1.48561e+68  3.99512e+135 -2.03912e+202   1.34444e+68  -1.23108e+67   -3.0267e+67  -1.05983e+68   9.77848e+66   2.81417e+67  -1.55893e+66
   7.56876e+59   2.16241e+62   1.32477e+61   1.13086e+68  2.52554e+135  1.16941e+202   1.01306e+68   1.31573e+67   3.01131e+67   6.98159e+67   9.77194e+66   2.81221e+67    2.2998e+66
   1.13257e+60   2.13402e+62   1.31266e+61   1.12839e+68  2.31658e+135  6.31634e+201   1.02059e+68   1.31001e+67   3.00414e+67   6.96971e+67   -9.7215e+66   3.13609e+67   2.40701e+66
  -1.91535e+60   2.13506e+62  -2.14781e+61  -1.48281e+68  3.78093e+135 -1.59089e+202   1.34931e+68  -1.22462e+67   -3.0217e+67  -1.05818e+68  -9.71497e+66    3.1382e+67   -1.8073e+66
   7.56742e+59   2.52573e+62   1.43881e+61   1.24487e+65  -2.4978e+135  2.37314e+202   4.99781e+67  -1.31057e+67  -3.05157e+67   4.37459e+67   9.80385e+66   -2.9798e+67   2.33107e+66
   2.80021e+60   2.53368e+62   5.21846e+61   2.59656e+68  8.21231e+135  3.64431e+202   2.43329e+68   1.12231e+67   2.93763e+67   2.19057e+68   9.82665e+66  -2.95808e+67   6.27566e+66
   4.19302e+60   2.50558e+62   5.18817e+61   2.59081e+68  8.32398e+135  4.47711e+202   2.42485e+68   1.10904e+67   2.92937e+67   2.18697e+68  -9.73395e+66   -2.6316e+67    6.7458e+66
    1.1324e+60   2.49765e+62   1.42671e+61    8.4226e+64  -2.3092e+135  2.39755e+202   4.80542e+67   -1.3115e+67  -3.04748e+67   4.36741e+67  -9.75676e+66  -2.65327e+67    2.4399e+66
   7.56876e+59   2.16241e+62   1.32477e+61   2.18061e+66 -2.37704e+135  2.32468e+202   4.88036e+67  -1.24363e+67  -2.96054e+67   4.42223e+67   9.76605e+66   2.80246e+67    2.2998e+66
   2.79144e+60   2.17024e+62   4.80379e+61   2.63832e+68  9.10778e+135  5.89888e+202   2.45966e+68   1.30287e+67   3.07757e+67   2.20027e+68   9.78837e+66   2.82418e+67   6.15991e+66
    4.1809e+60   2.14184e+62   4.77363e+61   2.63267e+68  8.84308e+135  4.80946e+202   2.45899e+68   1.28983e+67   3.06951e+67   2.19673e+68  -9.70728e+66   3.14807e+67   6.62304e+66
   1.13257e+60   2.13402e+62   1.31266e+61   2.14233e+66 -2.56476e+135  2.29366e+202   5.06888e+67  -1.24452e+67  -2.95643e+67   4.41518e+67   -9.7296e+66   3.12641e+67   2.40701e+66
  -7.14217e+49   2.94262e+62  -2.52579e+61  -1.49021e+68  3.82325e+135 -1.65592e+202   1.35588e+68  -1.14368e+67  -3.02892e+67  -1.07295e+68   9.85025e+66  -3.00515e+67   2.21912e+65
  -1.74385e+50   2.94155e+62   1.56427e+61   1.14306e+68  2.46989e+135  9.10432e+201   1.02937e+68   1.29263e+67   3.04786e+67   7.09011e+67   9.84959e+66  -3.00723e+67   4.30687e+65
   3.78912e+59   2.93601e+62   1.56185e+61   1.14259e+68  2.47708e+135  9.75551e+201   1.02849e+68   1.29154e+67   3.04662e+67   7.08769e+67  -9.87058e+66  -2.98905e+67   5.42548e+65
  -6.46537e+59   2.93707e+62  -2.52704e+61  -1.49064e+68   3.8374e+135 -1.65832e+202   1.35583e+68  -1.14466e+67  -3.03005e+67  -1.07317e+68  -9.86992e+66  -2.98694e+67  -4.83155e+64
  -5.94282e+49   2.54924e+62  -2.33623e+61  -1.50753e+68  4.09819e+135 -2.01838e+202   1.36486e+68  -1.23279e+67  -3.07306e+67  -1.07695e+68   9.81018e+66   2.86627e+67    2.1661e+65
  -1.53474e+50   2.54819e+62   1.44851e+61   1.14832e+68   2.5996e+135  1.12875e+202   1.02892e+68    1.3251e+67   3.05583e+67   7.10224e+67   9.80931e+66   2.86419e+67   4.24698e+65
   3.78925e+59   2.54258e+62   1.44608e+61   1.14783e+68  2.58511e+135  1.05348e+202   1.02908e+68   1.32398e+67   3.05452e+67   7.09982e+67  -9.83214e+66   2.88272e+67   5.34864e+65
  -6.42431e+59   2.54363e+62  -2.33747e+61  -1.50797e+68  4.09091e+135 -2.01496e+202   1.36561e+68  -1.23379e+67  -3.07426e+67  -1.07717e+68  -9.83127e+66   2.88482e+67  -4.95238e+64
  -1.74385e+50   2.94155e+62   1.56427e+61    1.5123e+65 -2.57066e+135   2.6171e+202   5.07019e+67  -1.34171e+67  -3.09893e+67   4.45576e+67   9.84959e+66  -3.01761e+67   4.30687e+65
  -2.76951e+50   2.94962e+62   5.65487e+61   2.63478e+68  8.40158e+135  4.07373e+202    2.4702e+68   1.09398e+67   2.97783e+67   2.22759e+68   9.85347e+66  -2.99507e+67   6.39596e+65
   1.40453e+60   2.94407e+62   5.65127e+61   2.63457e+68  8.41014e+135   4.1779e+202   2.46981e+68   1.09351e+67    2.9782e+67    2.2274e+68  -9.86997e+66  -2.97687e+67   1.13385e+66
   3.78912e+59   2.93601e+62   1.56185e+61   1.35708e+65 -2.55945e+135  2.65835e+202   5.05912e+67  -1.34207e+67  -3.09845e+67   4.45409e+67  -9.87384e+66  -2.99941e+67   5.42548e+65
  -1.53474e+50   2.54819e+62   1.44851e+61   2.27766e+66 -2.45544e+135  2.34944e+202   4.96048e+67   -1.2723e+67  -3.00477e+67   4.50484e+67   9.80931e+66    2.8541e+67   4.24698e+65
  -2.47156e+50   2.55614e+62   5.23378e+61   2.67864e+68  9.34381e+135  5.80001e+202   2.49814e+68   1.28507e+67   3.12414e+67   2.23772e+68   9.81315e+66   2.87665e+67   6.32933e+65
   1.40044e+60   2.55052e+62   5.23016e+61   2.67844e+68  9.33086e+135  5.67395e+202   2.49819e+68   1.28462e+67   3.12453e+67   2.23753e+68  -9.83131e+66   2.89518e+67    1.1197e+66
   3.78925e+59   2.54258e+62   1.44608e+61   2.26299e+66 -2.46586e+135  2.30696e+202    4.9709e+67  -1.27264e+67  -3.00426e+67    4.5032e+67  -9.83515e+66   2.87264e+67   5.34864e+65
  -6.46537e+59   2.93707e+62  -2.52704e+61  -1.48962e+68  3.80602e+135 -1.63494e+202   1.35586e+68  -1.13824e+67  -3.02769e+67  -1.07303e+68   9.83796e+66  -3.01979e+67    2.3067e+65
   3.78912e+59   2.93601e+62   1.56185e+61   1.14293e+68  2.46083e+135  8.40087e+201   1.02966e+68   1.29625e+67   3.04741e+67   7.08562e+67   9.83816e+66  -3.02189e+67   1.40194e+66
   7.56721e+59   2.91935e+62   1.55458e+61   1.14165e+68  2.49457e+135  1.05215e+202    1.0266e+68   1.29331e+67   3.04452e+67   7.07872e+67  -9.88281e+66  -2.94931e+67   1.51354e+66
  -1.29422e+60   2.92042e+62  -2.52986e+61  -1.48974e+68  3.84947e+135  -1.6642e+202   1.35439e+68  -1.13851e+67  -3.02792e+67  -1.07309e+68  -9.88301e+66  -2.94714e+67  -3.25579e+64
  -6.42431e+59   2.54363e+62  -2.33747e+61  -1.50654e+68   4.0933e+135 -2.00779e+202   1.36394e+68  -1.22515e+67  -3.07096e+67  -1.07693e+68   9.79986e+66    2.8521e+67   2.32793e+65
   3.78925e+59   2.54258e+62   1.44608e+61   1.14817e+68  2.60738e+135  1.19185e+202   1.02838e+68   1.32864e+67    3.0553e+67   7.09778e+67   9.79951e+66      2.85e+67   1.38224e+66
   7.56742e+59   2.52573e+62   1.43881e+61   1.14688e+68   2.5557e+135  9.56354e+201   1.02945e+68   1.32566e+67   3.05224e+67   7.09089e+67  -9.85001e+66   2.92232e+67   1.49215e+66
  -1.28639e+60   2.52679e+62  -2.34033e+61   -1.5067e+68  4.05192e+135 -1.95936e+202   1.36563e+68  -1.22551e+67  -3.07139e+67  -1.07701e+68  -9.84966e+66   2.92449e+67  -2.64461e+64
   3.78912e+59   2.93601e+62   1.56185e+61   1.69929e+65 -2.57836e+135  2.56582e+202   5.07778e+67  -1.33736e+67  -3.09766e+67   4.45201e+67    9.8349e+66  -3.03226e+67   1.40194e+66
   1.40453e+60   2.94407e+62   5.65127e+61    2.6342e+68  8.38844e+135  3.94529e+202   2.46986e+68   1.09633e+67   2.97735e+67   2.22684e+68   9.84441e+66  -3.00972e+67   2.57399e+66
   2.80803e+60   2.92741e+62   5.63955e+61   2.63244e+68  8.40846e+135  4.26782e+202   2.46757e+68   1.09225e+67   2.97533e+67   2.22568e+68  -9.88037e+66  -2.93711e+67   3.06076e+66
   7.56721e+59   2.91935e+62   1.55458e+61   1.08155e+65 -2.53385e+135  2.67714e+202   5.03375e+67  -1.33878e+67  -3.09703e+67   4.44663e+67  -9.88989e+66  -2.95962e+67   1.51354e+66
   3.78925e+59   2.54258e+62   1.44608e+61     2.297e+66 -2.44621e+135  2.38751e+202   4.95125e+67  -1.26798e+67  -3.00348e+67   4.50116e+67   9.79651e+66   2.83992e+67   1.38224e+66
   1.40044e+60   2.55052e+62   5.23016e+61   2.67766e+68  9.33919e+135  5.89508e+202   2.49719e+68   1.28512e+67   3.12273e+67   2.23688e+68   9.80579e+66   2.86246e+67   2.53254e+66
   2.80021e+60   2.53368e+62   5.21846e+61   2.67593e+68   9.2739e+135  5.46479e+202   2.49663e+68   1.28111e+67   3.12077e+67   2.23574e+68  -9.84727e+66   2.93481e+67   3.01194e+66
   7.56742e+59   2.52573e+62   1.43881e+61   2.23657e+66 -2.48708e+135  2.27456e+202   4.99208e+67  -1.26937e+67  -3.00283e+67   4.49586e+67  -9.85656e+66   2.91231e+67   1.49215e+66
  -1.29422e+60   2.92042e+62  -2.52986e+61   -1.4898e+68  3.81919e+135 -1.54229e+202   1.35557e+68   -1.1496e+67  -3.02806e+67  -1.07203e+68   9.84995e+66  -3.01292e+67   -1.6451e+66
   7.56721e+59   2.91935e+62   1.55458e+61    1.1423e+68  2.46149e+135  7.79311e+201   1.02893e+68   1.30249e+67   3.04601e+67   7.07451e+67   9.84563e+66  -3.01507e+67   2.36711e+66
   1.13236e+60   2.89159e+62   1.54249e+61   1.13982e+68  2.63508e+135  1.28685e+202   1.01768e+68   1.29675e+67   3.03934e+67   7.06206e+67  -9.77438e+66  -2.68244e+67   2.47791e+66
  -1.93882e+60   2.89265e+62  -2.52359e+61  -1.48668e+68  3.98456e+135 -1.94089e+202   1.34601e+68  -1.14239e+67  -3.02179e+67  -1.07026e+68  -9.77007e+66   -2.6802e+67  -1.89806e+66
  -1.28639e+60   2.52679e+62  -2.34033e+61  -1.50626e+68  4.09299e+135 -2.11151e+202   1.36364e+68  -1.23357e+67  -3.07038e+67  -1.07586e+68    9.8156e+66   2.85894e+67  -1.58954e+66
   7.56742e+59   2.52573e+62   1.43881e+61   1.14751e+68  2.59964e+135  1.23112e+202   1.02801e+68   1.33464e+67   3.05369e+67   7.08672e+67   9.81045e+66   2.85678e+67   2.33324e+66
    1.1324e+60   2.49765e+62   1.42671e+61   1.14499e+68   2.3839e+135  6.72753e+201   1.03567e+68   1.32883e+67   3.04675e+67    7.0743e+67  -9.74763e+66   3.18652e+67   2.44235e+66
  -1.92775e+60    2.4987e+62  -2.33423e+61  -1.50325e+68  3.87013e+135 -1.64641e+202   1.36849e+68  -1.22664e+67  -3.06458e+67  -1.07413e+68  -9.74248e+66   3.18877e+67  -1.83867e+66
   7.56721e+59   2.91935e+62   1.55458e+61   1.72837e+65 -2.57194e+135  2.49181e+202   5.07146e+67   -1.3296e+67  -3.09553e+67   4.44242e+67   9.83856e+66  -3.02538e+67   2.36711e+66
   2.80803e+60   2.92741e+62   5.63955e+61   2.63386e+68   8.4135e+135  3.75847e+202   2.46898e+68   1.12205e+67   2.97861e+67   2.22379e+68   9.86193e+66  -3.00292e+67   6.38041e+66
   4.20405e+60   2.89963e+62   5.60911e+61   2.62772e+68  8.52544e+135   4.6163e+202   2.46016e+68   1.10789e+67   2.96951e+67   2.21998e+68  -9.76079e+66  -2.67031e+67   6.85519e+66
   1.13236e+60   2.89159e+62   1.54249e+61   1.19224e+65 -2.37664e+135  2.51457e+202    4.8751e+67  -1.33084e+67  -3.09171e+67   4.43447e+67  -9.78417e+66   -2.6927e+67   2.47791e+66
   7.56742e+59   2.52573e+62   1.43881e+61   2.29917e+66 -2.44794e+135  2.43545e+202     4.953e+67  -1.26039e+67  -3.00139e+67   4.49169e+67   9.80391e+66   2.84677e+67   2.33324e+66
   2.80021e+60   2.53368e+62   5.21846e+61    2.6768e+68   9.3455e+135  6.11755e+202   2.49614e+68   1.30747e+67   3.12278e+67   2.23377e+68   9.82671e+66   2.86923e+67   6.25719e+66
   4.19302e+60   2.50558e+62   5.18817e+61   2.67076e+68  9.06814e+135  4.98616e+202   2.49523e+68   1.29355e+67   3.11388e+67   2.23002e+68  -9.73389e+66   3.19897e+67   6.72478e+66
    1.1324e+60   2.49765e+62   1.42671e+61   2.24735e+66  -2.6418e+135  2.40833e+202   5.14476e+67  -1.26158e+67  -2.99756e+67   4.48388e+67   -9.7567e+66   3.17657e+67   2.44235e+66
  -8.43124e+49   3.36676e+62  -2.71841e+61  -1.51112e+68  3.91362e+135 -1.70855e+202   1.37554e+68  -1.14281e+67  -3.07266e+67  -1.08957e+68   9.88609e+66  -3.05419e+67   2.25407e+65
  -1.96256e+50   3.36568e+62   1.68183e+61   1.16015e+68  2.54271e+135  9.62719e+201   1.04484e+68   1.31102e+67   3.09182e+67   7.19869e+67   9.88556e+66  -3.05644e+67   4.37021e+65
   3.78924e+59    3.3602e+62   1.67941e+61   1.15967e+68   2.5503e+135  1.03066e+202   1.04394e+68    1.3099e+67   3.09059e+67   7.19621e+67  -9.90551e+66  -3.03776e+67   5.51104e+65
  -6.50212e+59   3.36128e+62  -2.71966e+61   -1.5114e+68   3.9271e+135 -1.70936e+202   1.37536e+68  -1.14347e+67  -3.07342e+67  -1.08971e+68  -9.90499e+66  -3.03549e+67  -4.06377e+64
  -7.14217e+49   2.94262e+62  -2.52579e+61  -1.52855e+68  4.19639e+135 -2.08265e+202   1.38449e+68  -1.23215e+67  -3.11739e+67  -1.09359e+68   9.85026e+66   2.91079e+67   2.21917e+65
  -1.74385e+50   2.94155e+62   1.56427e+61   1.16553e+68  2.67837e+135  1.19241e+202   1.04433e+68   1.34449e+67   3.09972e+67   7.21111e+67    9.8496e+66   2.90853e+67   4.30686e+65
   3.78912e+59   2.93601e+62   1.56185e+61   1.16505e+68  2.66355e+135  1.11474e+202    1.0445e+68   1.34337e+67   3.09846e+67   7.20864e+67  -9.87057e+66   2.92731e+67   5.43013e+65
  -6.46537e+59   2.93707e+62  -2.52704e+61  -1.52884e+68  4.18761e+135 -2.07865e+202   1.38513e+68  -1.23281e+67  -3.11819e+67  -1.09374e+68  -9.86991e+66   2.92958e+67  -4.00343e+64
  -1.96256e+50   3.36568e+62   1.68183e+61   1.98375e+65 -2.64995e+135   2.7507e+202   5.14781e+67  -1.36168e+67  -3.14448e+67     4.526e+67   9.88556e+66  -3.06713e+67   4.37021e+65
  -3.08152e+50   3.37387e+62   6.08262e+61   2.67325e+68  8.60546e+135  4.19249e+202   2.50713e+68   1.09148e+67   3.01998e+67    2.2621e+68    9.8895e+66  -3.04381e+67   6.48754e+65
   1.40824e+60   3.36839e+62   6.07903e+61   2.67288e+68  8.61219e+135  4.29702e+202    2.5066e+68   1.09062e+67   3.01996e+67   2.26182e+68  -9.90505e+66  -3.02513e+67   1.14323e+66
   3.78924e+59    3.3602e+62   1.67941e+61   1.81118e+65 -2.63822e+135  2.79327e+202   5.13639e+67  -1.36208e+67  -3.14403e+67   4.52422e+67  -9.90899e+66  -3.04844e+67   5.51104e+65
  -1.74385e+50   2.94155e+62   1.56427e+61   2.39845e+66 -2.52901e+135  2.46331e+202   5.03464e+67  -1.28985e+67  -3.04707e+67   4.57677e+67    9.8496e+66   2.89815e+67   4.30686e+65
  -2.76951e+50   2.94962e+62   5.65487e+61   2.71807e+68  9.58335e+135  5.99696e+202   2.53566e+68   1.28621e+67   3.17005e+67   2.27245e+68   9.85348e+66   2.92147e+67    6.3959e+65
   1.40453e+60   2.94407e+62   5.65127e+61   2.71771e+68  9.56775e+135  5.86433e+202   2.53558e+68   1.28537e+67   3.17005e+67   2.27217e+68  -9.86996e+66   2.94026e+67   1.12646e+66
   3.78912e+59   2.93601e+62   1.56185e+61   2.38182e+66 -2.53969e+135  2.41977e+202   5.04515e+67  -1.29023e+67  -3.04662e+67   4.57503e+67  -9.87383e+66   2.91695e+67   5.43013e+65
  -6.50212e+59   3.36128e+62  -2.71966e+61  -1.51063e+68  3.89803e+135 -1.69023e+202   1.37558e+68  -1.13842e+67  -3.07165e+67  -1.08963e+68   9.87252e+66  -3.06846e+67   2.31969e+65
   3.78924e+59    3.3602e+62   1.67941e+61   1.16003e+68  2.53382e+135  8.90415e+201   1.04512e+68   1.31473e+67   3.09141e+67   7.19412e+67   9.87307e+66  -3.07073e+67   1.42331e+66
   7.56738e+59   3.34375e+62   1.67214e+61   1.15871e+68  2.56948e+135  1.11206e+202   1.04196e+68    1.3117e+67    3.0885e+67   7.18694e+67  -9.91411e+66  -2.99565e+67   1.53694e+66
  -1.30133e+60   3.34483e+62  -2.72242e+61  -1.51039e+68  3.94065e+135 -1.71831e+202   1.37376e+68  -1.13785e+67  -3.07096e+67  -1.08951e+68  -9.91465e+66  -2.99334e+67  -2.97642e+64
  -6.46537e+59   2.93707e+62  -2.52704e+61  -1.52782e+68  4.19481e+135 -2.07756e+202   1.38374e+68  -1.22639e+67  -3.11584e+67  -1.09359e+68   9.83799e+66   2.89674e+67   2.38959e+65
   3.78912e+59   2.93601e+62   1.56185e+61   1.16539e+68  2.68625e+135  1.25777e+202   1.04379e+68   1.34808e+67   3.09925e+67   7.20656e+67   9.83819e+66   2.89447e+67    1.4024e+66
   7.56721e+59   2.91935e+62   1.55458e+61   1.16407e+68  2.63269e+135  1.01377e+202   1.04489e+68   1.34505e+67   3.09626e+67   7.19944e+67  -9.88278e+66   2.96868e+67   1.51428e+66
  -1.29422e+60   2.92042e+62  -2.52986e+61   -1.5276e+68  4.14853e+135 -2.02478e+202   1.38517e+68  -1.22588e+67  -3.11529e+67  -1.09348e+68  -9.88298e+66   2.97099e+67  -1.87478e+64
   3.78924e+59    3.3602e+62   1.67941e+61   2.16676e+65  -2.6575e+135  2.69723e+202   5.15514e+67  -1.35725e+67  -3.14321e+67   4.52214e+67   9.86959e+66  -3.08141e+67   1.42331e+66
   1.40824e+60   3.36839e+62   6.07903e+61   2.67279e+68  8.59586e+135  4.06777e+202   2.50683e+68   1.09505e+67   3.01975e+67   2.26131e+68   9.87939e+66  -3.05811e+67   2.61533e+66
    2.8152e+60   3.35193e+62   6.06726e+61   2.67056e+68  8.61166e+135  4.39495e+202   2.50415e+68   1.08992e+67   3.01672e+67    2.2599e+68  -9.91179e+66  -2.98301e+67   3.10457e+66
   7.56738e+59   3.34375e+62   1.67214e+61   1.49705e+65 -2.61061e+135   2.8112e+202   5.10943e+67   -1.3588e+67  -3.14267e+67   4.51644e+67  -9.92159e+66  -3.00628e+67   1.53694e+66
   3.78912e+59   2.93601e+62   1.56185e+61   2.41604e+66 -2.51966e+135  2.50306e+202   5.02543e+67  -1.28552e+67  -3.04583e+67   4.57296e+67   9.83493e+66    2.8841e+67    1.4024e+66
   1.40453e+60   2.94407e+62   5.65127e+61   2.71734e+68  9.58487e+135  6.10955e+202   2.53485e+68   1.28819e+67    3.1692e+67    2.2716e+68   9.84444e+66    2.9074e+67   2.56659e+66
   2.80803e+60   2.92741e+62   5.63955e+61   2.71515e+68  9.51135e+135  5.65725e+202   2.53395e+68   1.28314e+67   3.16622e+67   2.27022e+68  -9.88034e+66   2.98164e+67   3.04831e+66
   7.56721e+59   2.91935e+62   1.55458e+61   2.35019e+66 -2.56208e+135  2.38819e+202   5.06715e+67  -1.28704e+67  -3.04529e+67   4.56735e+67  -9.88986e+66   2.95837e+67   1.51428e+66
  -1.30133e+60   3.34483e+62  -2.72242e+61  -1.51076e+68   3.9135e+135 -1.59714e+202   1.37515e+68  -1.15094e+67  -3.07183e+67  -1.08848e+68   9.88255e+66  -3.05933e+67  -1.68902e+66
   7.56738e+59   3.34375e+62   1.67214e+61   1.15939e+68  2.53593e+135  8.29645e+201   1.04431e+68   1.32111e+67   3.09005e+67   7.18271e+67   9.87868e+66  -3.06162e+67   2.40387e+66
   1.13237e+60   3.31632e+62   1.66006e+61   1.15683e+68  2.71491e+135  1.35787e+202   1.03284e+68   1.31521e+67   3.08332e+67   7.16975e+67  -9.80136e+66  -2.72367e+67   2.51657e+66
  -1.94906e+60   3.31739e+62  -2.71597e+61  -1.50752e+68  4.08346e+135 -2.01076e+202   1.36538e+68  -1.14345e+67  -3.06516e+67  -1.08666e+68  -9.79749e+66  -2.72133e+67  -1.94382e+66
  -1.29422e+60   2.92042e+62  -2.52986e+61  -1.52766e+68  4.19629e+135 -2.19098e+202   1.38351e+68  -1.23697e+67  -3.11543e+67  -1.09242e+68   9.84998e+66   2.90521e+67  -1.63129e+66
   7.56721e+59   2.91935e+62   1.55458e+61   1.16472e+68  2.67757e+135  1.29775e+202   1.04346e+68   1.35423e+67   3.09775e+67   7.19523e+67   9.84567e+66   2.90292e+67   2.36785e+66
   1.13236e+60   2.89159e+62   1.54249e+61   1.16216e+68  2.45517e+135   7.1773e+201   1.05124e+68   1.34832e+67   3.09091e+67   7.18238e+67  -9.77434e+66   3.23779e+67   2.47882e+66
  -1.93882e+60   2.89265e+62  -2.52359e+61   -1.5245e+68  3.96545e+135 -1.70748e+202   1.38837e+68  -1.22969e+67  -3.10908e+67  -1.09062e+68  -9.77003e+66   3.24012e+67  -1.88218e+66
   7.56738e+59   3.34375e+62   1.67214e+61   2.17025e+65 -2.64944e+135  2.61887e+202   5.14732e+67  -1.34939e+67  -3.14112e+67   4.51221e+67   9.87119e+66  -3.07226e+67   2.40387e+66
    2.8152e+60   3.35193e+62   6.06726e+61   2.67236e+68  8.62448e+135  3.88108e+202    2.5058e+68   1.12222e+67   3.02085e+67   2.25805e+68   9.89516e+66  -3.04904e+67   6.49765e+66
   4.21434e+60   3.32448e+62   6.03665e+61   2.66593e+68  8.73738e+135  4.76654e+202   2.49668e+68   1.10738e+67   3.01113e+67   2.25408e+68   -9.7877e+66  -2.71111e+67   6.97802e+66
   1.13237e+60   3.31632e+62   1.66006e+61   1.54013e+65  -2.4478e+135  2.64001e+202   4.94755e+67  -1.35084e+67  -3.13746e+67    4.5037e+67  -9.81166e+66  -2.73427e+67   2.51657e+66
   7.56721e+59   2.91935e+62   1.55458e+61   2.41487e+66  -2.5222e+135   2.5542e+202   5.02795e+67  -1.27786e+67  -3.04379e+67   4.56314e+67    9.8386e+66   2.89261e+67   2.36785e+66
   2.80803e+60   2.92741e+62   5.63955e+61   2.71657e+68  9.59577e+135  6.35464e+202   2.53381e+68   1.31294e+67   3.16949e+67   2.26833e+68   9.86197e+66   2.91583e+67   6.36795e+66
   4.20405e+60   2.89963e+62   5.60911e+61   2.71025e+68  9.30703e+135  5.17906e+202   2.53274e+68   1.29836e+67   3.15997e+67   2.26442e+68  -9.76075e+66   3.25068e+67   6.84093e+66
   1.13236e+60   2.89159e+62   1.54249e+61    2.3538e+66 -2.72205e+135  2.53013e+202   5.22263e+67  -1.27927e+67  -3.04014e+67   4.55479e+67  -9.78413e+66   3.22752e+67   2.47882e+66
   -9.7653e+49   3.82216e+62  -2.91418e+61  -1.53276e+68  4.00952e+135  -1.7673e+202   1.39585e+68  -1.14304e+67  -3.11782e+67  -1.10667e+68   9.91921e+66  -3.10452e+67   2.27743e+65
  -2.19414e+50   3.82107e+62   1.80124e+61   1.17782e+68  2.61942e+135  1.01956e+202   1.06081e+68   1.33004e+67   3.13736e+67   7.31076e+67   9.91877e+66  -3.10691e+67    4.4372e+65
   3.78939e+59   3.81565e+62   1.79882e+61   1.17732e+68  2.62736e+135  1.09028e+202   1.05988e+68    1.3289e+67   3.13613e+67   7.30819e+67  -9.93822e+66  -3.08777e+67   5.59674e+65
  -6.53624e+59   3.81674e+62  -2.91542e+61  -1.53295e+68  4.02274e+135 -1.76722e+202   1.39559e+68  -1.14349e+67  -3.11835e+67  -1.10677e+68  -9.93778e+66  -3.08537e+67  -3.73881e+64
  -8.43124e+49   3.36676e+62  -2.71841e+61  -1.55047e+68  4.30243e+135 -2.15746e+202   1.40489e+68  -1.23363e+67  -3.16347e+67  -1.11076e+68   9.88609e+66   2.95664e+67    2.2541e+65
  -1.96256e+50   3.36568e+62   1.68183e+61   1.18333e+68  2.76123e+135  1.26141e+202   1.06025e+68    1.3645e+67   3.14529e+67   7.32347e+67   9.88557e+66   2.95425e+67    4.3702e+65
   3.78924e+59    3.3602e+62   1.67941e+61   1.18283e+68  2.74598e+135  1.18103e+202   1.06042e+68   1.36336e+67   3.14404e+67   7.32093e+67  -9.90551e+66   2.97334e+67   5.51162e+65
  -6.50212e+59   3.36128e+62  -2.71966e+61  -1.55067e+68  4.29253e+135  -2.1528e+202   1.40546e+68  -1.23408e+67  -3.16404e+67  -1.11086e+68  -9.90498e+66   2.97574e+67  -3.55782e+64
  -2.19414e+50   3.82107e+62   1.80124e+61   2.42442e+65 -2.73282e+135  2.89356e+202   5.22769e+67   -1.3824e+67  -3.19167e+67   4.59832e+67   9.91877e+66  -3.11794e+67    4.4372e+65
  -3.40647e+50   3.82938e+62   6.51723e+61   2.71299e+68    8.821e+135  4.32461e+202   2.54524e+68   1.08996e+67   3.06349e+67   2.29765e+68    9.9228e+66  -3.09383e+67   6.59804e+65
   1.41169e+60   3.82397e+62   6.51363e+61    2.7125e+68  8.82651e+135  4.43063e+202    2.5446e+68   1.08883e+67    3.0632e+67    2.2973e+68  -9.93784e+66  -3.07469e+67   1.15708e+66
   3.78939e+59   3.81565e+62   1.79882e+61   2.23512e+65 -2.72056e+135  2.93745e+202   5.21595e+67  -1.38284e+67  -3.19126e+67   4.59645e+67  -9.94187e+66  -3.09879e+67   5.59674e+65
  -1.96256e+50   3.36568e+62   1.68183e+61   2.51578e+66 -2.60598e+135  2.58564e+202   5.11107e+67   -1.3082e+67    -3.091e+67   4.65078e+67   9.88557e+66   2.94356e+67    4.3702e+65
  -3.08152e+50   3.37387e+62   6.08262e+61   2.75896e+68  9.83941e+135  6.21985e+202   2.57448e+68   1.28929e+67   3.21778e+67   2.30826e+68   9.88951e+66   2.96767e+67   6.48749e+65
   1.40824e+60   3.36839e+62   6.07903e+61   2.75848e+68  9.82174e+135  6.08072e+202   2.57431e+68   1.28818e+67   3.21751e+67   2.30791e+68  -9.90504e+66   2.98676e+67   1.13825e+66
   3.78924e+59    3.3602e+62   1.67941e+61    2.4974e+66 -2.61695e+135  2.54096e+202   5.12171e+67  -1.30862e+67  -3.09058e+67   4.64895e+67  -9.90899e+66   2.96266e+67   5.51162e+65
  -6.53624e+59   3.81674e+62  -2.91542e+61  -1.53235e+68    3.995e+135 -1.75036e+202   1.39592e+68  -1.13933e+67  -3.11695e+67  -1.10672e+68   9.90477e+66  -3.11844e+67   2.26663e+65
   3.78939e+59   3.81565e+62   1.79882e+61   1.17769e+68  2.61067e+135  9.45134e+201   1.06108e+68   1.33384e+67   3.13698e+67   7.30609e+67   9.90551e+66  -3.12085e+67   1.44541e+66
   7.56761e+59    3.7994e+62   1.79156e+61   1.17634e+68  2.64817e+135  1.17645e+202   1.05781e+68   1.33072e+67   3.13402e+67   7.29865e+67  -9.94442e+66  -3.04336e+67   1.56088e+66
    -1.308e+60   3.80049e+62  -2.91811e+61  -1.53186e+68  4.03779e+135 -1.77912e+202   1.39385e+68  -1.13821e+67  -3.11567e+67  -1.10647e+68  -9.94517e+66  -3.04094e+67   -3.5685e+64
  -6.50212e+59   3.36128e+62  -2.71966e+61   -1.5499e+68  4.30286e+135 -2.15612e+202   1.40424e+68  -1.22903e+67  -3.16226e+67  -1.11077e+68   9.87254e+66   2.94278e+67   2.37034e+65
   3.78924e+59    3.3602e+62   1.67941e+61   1.18319e+68  2.76921e+135  1.32905e+202   1.05972e+68   1.36818e+67   3.14486e+67   7.31884e+67   9.87309e+66   2.94038e+67   1.42337e+66
   7.56738e+59   3.34375e+62   1.67214e+61   1.18185e+68  2.71352e+135  1.07564e+202   1.06085e+68   1.36508e+67   3.14188e+67   7.31149e+67  -9.91409e+66   3.01659e+67   1.53704e+66
  -1.30133e+60   3.34483e+62  -2.72242e+61  -1.54943e+68  4.25258e+135 -2.09857e+202   1.40552e+68  -1.22796e+67  -3.16107e+67  -1.11053e+68  -9.91463e+66   3.01902e+67   -2.1215e+64
   3.78939e+59   3.81565e+62   1.79882e+61   2.60528e+65 -2.74022e+135  2.83776e+202   5.23478e+67  -1.37789e+67   -3.1904e+67   4.59435e+67   9.90186e+66  -3.13186e+67   1.44541e+66
   1.41169e+60   3.82397e+62   6.51363e+61    2.7126e+68  8.81389e+135  4.20091e+202   2.54496e+68    1.0944e+67   3.06344e+67   2.29682e+68   9.91197e+66  -3.10778e+67   2.66475e+66
   2.82193e+60   3.80771e+62   6.50179e+61   2.71006e+68  8.82708e+135  4.53586e+202   2.54199e+68   1.08853e+67   3.05968e+67   2.29523e+68  -9.94212e+66  -3.03029e+67   3.15826e+66
   7.56761e+59    3.7994e+62   1.79156e+61   1.89243e+65 -2.69097e+135  2.95435e+202   5.18749e+67  -1.37954e+67  -3.18993e+67   4.58839e+67  -9.95223e+66  -3.05434e+67   1.56088e+66
   3.78924e+59    3.3602e+62   1.67941e+61   2.53296e+66 -2.59653e+135  2.62695e+202   5.10191e+67   -1.3038e+67  -3.08976e+67   4.64686e+67   9.86961e+66    2.9297e+67   1.42337e+66
   1.40824e+60   3.36839e+62   6.07903e+61   2.75839e+68  9.84515e+135  6.34637e+202   2.57375e+68   1.29261e+67   3.21731e+67    2.3074e+68   9.87941e+66   2.95378e+67   2.61034e+66
    2.8152e+60   3.35193e+62   6.06726e+61   2.75588e+68  9.76488e+135  5.87188e+202   2.57263e+68   1.28682e+67   3.21361e+67   2.30584e+68  -9.91178e+66   3.03001e+67   3.09613e+66
   7.56738e+59   3.34375e+62   1.67214e+61   2.46278e+66 -2.64068e+135  2.50995e+202   5.14465e+67  -1.30542e+67  -3.08929e+67   4.64099e+67  -9.92157e+66   3.00596e+67   1.53704e+66
    -1.308e+60   3.80049e+62  -2.91811e+61  -1.53244e+68  4.01261e+135 -1.65594e+202   1.39539e+68  -1.15272e+67  -3.11701e+67  -1.10547e+68   9.91393e+66  -3.10714e+67  -1.74051e+66
   7.56761e+59    3.7994e+62   1.79156e+61   1.17704e+68  2.61413e+135  8.84108e+201   1.06019e+68   1.34036e+67   3.13563e+67   7.29438e+67   9.91024e+66  -3.10955e+67   2.44173e+66
   1.13239e+60   3.77231e+62   1.77948e+61   1.17441e+68  2.79845e+135  1.43351e+202   1.04852e+68   1.33431e+67    3.1288e+67   7.28103e+67  -9.82841e+66  -2.76678e+67   2.55632e+66
  -1.95878e+60    3.7734e+62  -2.91147e+61  -1.52909e+68   4.1872e+135 -2.08572e+202   1.38542e+68  -1.14498e+67  -3.11005e+67  -1.10358e+68  -9.82472e+66  -2.76435e+67  -1.99783e+66
  -1.30133e+60   3.34483e+62  -2.72242e+61  -1.54981e+68  4.30504e+135 -2.27715e+202   1.40407e+68  -1.24105e+67  -3.16194e+67  -1.10951e+68   9.88257e+66   2.95303e+67  -1.68047e+66
   7.56738e+59   3.34375e+62   1.67214e+61   1.18252e+68  2.75945e+135  1.36941e+202   1.05944e+68   1.37449e+67   3.14343e+67   7.30726e+67    9.8787e+66   2.95062e+67   2.40396e+66
   1.13237e+60   3.31632e+62   1.66006e+61   1.17992e+68  2.53037e+135  7.66598e+201   1.06732e+68   1.36849e+67   3.13661e+67   7.29407e+67  -9.80133e+66   3.29017e+67   2.51676e+66
  -1.94906e+60   3.31739e+62  -2.71597e+61  -1.54653e+68  4.06649e+135 -1.77381e+202   1.40894e+68  -1.23348e+67  -3.15519e+67  -1.10766e+68  -9.79746e+66    3.2926e+67  -1.93377e+66
   7.56761e+59    3.7994e+62   1.79156e+61   2.58935e+65 -2.73056e+135  2.75476e+202   5.22554e+67   -1.3699e+67  -3.18832e+67   4.58411e+67   9.90243e+66  -3.12052e+67   2.44173e+66
   2.82193e+60   3.80771e+62   6.50179e+61   2.71211e+68  8.84553e+135  4.01207e+202   2.54381e+68   1.12272e+67   3.06442e+67   2.29339e+68   9.92702e+66  -3.09652e+67   6.62474e+66
   4.22412e+60   3.78061e+62     6.471e+61   2.70544e+68  8.95996e+135  4.92754e+202   2.53445e+68   1.10734e+67    3.0542e+67   2.28929e+68  -9.81453e+66  -2.75378e+67   7.11137e+66
   1.13239e+60   3.77231e+62   1.77948e+61    1.8976e+65 -2.52271e+135  2.77424e+202    5.0227e+67   -1.3715e+67  -3.18475e+67   4.57523e+67  -9.83912e+66  -2.77772e+67   2.55632e+66
   7.56738e+59   3.34375e+62   1.67214e+61   2.53009e+66 -2.60003e+135  2.68127e+202   5.10532e+67  -1.29601e+67  -3.08774e+67   4.63675e+67   9.87122e+66   2.93998e+67   2.40396e+66
    2.8152e+60   3.35193e+62   6.06726e+61   2.75768e+68  9.85882e+135  6.60985e+202   2.57272e+68   1.31912e+67   3.21775e+67   2.30399e+68   9.89518e+66   2.96399e+67   6.48921e+66
   4.21434e+60   3.32448e+62   6.03665e+61   2.75113e+68  9.55942e+135  5.38772e+202   2.57153e+68   1.30401e+67   3.20774e+67   2.29995e+68  -9.78767e+66   3.30352e+67   6.96823e+66
   1.13237e+60   3.31632e+62   1.66006e+61   2.46297e+66 -2.80585e+135  2.65972e+202   5.30275e+67  -1.29756e+67  -3.08417e+67   4.62803e+67  -9.81164e+66   3.27958e+67   2.51676e+66
  -1.11238e+50   4.30932e+62  -3.11319e+61  -1.55515e+68  4.11074e+135  -1.8315e+202   1.41683e+68  -1.14401e+67  -3.16446e+67   -1.1243e+68   9.95057e+66  -3.15631e+67   2.29275e+65
  -2.42965e+50   4.30822e+62   1.92256e+61   1.19606e+68  2.70009e+135  1.08099e+202   1.07729e+68   1.34972e+67    3.1845e+67   7.42641e+67   9.95017e+66  -3.15883e+67   4.50755e+65
    3.7895e+59   4.30287e+62   1.92014e+61   1.19556e+68  2.70839e+135  1.15459e+202   1.07634e+68   1.34855e+67   3.18324e+67   7.42377e+67  -9.96946e+66  -3.13923e+67     5.685e+65
  -6.56871e+59   4.30398e+62  -3.11442e+61  -1.55528e+68  4.12394e+135 -1.83096e+202   1.41651e+68  -1.14432e+67  -3.16484e+67  -1.12436e+68  -9.96906e+66  -3.13672e+67  -3.68939e+64
   -9.7653e+49   3.82216e+62  -2.91418e+61  -1.57326e+68  4.41551e+135 -2.24109e+202   1.42604e+68   -1.2365e+67  -3.21127e+67  -1.12848e+68   9.91922e+66   3.00393e+67   2.27745e+65
  -2.19414e+50   3.82107e+62   1.80124e+61   1.20172e+68  2.84838e+135  1.33597e+202    1.0767e+68    1.3852e+67   3.19252e+67   7.43947e+67   9.91877e+66   3.00142e+67   4.43719e+65
   3.78939e+59   3.81565e+62   1.79882e+61   1.20122e+68  2.83264e+135  1.25261e+202   1.07687e+68   1.38404e+67   3.19127e+67   7.43685e+67  -9.93821e+66   3.02085e+67   5.59595e+65
  -6.53624e+59   3.81674e+62  -2.91542e+61  -1.57339e+68   4.4047e+135  -2.2357e+202   1.42657e+68  -1.23681e+67  -3.21167e+67  -1.12854e+68  -9.93777e+66   3.02337e+67  -3.41991e+64
  -2.42965e+50   4.30822e+62   1.92256e+61   2.84398e+65 -2.81955e+135  3.04628e+202   5.31002e+67  -1.40386e+67  -3.24053e+67   4.67283e+67   9.95017e+66  -3.17021e+67   4.50755e+65
  -3.74636e+50   4.31666e+62   6.95891e+61   2.75405e+68  9.04797e+135  4.46861e+202   2.58457e+68   1.08912e+67    3.1084e+67    2.3343e+68   9.95431e+66  -3.14529e+67   6.72335e+65
   1.41497e+60   4.31131e+62   6.95529e+61   2.75347e+68  9.05267e+135  4.57695e+202   2.58386e+68   1.08779e+67   3.10792e+67    2.3339e+68  -9.96914e+66   -3.1257e+67   1.17421e+66
    3.7895e+59   4.30287e+62   1.92014e+61   2.64149e+65 -2.80678e+135  3.09152e+202   5.29797e+67  -1.40433e+67  -3.24014e+67   4.67089e+67  -9.97327e+66  -3.15061e+67     5.685e+65
  -2.19414e+50   3.82107e+62   1.80124e+61   2.63281e+66 -2.68656e+135  2.71657e+202   5.18988e+67  -1.32724e+67  -3.13651e+67   4.72703e+67   9.91877e+66   2.99039e+67   4.43719e+65
  -3.40647e+50   3.82938e+62   6.51723e+61   2.80131e+68  1.01113e+136  6.46621e+202   2.61462e+68   1.29378e+67    3.2673e+67    2.3452e+68    9.9228e+66   3.01531e+67   6.59801e+65
   1.41169e+60   3.82397e+62   6.51363e+61   2.80075e+68  1.00919e+136  6.32053e+202   2.61438e+68   1.29248e+67   3.26684e+67   2.34481e+68  -9.93784e+66   3.03474e+67   1.15371e+66
   3.78939e+59   3.81565e+62   1.79882e+61   2.61308e+66 -2.69789e+135  2.67067e+202   5.20069e+67  -1.32769e+67  -3.13611e+67   4.72512e+67  -9.94187e+66   3.00984e+67   5.59595e+65
  -6.56871e+59   4.30398e+62  -3.11442e+61  -1.55478e+68  4.09698e+135 -1.81516e+202   1.41691e+68  -1.14078e+67  -3.16369e+67  -1.12433e+68   9.93547e+66  -3.16989e+67   2.16899e+65
    3.7895e+59   4.30287e+62   1.92014e+61   1.19594e+68  2.69145e+135   1.0043e+202   1.07756e+68   1.35361e+67   3.18413e+67   7.42165e+67   9.93633e+66  -3.17241e+67   1.46838e+66
   7.56777e+59   4.28683e+62   1.91288e+61   1.19455e+68  2.73085e+135  1.24565e+202   1.07418e+68   1.35041e+67    3.1811e+67   7.41399e+67  -9.97403e+66  -3.09255e+67   1.58568e+66
  -1.31438e+60   4.28793e+62  -3.11702e+61  -1.55412e+68  4.14052e+135 -1.84579e+202   1.41466e+68  -1.13926e+67    -3.162e+67    -1.124e+68  -9.97489e+66  -3.09002e+67    -4.735e+64
  -6.53624e+59   3.81674e+62  -2.91542e+61  -1.57278e+68  4.41718e+135 -2.24252e+202   1.42546e+68  -1.23266e+67  -3.21027e+67  -1.12849e+68   9.90478e+66    2.9903e+67   2.29857e+65
   3.78939e+59   3.81565e+62   1.79882e+61   1.20159e+68  2.85644e+135   1.4059e+202   1.07618e+68   1.38899e+67   3.19212e+67   7.43475e+67   9.90553e+66   2.98778e+67   1.44533e+66
   7.56761e+59    3.7994e+62   1.79156e+61   1.20021e+68  2.79843e+135  1.14225e+202   1.07734e+68   1.38582e+67   3.18911e+67   7.42721e+67  -9.94441e+66    3.0661e+67   1.56076e+66
    -1.308e+60   3.80049e+62  -2.91811e+61  -1.57214e+68  4.36333e+135 -2.17971e+202   1.42664e+68  -1.23118e+67  -3.20864e+67  -1.12816e+68  -9.94516e+66   3.06863e+67  -3.01972e+64
    3.7895e+59   4.30287e+62   1.92014e+61   3.02402e+65 -2.82682e+135  2.98804e+202   5.31687e+67  -1.39927e+67  -3.23926e+67   4.66877e+67   9.93252e+66  -3.18378e+67   1.46838e+66
   1.41497e+60   4.31131e+62   6.95529e+61   2.75371e+68   9.0427e+135   4.3441e+202    2.5843e+68   1.09421e+67   3.10847e+67   2.33344e+68   9.94297e+66  -3.15889e+67   2.72042e+66
   2.82836e+60   4.29527e+62   6.94337e+61   2.75092e+68  9.05435e+135  4.68921e+202   2.58111e+68   1.08778e+67    3.1042e+67   2.33172e+68  -9.97166e+66  -3.07903e+67   3.21945e+66
   7.56777e+59   4.28683e+62   1.91288e+61   2.27996e+65 -2.77517e+135   3.1072e+202   5.26804e+67  -1.40098e+67  -3.23882e+67    4.6626e+67  -9.98212e+66  -3.10389e+67   1.58568e+66
   3.78939e+59   3.81565e+62   1.79882e+61    2.6501e+66 -2.67706e+135  2.75949e+202   5.18081e+67  -1.32275e+67  -3.13526e+67   4.72302e+67   9.90187e+66   2.97676e+67   1.44533e+66
   1.41169e+60   3.82397e+62   6.51363e+61   2.80085e+68  1.01199e+136  6.60437e+202   2.61395e+68   1.29805e+67   3.26708e+67   2.34433e+68   9.91198e+66   3.00166e+67   2.66137e+66
   2.82193e+60   3.80771e+62   6.50179e+61    2.7981e+68  1.00338e+136  6.10712e+202   2.61266e+68   1.29172e+67   3.26287e+67   2.34264e+68   -9.9421e+66   3.07998e+67   3.15248e+66
   7.56761e+59    3.7994e+62   1.79156e+61   2.57679e+66 -2.72308e+135  2.64015e+202   5.22467e+67  -1.32444e+67  -3.13483e+67   4.71695e+67  -9.95222e+66   3.05512e+67   1.56076e+66
  -1.31438e+60   4.28793e+62  -3.11702e+61  -1.55485e+68  4.11665e+135 -1.71878e+202    1.4163e+68  -1.15486e+67  -3.16367e+67    -1.123e+68   9.94444e+66  -3.15642e+67  -1.79755e+66
   7.56777e+59   4.28683e+62   1.91288e+61   1.19527e+68  2.69628e+135  9.42895e+201   1.07658e+68   1.36024e+67   3.18275e+67   7.40967e+67   9.94079e+66  -3.15893e+67   2.48088e+66
   1.13241e+60   4.26009e+62    1.9008e+61   1.19259e+68  2.88596e+135  1.51424e+202   1.06475e+68   1.35407e+67   3.17583e+67   7.39603e+67  -9.85537e+66  -2.81163e+67   2.59736e+66
  -1.96815e+60   4.26119e+62   -3.1102e+61  -1.55139e+68   4.2959e+135 -2.16577e+202   1.40614e+68  -1.14688e+67  -3.15645e+67  -1.12106e+68  -9.85172e+66  -2.80911e+67  -2.05786e+66
    -1.308e+60   3.80049e+62  -2.91811e+61  -1.57273e+68  4.41936e+135 -2.36996e+202   1.42532e+68  -1.24569e+67  -3.20998e+67  -1.12716e+68   9.91394e+66   3.00243e+67  -1.73502e+66
   7.56761e+59    3.7994e+62   1.79156e+61   1.20091e+68  2.84542e+135  1.44636e+202   1.07594e+68   1.39546e+67   3.19072e+67   7.42293e+67   9.91026e+66   2.99991e+67   2.44161e+66
   1.13239e+60   3.77231e+62   1.77948e+61   1.19827e+68  2.60958e+135  8.19508e+201   1.08393e+68   1.38936e+67   3.18386e+67   7.40949e+67  -9.82839e+66    3.3439e+67   2.55624e+66
  -1.95878e+60    3.7734e+62  -2.91147e+61  -1.56933e+68  4.17315e+135 -1.84538e+202   1.43021e+68  -1.23786e+67  -3.20292e+67  -1.12525e+68  -9.82471e+66   3.34642e+67   -1.9912e+66
   7.56777e+59   4.28683e+62   1.91288e+61    2.9963e+65 -2.81553e+135  2.90009e+202   5.30625e+67  -1.39115e+67  -3.23716e+67   4.65828e+67    9.9327e+66  -3.17027e+67   2.48088e+66
   2.82836e+60   4.29527e+62   6.94337e+61   2.75316e+68  9.07711e+135  4.15158e+202   2.58306e+68   1.12349e+67   3.10937e+67   2.32988e+68   9.95796e+66  -3.14546e+67   6.76003e+66
   4.23354e+60   4.26851e+62   6.91239e+61    2.7463e+68  9.19345e+135  5.09926e+202   2.57348e+68   1.10765e+67   3.09875e+67   2.32566e+68  -9.84117e+66   -2.7982e+67   7.25341e+66
   1.13241e+60   4.26009e+62    1.9008e+61   2.26462e+65  -2.6015e+135   2.9178e+202   5.10054e+67  -1.39284e+67  -3.23363e+67   4.64912e+67  -9.86642e+66  -2.82294e+67   2.59736e+66
   7.56761e+59    3.7994e+62   1.79156e+61   2.64648e+66 -2.68164e+135  2.81712e+202   5.18522e+67   -1.3148e+67  -3.13322e+67   4.71267e+67   9.90245e+66   2.98893e+67   2.44161e+66
   2.82193e+60   3.80771e+62   6.50179e+61   2.80016e+68  1.01352e+136  6.88354e+202   2.61292e+68   1.32592e+67   3.26761e+67    2.3408e+68   9.92704e+66   3.01375e+67   6.61897e+66
   4.22412e+60   3.78061e+62     6.471e+61   2.79341e+68  9.82541e+135  5.61232e+202   2.61163e+68   1.31035e+67   3.25721e+67   2.33666e+68  -9.81451e+66    3.3577e+67   7.10452e+66
   1.13239e+60   3.77231e+62   1.77948e+61   2.57536e+66 -2.89352e+135  2.79778e+202    5.3853e+67  -1.31645e+67   -3.1297e+67   4.70368e+67   -9.8391e+66   3.33296e+67   2.55624e+66
  -1.24713e+50   4.82877e+62  -3.31554e+61  -1.57831e+68  4.21729e+135 -1.90087e+202   1.43851e+68  -1.14551e+67  -3.21265e+67  -1.14249e+68   9.98073e+66   -3.2097e+67   2.30191e+65
  -2.67526e+50   4.82766e+62   2.04586e+61   1.21492e+68  2.78487e+135  1.14721e+202   1.09432e+68   1.37009e+67   3.23325e+67   7.54583e+67   9.98036e+66  -3.21233e+67   4.58091e+65
   3.78956e+59   4.82238e+62   2.04344e+61    1.2144e+68  2.79354e+135  1.22381e+202   1.09335e+68    1.3689e+67   3.23198e+67   7.54312e+67  -9.99971e+66  -3.19227e+67    5.7767e+65
  -6.60008e+59    4.8235e+62  -3.31675e+61  -1.57839e+68   4.2306e+135 -1.90017e+202   1.43815e+68  -1.14571e+67  -3.21292e+67  -1.14253e+68  -9.99934e+66  -3.18965e+67  -3.81934e+64
  -1.11238e+50   4.30932e+62  -3.11319e+61  -1.59689e+68   4.5353e+135 -2.33272e+202   1.44794e+68  -1.24035e+67  -3.26079e+67  -1.14678e+68   9.95057e+66   3.05272e+67   2.29277e+65
  -2.42965e+50   4.30822e+62   1.92256e+61   1.22073e+68  2.94005e+135  1.41637e+202    1.0937e+68   1.40666e+67   3.24143e+67   7.55925e+67   9.95018e+66   3.05009e+67   4.50754e+65
    3.7895e+59   4.30287e+62   1.92014e+61   1.22022e+68  2.92377e+135  1.32979e+202   1.09388e+68   1.40548e+67   3.24017e+67   7.55658e+67  -9.96946e+66   3.06991e+67   5.68404e+65
  -6.56871e+59   4.30398e+62  -3.11442e+61  -1.59698e+68  4.52367e+135 -2.32648e+202   1.44844e+68  -1.24055e+67  -3.26107e+67  -1.14682e+68  -9.96906e+66   3.07254e+67  -3.47789e+64
  -2.67526e+50   4.82766e+62   2.04586e+61   3.24975e+65 -2.91046e+135  3.20965e+202   5.39497e+67  -1.42607e+67  -3.29111e+67   4.74968e+67   9.98036e+66  -3.22408e+67   4.58091e+65
  -4.10087e+50   4.83623e+62   7.40787e+61   2.79647e+68  9.28647e+135  4.62373e+202   2.62518e+68   1.08874e+67   3.15477e+67   2.37211e+68   9.98461e+66  -3.19832e+67   6.86089e+65
   1.41812e+60   4.83095e+62   7.40424e+61   2.79582e+68  9.29064e+135  4.73505e+202   2.62442e+68   1.08725e+67   3.15415e+67   2.37168e+68  -9.99941e+66  -3.17827e+67   1.19384e+66
   3.78956e+59   4.82238e+62   2.04344e+61   3.03761e+65 -2.89716e+135  3.25624e+202   5.38261e+67  -1.42656e+67  -3.29074e+67   4.74767e+67  -1.00037e+67  -3.20402e+67    5.7767e+65
  -2.42965e+50   4.30822e+62   1.92256e+61   2.75147e+66   -2.771e+135  2.85654e+202   5.27121e+67  -1.34693e+67   -3.1836e+67   4.80567e+67   9.95018e+66   3.03871e+67   4.50754e+65
  -3.74636e+50   4.31666e+62   6.95891e+61   2.84515e+68  1.03988e+136  6.73487e+202   2.65612e+68   1.29936e+67   3.31863e+67   2.38335e+68   9.95431e+66   3.06447e+67   6.72332e+65
   1.41497e+60   4.31131e+62   6.95529e+61   2.84452e+68   1.0378e+136  6.58245e+202   2.65584e+68    1.2979e+67   3.31803e+67   2.38292e+68  -9.96913e+66   3.08429e+67   1.17189e+66
    3.7895e+59   4.30287e+62   1.92014e+61   2.73075e+66 -2.78273e+135  2.80935e+202   5.28222e+67   -1.3474e+67  -3.18322e+67    4.8037e+67  -9.97327e+66   3.05854e+67   5.68404e+65
  -6.60008e+59    4.8235e+62  -3.31675e+61  -1.57797e+68   4.2041e+135 -1.88463e+202    1.4386e+68  -1.14263e+67  -3.21195e+67  -1.14251e+68   9.96513e+66  -3.22292e+67   2.03889e+65
   3.78956e+59   4.82238e+62   2.04344e+61   1.21479e+68  2.77634e+135  1.06812e+202   1.09457e+68   1.37406e+67   3.23289e+67   7.54098e+67   9.96604e+66  -3.22555e+67   1.49226e+66
   7.56786e+59   4.80655e+62   2.03618e+61   1.21337e+68  2.81772e+135  1.31997e+202    1.0911e+68   1.37078e+67   3.22979e+67   7.53314e+67  -1.00031e+67  -3.14329e+67   1.61143e+66
  -1.32057e+60   4.80766e+62  -3.31925e+61  -1.57718e+68  4.24878e+135   -1.918e+202   1.43619e+68  -1.14081e+67  -3.20995e+67  -1.14211e+68   -1.0004e+67  -3.14066e+67  -6.30575e+64
  -6.56871e+59   4.30398e+62  -3.11442e+61  -1.59648e+68  4.53775e+135 -2.33636e+202    1.4474e+68  -1.23701e+67  -3.25992e+67  -1.14679e+68   9.93548e+66   3.03936e+67   2.19017e+65
    3.7895e+59   4.30287e+62   1.92014e+61   1.22061e+68  2.94812e+135  1.48861e+202   1.09319e+68   1.41054e+67   3.24105e+67   7.55447e+67   9.93634e+66   3.03674e+67   1.46829e+66
   7.56777e+59   4.28683e+62   1.91288e+61   1.21921e+68  2.88766e+135  1.21394e+202   1.09439e+68   1.40731e+67     3.238e+67   7.54675e+67  -9.97402e+66   3.11724e+67   1.58553e+66
  -1.31438e+60   4.28793e+62  -3.11702e+61  -1.59571e+68  4.48052e+135 -2.26777e+202   1.44853e+68  -1.23523e+67  -3.25796e+67  -1.14639e+68  -9.97488e+66   3.11988e+67  -4.36234e+64
   3.78956e+59   4.82238e+62   2.04344e+61   3.42996e+65 -2.91759e+135  3.14882e+202   5.40158e+67  -1.42139e+67  -3.28983e+67   4.74553e+67   9.96209e+66   -3.2373e+67   1.49226e+66
   1.41812e+60   4.83095e+62   7.40424e+61   2.79616e+68  9.28265e+135  4.49719e+202   2.62492e+68   1.09435e+67   3.15492e+67   2.37123e+68   9.97291e+66  -3.21156e+67   2.78117e+66
   2.83458e+60   4.81512e+62   7.39222e+61   2.79318e+68  9.29347e+135  4.85434e+202   2.62155e+68   1.08749e+67   3.15026e+67   2.36941e+68  -1.00006e+67  -3.12931e+67   3.28664e+66
   7.56786e+59   4.80655e+62   2.03618e+61    2.6644e+65 -2.86348e+135  3.27054e+202   5.35121e+67  -1.42316e+67   -3.2894e+67    4.7392e+67  -1.00114e+67  -3.15501e+67   1.61143e+66
    3.7895e+59   4.30287e+62   1.92014e+61     2.769e+66 -2.76148e+135  2.90116e+202   5.26227e+67  -1.34234e+67  -3.18234e+67   4.80158e+67   9.93253e+66   3.02536e+67   1.46829e+66
   1.41497e+60   4.31131e+62   6.95529e+61   2.84475e+68  1.04096e+136  6.88328e+202    2.6555e+68   1.30432e+67   3.31857e+67   2.38246e+68   9.94298e+66    3.0511e+67   2.71809e+66
   2.82836e+60   4.29527e+62   6.94337e+61   2.84183e+68  1.03181e+136  6.36237e+202   2.65408e+68   1.29757e+67   3.31398e+67   2.38067e+68  -9.97165e+66   3.13161e+67   3.21541e+66
   7.56777e+59   4.28683e+62   1.91288e+61   2.69352e+66 -2.80953e+135  2.77932e+202   5.30734e+67  -1.34409e+67  -3.18192e+67   4.79536e+67  -9.98211e+66   3.10591e+67   1.58553e+66
  -1.32057e+60   4.80766e+62  -3.31925e+61  -1.57802e+68  4.22581e+135 -1.78588e+202    1.4379e+68  -1.15731e+67  -3.21188e+67   -1.1411e+68   9.97432e+66  -3.20726e+67    -1.859e+66
   7.56786e+59   4.80655e+62   2.03618e+61    1.2141e+68  2.78258e+135  1.00628e+202   1.09352e+68    1.3808e+67   3.23148e+67   7.52876e+67    9.9706e+66  -3.20987e+67   2.52141e+66
   1.13242e+60   4.78016e+62    2.0241e+61   1.21138e+68  2.97771e+135  1.60053e+202   1.08152e+68   1.37452e+67   3.22445e+67   7.51486e+67  -9.88215e+66   -2.8582e+67   2.63982e+66
  -1.97729e+60   4.78127e+62  -3.31224e+61  -1.57446e+68  4.40981e+135 -2.25111e+202   1.42756e+68  -1.14909e+67  -3.20442e+67  -1.13911e+68  -9.87843e+66  -2.85558e+67  -2.12262e+66
  -1.31438e+60   4.28793e+62  -3.11702e+61  -1.59644e+68  4.53948e+135 -2.46955e+202   1.44729e+68  -1.25083e+67  -3.25964e+67  -1.14539e+68   9.94445e+66   3.05348e+67  -1.79382e+66
   7.56777e+59   4.28683e+62   1.91288e+61   1.21992e+68  2.93571e+135  1.52891e+202     1.093e+68   1.41714e+67   3.23965e+67   7.54243e+67    9.9408e+66   3.05086e+67   2.48074e+66
   1.13241e+60   4.26009e+62    1.9008e+61   1.21724e+68  2.69293e+135  8.76703e+201   1.10108e+68   1.41096e+67   3.23271e+67   7.52875e+67  -9.85536e+66   3.39914e+67   2.59723e+66
  -1.96815e+60   4.26119e+62   -3.1102e+61  -1.59294e+68  4.28551e+135 -1.92234e+202    1.4522e+68  -1.24275e+67  -3.25232e+67  -1.14343e+68  -9.85171e+66   3.40175e+67  -2.05319e+66
   7.56786e+59   4.80655e+62   2.03618e+61   3.39674e+65 -2.90463e+135  3.05558e+202   5.38957e+67  -1.41314e+67  -3.28771e+67   4.73482e+67   9.96226e+66  -3.22159e+67   2.52141e+66
   2.83458e+60   4.81512e+62   7.39222e+61   2.79557e+68  9.31976e+135  4.29996e+202   2.62359e+68   1.12449e+67   3.15577e+67   2.36755e+68   9.98823e+66  -3.19594e+67   6.90252e+66
   4.24271e+60   4.78871e+62   7.36105e+61   2.78853e+68  9.43824e+135   5.2819e+202   2.61382e+68   1.10824e+67   3.14481e+67   2.36323e+68  -9.86754e+66   -2.8443e+67   7.40307e+66
   1.13242e+60   4.78016e+62    2.0241e+61   2.63776e+65 -2.68431e+135  3.07139e+202    5.1811e+67  -1.41489e+67  -3.28418e+67   4.72545e+67  -9.89352e+66  -2.86988e+67   2.63982e+66
   7.56777e+59   4.28683e+62   1.91288e+61   2.76516e+66 -2.76728e+135  2.96233e+202   5.26775e+67  -1.33425e+67  -3.18027e+67   4.79103e+67   9.93271e+66   3.03952e+67   2.48074e+66
   2.82836e+60   4.29527e+62   6.94337e+61   2.84407e+68  1.04255e+136  7.17655e+202   2.65446e+68   1.33328e+67   3.31915e+67   2.37882e+68   9.95797e+66   3.06517e+67   6.75599e+66
   4.23354e+60   4.26851e+62   6.91239e+61   2.83715e+68  1.01054e+136  5.85348e+202   2.65309e+68   1.31731e+67    3.3084e+67   2.37458e+68  -9.84116e+66   3.41341e+67   7.24846e+66
   1.13241e+60   4.26009e+62    1.9008e+61   2.69125e+66 -2.98534e+135  2.94506e+202   5.47045e+67  -1.33596e+67  -3.17675e+67   4.78184e+67  -9.86641e+66   3.38784e+67   2.59723e+66
  -1.38677e+50   5.38105e+62  -3.52133e+61  -1.60226e+68  4.32929e+135  -1.9754e+202   1.46093e+68  -1.14742e+67  -3.26247e+67  -1.16127e+68   1.00101e+67   -3.2648e+67   2.30587e+65
  -2.92511e+50   5.37992e+62    2.1712e+61    1.2344e+68  2.87395e+135  1.21849e+202   1.11192e+68   1.39116e+67   3.28368e+67    7.6692e+67   1.00097e+67  -3.26753e+67   4.65707e+65
   3.78958e+59   5.37471e+62   2.16877e+61   1.23388e+68  2.88302e+135  1.29825e+202   1.11092e+68   1.38994e+67    3.2824e+67   7.66643e+67  -1.00292e+67    -3.247e+67   5.87207e+65
  -6.63067e+59   5.37584e+62  -3.52253e+61  -1.60231e+68  4.34282e+135 -1.97472e+202   1.46052e+68  -1.14754e+67  -3.26266e+67  -1.16129e+68  -1.00289e+67  -3.24427e+67  -4.07449e+64
  -1.24713e+50   4.82877e+62  -3.31554e+61  -1.62139e+68  4.66177e+135 -2.43206e+202   1.47062e+68  -1.24493e+67  -3.31206e+67  -1.16569e+68   9.98073e+66   3.10309e+67   2.30192e+65
  -2.67526e+50   4.82766e+62   2.04586e+61    1.2404e+68  3.03647e+135  1.50297e+202   1.11128e+68   1.42889e+67   3.29205e+67   7.68303e+67   9.98036e+66   3.10036e+67    4.5809e+65
   3.78956e+59   4.82238e+62   2.04344e+61   1.23988e+68  3.01961e+135  1.41294e+202   1.11146e+68   1.42769e+67   3.29078e+67    7.6803e+67   -9.9997e+66   3.12059e+67   5.77599e+65
  -6.60008e+59    4.8235e+62  -3.31675e+61  -1.62144e+68  4.64936e+135 -2.42485e+202   1.47109e+68  -1.24504e+67  -3.31225e+67  -1.16571e+68  -9.99934e+66   3.12333e+67  -3.66916e+64
  -2.92511e+50   5.37992e+62    2.1712e+61   3.64678e+65 -3.00586e+135  3.38453e+202    5.4827e+67  -1.44905e+67  -3.34347e+67   4.82899e+67   1.00097e+67  -3.27969e+67   4.65707e+65
  -4.46416e+50   5.38863e+62   7.86435e+61    2.8403e+68  9.53684e+135  4.78976e+202   2.66714e+68   1.08869e+67   3.20266e+67   2.41117e+68   1.00141e+67  -3.25305e+67   7.00927e+65
    1.4212e+60   5.38342e+62   7.86071e+61   2.83961e+68  9.54065e+135  4.90458e+202   2.66633e+68   1.08708e+67   3.20193e+67   2.41071e+68   -1.0029e+67  -3.23252e+67   1.21547e+66
   3.78958e+59   5.37471e+62   2.16877e+61   3.42749e+65   -2.992e+135   3.4325e+202   5.47002e+67  -1.44956e+67   -3.3431e+67   4.82693e+67  -1.00333e+67  -3.25915e+67   5.87207e+65
  -2.67526e+50   4.82766e+62   2.04586e+61   2.87291e+66 -2.85957e+135  3.00616e+202   5.35521e+67  -1.36727e+67  -3.23231e+67   4.88687e+67   9.98036e+66    3.0886e+67    4.5809e+65
  -4.10087e+50   4.83623e+62   7.40787e+61   2.89052e+68  1.07023e+136  7.02562e+202   2.69905e+68   1.30579e+67   3.37181e+67   2.42276e+68   9.98461e+66   3.11523e+67   6.86086e+65
   1.41812e+60   4.83095e+62   7.40424e+61   2.88983e+68  1.06801e+136  6.86614e+202   2.69872e+68   1.30421e+67   3.37109e+67    2.4223e+68  -9.99941e+66   3.13547e+67   1.19219e+66
   3.78956e+59   4.82238e+62   2.04344e+61   2.85147e+66 -2.87173e+135   2.9576e+202   5.36644e+67  -1.36776e+67  -3.23195e+67   4.88485e+67  -1.00037e+67   3.10884e+67   5.77599e+65
  -6.63067e+59   5.37584e+62  -3.52253e+61  -1.60195e+68  4.31659e+135 -1.95894e+202   1.46102e+68  -1.14483e+67  -3.26182e+67  -1.16129e+68   9.99403e+66  -3.27764e+67   1.88303e+65
   3.78958e+59   5.37471e+62   2.16877e+61   1.23428e+68  2.86554e+135  1.13687e+202   1.11215e+68    1.3952e+67   3.28332e+67   7.66426e+67   9.99495e+66  -3.28038e+67   1.51703e+66
    7.5679e+59   5.35909e+62   2.16151e+61   1.23283e+68  2.90901e+135   1.3998e+202   1.10859e+68   1.39185e+67   3.28016e+67   7.65626e+67  -1.00317e+67  -3.19568e+67   1.63815e+66
  -1.32662e+60   5.36023e+62  -3.52492e+61  -1.60105e+68  4.36265e+135 -1.99572e+202   1.45846e+68  -1.14276e+67  -3.25957e+67  -1.16082e+68  -1.00326e+67  -3.19294e+67   -8.1857e+64
  -6.60008e+59    4.8235e+62  -3.31675e+61  -1.62101e+68  4.66473e+135 -2.43764e+202   1.47011e+68  -1.24196e+67  -3.31128e+67  -1.16569e+68   9.96514e+66   3.09005e+67   2.05394e+65
   3.78956e+59   4.82238e+62   2.04344e+61   1.24027e+68  3.04452e+135  1.57756e+202   1.11077e+68   1.43285e+67   3.29168e+67   7.67816e+67   9.96605e+66   3.08732e+67   1.49219e+66
   7.56786e+59   4.80655e+62   2.03618e+61   1.23884e+68  2.98146e+135  1.29109e+202   1.11202e+68   1.42956e+67   3.28858e+67    7.6703e+67  -1.00031e+67   3.17011e+67   1.61132e+66
  -1.32057e+60   4.80766e+62  -3.31925e+61  -1.62013e+68  4.60414e+135  -2.3627e+202   1.47119e+68  -1.23993e+67  -3.30906e+67  -1.16523e+68   -1.0004e+67   3.17284e+67   -6.0337e+64
   3.78958e+59   5.37471e+62   2.16877e+61   3.82789e+65 -3.01284e+135  3.32097e+202   5.48906e+67   -1.4443e+67  -3.34218e+67   4.82476e+67   9.99086e+66  -3.29252e+67   1.51703e+66
    1.4212e+60   5.38342e+62   7.86071e+61   2.84002e+68  9.53427e+135  4.66035e+202   2.66689e+68   1.09475e+67   3.20288e+67   2.41026e+68   1.00021e+67  -3.26591e+67    2.8463e+66
   2.84065e+60    5.3678e+62   7.84858e+61   2.83689e+68  9.54472e+135  5.03106e+202   2.66336e+68   1.08753e+67   3.19791e+67   2.40835e+68  -1.00291e+67  -3.18122e+67   3.35888e+66
    7.5679e+59   5.35909e+62   2.16151e+61   3.04715e+65 -2.95616e+135  3.44523e+202   5.43714e+67   -1.4461e+67  -3.34173e+67   4.81831e+67  -1.00403e+67  -3.20779e+67   1.63815e+66
   3.78956e+59   4.82238e+62   2.04344e+61    2.8907e+66 -2.85006e+135  3.05262e+202   5.34642e+67   -1.3626e+67  -3.23104e+67   4.88271e+67   9.96209e+66   3.07557e+67   1.49219e+66
   1.41812e+60   4.83095e+62   7.40424e+61   2.89017e+68  1.07145e+136  7.18354e+202   2.69845e+68    1.3113e+67   3.37187e+67   2.42185e+68   9.97292e+66   3.10218e+67   2.77951e+66
   2.83458e+60   4.81512e+62   7.39222e+61   2.88709e+68   1.0618e+136  6.63779e+202   2.69694e+68   1.30419e+67   3.36696e+67   2.41997e+68  -1.00006e+67   3.18497e+67   3.28369e+66
   7.56786e+59   4.80655e+62   2.03618e+61   2.81367e+66 -2.90027e+135  2.92815e+202   5.39277e+67  -1.36438e+67  -3.23062e+67   4.87636e+67  -1.00114e+67   3.15839e+67   1.61132e+66
  -1.32662e+60   5.36023e+62  -3.52492e+61  -1.60198e+68  4.34037e+135 -1.85749e+202   1.46024e+68  -1.16004e+67   -3.2617e+67  -1.15981e+68   1.00037e+67  -3.25973e+67  -1.92425e+66
    7.5679e+59   5.35909e+62   2.16151e+61   1.23357e+68  2.87326e+135  1.07461e+202   1.11103e+68   1.40205e+67   3.28188e+67   7.65181e+67   9.99986e+66  -3.26245e+67   2.56335e+66
   1.13242e+60   5.33306e+62   2.14944e+61   1.23081e+68  3.07399e+135  1.69285e+202   1.09886e+68   1.39566e+67   3.27473e+67   7.63767e+67  -9.90867e+66  -2.90647e+67   2.68373e+66
  -1.98624e+60   5.33419e+62  -3.51772e+61  -1.59832e+68  4.52925e+135 -2.34204e+202   1.44972e+68  -1.15159e+67  -3.25402e+67  -1.15776e+68  -9.90484e+66  -2.90376e+67  -2.19144e+66
  -1.32057e+60   4.80766e+62  -3.31925e+61  -1.62097e+68  4.66568e+135 -2.57624e+202   1.47002e+68  -1.25642e+67  -3.31099e+67  -1.16423e+68   9.97433e+66   3.10625e+67  -1.85628e+66
   7.56786e+59   4.80655e+62   2.03618e+61   1.23958e+68  3.03056e+135  1.61748e+202   1.11063e+68   1.43958e+67   3.29027e+67   7.66591e+67   9.97061e+66   3.10353e+67    2.5213e+66
   1.13242e+60   4.78016e+62    2.0241e+61   1.23685e+68  2.78063e+135  9.38497e+201   1.11881e+68    1.4333e+67   3.28323e+67   7.65201e+67  -9.88214e+66   3.45604e+67   2.63971e+66
  -1.97729e+60   4.78127e+62  -3.31224e+61  -1.61736e+68  4.40377e+135 -2.00496e+202   1.47495e+68   -1.2481e+67  -3.30343e+67  -1.16221e+68  -9.87842e+66   3.45875e+67  -2.11909e+66
    7.5679e+59   5.35909e+62   2.16151e+61   3.79344e+65 -2.99813e+135  3.22205e+202   5.47565e+67   -1.4359e+67  -3.34001e+67   4.81385e+67   9.99127e+66  -3.27456e+67   2.56335e+66
   2.84065e+60    5.3678e+62   7.84858e+61    2.8394e+68   9.5741e+135   4.4577e+202   2.66548e+68   1.12569e+67    3.2037e+67   2.40646e+68    1.0018e+67  -3.24804e+67   7.05167e+66
   4.25168e+60   5.34175e+62   7.81722e+61   2.83219e+68  9.69489e+135  5.47587e+202   2.65552e+68   1.10905e+67   3.19241e+67   2.40204e+68  -9.89361e+66   -2.8921e+67   7.55973e+66
   1.13242e+60   5.33306e+62   2.14944e+61   3.01354e+65 -2.77138e+135   3.2358e+202   5.26447e+67   -1.4377e+67  -3.33646e+67    4.8043e+67  -9.92036e+66  -2.91854e+67   2.68373e+66
   7.56786e+59   4.80655e+62   2.03618e+61    2.8869e+66 -2.85719e+135  3.11756e+202   5.35306e+67  -1.35436e+67  -3.22893e+67   4.87197e+67   9.96227e+66   3.09181e+67    2.5213e+66
   2.83458e+60   4.81512e+62   7.39222e+61   2.88947e+68  1.07307e+136   7.4901e+202   2.69741e+68    1.3412e+67   3.37247e+67   2.41811e+68   9.98824e+66   3.11834e+67   6.89957e+66
   4.24271e+60   4.78871e+62   7.36105e+61   2.88239e+68     1.04e+136  6.11218e+202   2.69595e+68   1.32484e+67    3.3614e+67   2.41376e+68  -9.86753e+66   3.47081e+67   7.39931e+66
   1.13242e+60   4.78016e+62    2.0241e+61   2.81084e+66 -3.08162e+135  3.10235e+202   5.55834e+67  -1.35611e+67   -3.2254e+67    4.8626e+67  -9.89351e+66   3.44436e+67   2.63971e+66
  -1.52118e+50   5.96671e+62  -3.73069e+61  -1.62705e+68  4.44697e+135 -2.05523e+202   1.48411e+68  -1.14968e+67  -3.31399e+67  -1.18068e+68   1.00388e+67  -3.32173e+67   2.30509e+65
  -3.17953e+50   5.96556e+62   2.29864e+61   1.25455e+68  2.96759e+135  1.29519e+202   1.13011e+68   1.41296e+67   3.33586e+67   7.79672e+67   1.00384e+67  -3.32457e+67   4.73596e+65
   3.78959e+59   5.96043e+62   2.29621e+61   1.25402e+68  2.97709e+135   1.3783e+202   1.12909e+68   1.41172e+67   3.33456e+67    7.7939e+67  -1.00582e+67  -3.30353e+67   5.97115e+65
  -6.66065e+59   5.96157e+62  -3.73187e+61  -1.62707e+68  4.46078e+135 -2.05472e+202   1.48367e+68  -1.14972e+67   -3.3141e+67  -1.18069e+68  -1.00579e+67  -3.30069e+67  -4.42502e+64
  -1.38677e+50   5.38105e+62  -3.52133e+61  -1.64676e+68  4.79508e+135 -2.53919e+202   1.49409e+68   -1.2501e+67  -3.36515e+67  -1.18523e+68   1.00101e+67   3.15512e+67   2.30588e+65
  -2.92511e+50   5.37992e+62    2.1712e+61   1.26074e+68  3.13793e+135  1.59622e+202   1.12945e+68   1.45193e+67   3.34445e+67   7.81098e+67   1.00097e+67   3.15228e+67   4.65706e+65
   3.78958e+59   5.37471e+62   2.16877e+61   1.26021e+68  3.12045e+135   1.5025e+202   1.12964e+68   1.45071e+67   3.34316e+67   7.80821e+67  -1.00292e+67   3.17297e+67   5.87167e+65
  -6.63067e+59   5.37584e+62  -3.52253e+61  -1.64677e+68  4.78188e+135 -2.53087e+202   1.49455e+68  -1.25014e+67  -3.36526e+67  -1.18523e+68  -1.00289e+67   3.17581e+67  -3.95915e+64
  -3.17953e+50   5.96556e+62   2.29864e+61   4.03811e+65 -3.10609e+135  3.57195e+202   5.57338e+67  -1.47285e+67  -3.39768e+67   4.91091e+67   1.00384e+67  -3.33714e+67   4.73596e+65
  -4.83871e+50   5.97442e+62   8.32861e+61   2.88563e+68  9.79963e+135  4.96687e+202   2.71052e+68    1.0889e+67   3.25215e+67   2.45153e+68   1.00429e+67  -3.30958e+67   7.16788e+65
    1.4242e+60   5.96928e+62   8.32495e+61   2.88489e+68  9.80317e+135   5.0856e+202   2.70966e+68   1.08719e+67   3.25132e+67   2.45104e+68  -1.00579e+67  -3.28855e+67    1.2388e+66
   3.78959e+59   5.96043e+62   2.29621e+61   3.81315e+65 -3.09163e+135  3.62131e+202   5.56038e+67  -1.47337e+67  -3.39731e+67   4.90881e+67  -1.00624e+67  -3.31609e+67   5.97115e+65
  -2.92511e+50   5.37992e+62    2.1712e+61   2.99788e+66 -2.95256e+135  3.16619e+202   5.44201e+67  -1.38828e+67   -3.2827e+67   4.97077e+67   1.00097e+67   3.14013e+67   4.65706e+65
  -4.46416e+50   5.38863e+62   7.86435e+61   2.93747e+68  1.10223e+136  7.33895e+202   2.74345e+68   1.31294e+67    3.4269e+67   2.46349e+68   1.00141e+67   3.16768e+67   7.00925e+65
    1.4212e+60   5.38342e+62   7.86071e+61   2.93674e+68  1.09988e+136  7.17204e+202    2.7431e+68   1.31126e+67   3.42609e+67   2.46301e+68   -1.0029e+67   3.18837e+67   1.21424e+66
   3.78958e+59   5.37471e+62   2.16877e+61   2.97586e+66  -2.9652e+135  3.11619e+202   5.45349e+67  -1.38879e+67  -3.28234e+67   4.96871e+67  -1.00333e+67   3.16083e+67   5.87167e+65
  -6.66065e+59   5.96157e+62  -3.73187e+61  -1.62676e+68  4.43473e+135 -2.03833e+202   1.48421e+68  -1.14733e+67  -3.31339e+67  -1.18069e+68   1.00223e+67  -3.33416e+67    1.7049e+65
   3.78959e+59   5.96043e+62   2.29621e+61   1.25443e+68  2.95931e+135  1.21092e+202   1.13033e+68   1.41707e+67    3.3355e+67   7.79169e+67   1.00233e+67    -3.337e+67    1.5427e+66
    7.5679e+59   5.94503e+62   2.28896e+61   1.25295e+68  3.00498e+135  1.48556e+202   1.12667e+68   1.41366e+67   3.33227e+67   7.78354e+67  -1.00599e+67   -3.2498e+67   1.66585e+66
  -1.33256e+60   5.94617e+62  -3.73414e+61  -1.62576e+68  4.48237e+135 -2.07911e+202   1.48151e+68  -1.14503e+67  -3.31091e+67  -1.18017e+68  -1.00608e+67  -3.24695e+67  -1.03239e+65
  -6.63067e+59   5.37584e+62  -3.52253e+61  -1.64641e+68  4.79838e+135 -2.54662e+202    1.4936e+68  -1.24744e+67  -3.36443e+67  -1.18523e+68   9.99403e+66   3.14244e+67    1.8946e+65
   3.78958e+59   5.37471e+62   2.16877e+61   1.26061e+68  3.14592e+135   1.6732e+202   1.12896e+68   1.45597e+67   3.34409e+67   7.80604e+67   9.99496e+66    3.1396e+67   1.51699e+66
    7.5679e+59   5.35909e+62   2.16151e+61   1.25916e+68  3.08009e+135  1.37415e+202   1.13025e+68   1.45262e+67   3.34092e+67   7.79803e+67  -1.00317e+67   3.22476e+67   1.63808e+66
  -1.32662e+60   5.36023e+62  -3.52492e+61  -1.64543e+68  4.73439e+135 -2.46472e+202   1.49466e+68  -1.24517e+67  -3.36198e+67  -1.18472e+68  -1.00326e+67   3.22761e+67  -7.97073e+64
   3.78959e+59   5.96043e+62   2.29621e+61   4.22069e+65 -3.11288e+135  3.50547e+202   5.57948e+67  -1.46802e+67  -3.39637e+67    4.9066e+67    1.0019e+67  -3.34956e+67    1.5427e+66
    1.4242e+60   5.96928e+62   8.32495e+61   2.88537e+68  9.79821e+135  4.83402e+202   2.71026e+68   1.09536e+67   3.25243e+67   2.45059e+68   1.00307e+67  -3.32203e+67   2.91547e+66
    2.8466e+60   5.95388e+62   8.31271e+61    2.8821e+68  9.80857e+135   5.2196e+202   2.70659e+68   1.08782e+67   3.24718e+67    2.4486e+68  -1.00571e+67  -3.23483e+67   3.43569e+66
    7.5679e+59   5.94503e+62   2.28896e+61   3.42826e+65 -3.05352e+135  3.63226e+202   5.52597e+67  -1.46985e+67  -3.39591e+67   4.90004e+67  -1.00687e+67  -3.26232e+67   1.66585e+66
   3.78958e+59   5.37471e+62   2.16877e+61    3.0159e+66 -2.94309e+135  3.21462e+202    5.4334e+67  -1.38353e+67  -3.28141e+67   4.96654e+67   9.99086e+66   3.12746e+67   1.51699e+66
    1.4212e+60   5.38342e+62   7.86071e+61   2.93716e+68  1.10357e+136  7.50614e+202   2.74287e+68   1.31892e+67   3.42704e+67   2.46256e+68   1.00021e+67   3.15499e+67   2.84507e+66
   2.84065e+60    5.3678e+62   7.84858e+61   2.93394e+68   1.0934e+136  6.93411e+202   2.74128e+68    1.3115e+67   3.42187e+67   2.46061e+68  -1.00291e+67   3.24014e+67   3.35661e+66
    7.5679e+59   5.35909e+62   2.16151e+61   2.93766e+66 -2.99561e+135  3.08743e+202   5.48109e+67  -1.38534e+67  -3.28097e+67   4.96008e+67  -1.00403e+67   3.21265e+67   1.63808e+66
  -1.33256e+60   5.94617e+62  -3.73414e+61  -1.62677e+68  4.46065e+135 -1.93394e+202   1.48334e+68  -1.16305e+67  -3.31322e+67  -1.17914e+68   1.00326e+67  -3.31393e+67    -1.993e+66
    7.5679e+59   5.94503e+62   2.28896e+61   1.25371e+68  2.96861e+135  1.14828e+202   1.12912e+68   1.42403e+67   3.33402e+67   7.77901e+67   1.00287e+67  -3.31676e+67   2.60676e+66
   1.13242e+60   5.91935e+62   2.27688e+61   1.25089e+68   3.1751e+135  1.79174e+202   1.11679e+68   1.41753e+67   3.32674e+67   7.76464e+67  -9.93489e+66  -2.95649e+67   2.72918e+66
  -1.99503e+60    5.9205e+62  -3.72674e+61    -1.623e+68  4.65456e+135 -2.43895e+202   1.47264e+68  -1.15436e+67  -3.30531e+67  -1.17703e+68  -9.93091e+66  -2.95367e+67  -2.26396e+66
  -1.32662e+60   5.36023e+62  -3.52492e+61  -1.64636e+68  4.79833e+135 -2.69049e+202   1.49354e+68  -1.26246e+67  -3.36411e+67   -1.1837e+68   1.00037e+67   3.16082e+67   -1.9221e+66
    7.5679e+59   5.35909e+62   2.16151e+61    1.2599e+68  3.13027e+135  1.71254e+202   1.12886e+68   1.46281e+67   3.34264e+67   7.79358e+67   9.99987e+66   3.15799e+67   2.56329e+66
   1.13242e+60   5.33306e+62   2.14944e+61   1.25714e+68  2.87292e+135  1.00526e+202   1.13715e+68   1.45643e+67   3.33549e+67   7.77945e+67  -9.90866e+66   3.51472e+67   2.68367e+66
  -1.98624e+60   5.33419e+62  -3.51772e+61  -1.64265e+68  4.52824e+135 -2.09362e+202   1.49849e+68   -1.2539e+67  -3.35633e+67  -1.18163e+68  -9.90483e+66   3.51754e+67  -2.18853e+66
    7.5679e+59   5.94503e+62   2.28896e+61   4.18769e+65 -3.09634e+135  3.40044e+202   5.56463e+67  -1.45948e+67  -3.39416e+67   4.89551e+67   1.00198e+67  -3.32928e+67   2.60676e+66
    2.8466e+60   5.95388e+62   8.31271e+61   2.88472e+68  9.84084e+135  4.62539e+202   2.70879e+68    1.1271e+67   3.25322e+67   2.44669e+68   1.00474e+67  -3.30185e+67   7.20725e+66
    4.2605e+60   5.92819e+62   8.28115e+61   2.87734e+68  9.96403e+135  5.68178e+202   2.69864e+68   1.11007e+67   3.24161e+67   2.44217e+68  -9.91934e+66  -2.94162e+67   7.72317e+66
   1.13242e+60   5.91935e+62   2.27688e+61   3.38948e+65 -2.86293e+135  3.41194e+202   5.35075e+67  -1.46132e+67  -3.39058e+67   4.88579e+67   -9.9469e+66  -2.96898e+67   2.72918e+66
    7.5679e+59   5.35909e+62   2.16151e+61   3.01229e+66 -2.95165e+135  3.28361e+202   5.44126e+67  -1.37514e+67  -3.27925e+67   4.95562e+67   9.99127e+66   3.14588e+67   2.56329e+66
   2.84065e+60    5.3678e+62   7.84858e+61   2.93645e+68  1.10517e+136  7.82568e+202   2.74182e+68   1.34966e+67   3.42766e+67   2.45872e+68    1.0018e+67   3.17332e+67   7.04939e+66
   4.25168e+60   5.34175e+62   7.81722e+61    2.9292e+68  1.07101e+136  6.38971e+202   2.74029e+68   1.33293e+67   3.41627e+67   2.45428e+68  -9.89361e+66   3.53001e+67   7.55671e+66
   1.13242e+60   5.33306e+62   2.14944e+61   2.93436e+66 -3.18266e+135  3.27054e+202   5.64913e+67  -1.37694e+67   -3.2757e+67   4.94608e+67  -9.92035e+66   3.50265e+67   2.68367e+66
  -1.65489e+50   6.58633e+62  -3.94372e+61  -1.65271e+68  4.57063e+135 -2.14064e+202   1.50811e+68  -1.15225e+67   -3.3673e+67  -1.20075e+68    1.0067e+67  -3.38058e+67    2.2997e+65
  -3.43865e+50   6.58516e+62   2.42826e+61    1.2754e+68  3.06607e+135  1.37773e+202   1.14893e+68   1.43551e+67   3.38987e+67    7.9286e+67   1.00666e+67  -3.38353e+67   4.81763e+65
   3.78958e+59    6.5801e+62   2.42583e+61   1.27485e+68  3.07604e+135   1.4644e+202   1.14789e+68   1.43425e+67   3.38855e+67   7.92574e+67  -1.00867e+67  -3.36196e+67   6.07398e+65
  -6.69014e+59   6.58127e+62  -3.94488e+61   -1.6527e+68  4.58478e+135 -2.14043e+202   1.50762e+68  -1.15222e+67  -3.36734e+67  -1.20074e+68  -1.00864e+67  -3.35901e+67  -4.85511e+64
  -1.52118e+50   5.96671e+62  -3.73069e+61  -1.67304e+68  4.93554e+135 -2.65445e+202   1.51839e+68  -1.25581e+67  -3.42012e+67  -1.20545e+68   1.00388e+67   3.20891e+67    2.3051e+65
  -3.17953e+50   5.96556e+62   2.29864e+61   1.28178e+68  3.24475e+135  1.69665e+202   1.14826e+68    1.4758e+67    3.3987e+67   7.94334e+67   1.00384e+67   3.20596e+67   4.73595e+65
   3.78959e+59   5.96043e+62   2.29621e+61   1.28125e+68  3.22659e+135  1.59898e+202   1.14845e+68   1.47456e+67    3.3974e+67   7.94052e+67  -1.00582e+67   3.22714e+67   5.97101e+65
  -6.66065e+59   5.96157e+62  -3.73187e+61  -1.67303e+68  4.92153e+135 -2.64486e+202   1.51884e+68  -1.25578e+67  -3.42016e+67  -1.20543e+68  -1.00579e+67   3.23009e+67  -4.32903e+64
  -3.43865e+50   6.58516e+62   2.42826e+61    4.4253e+65 -3.21149e+135    3.773e+202   5.66717e+67  -1.49751e+67  -3.45383e+67   4.99559e+67   1.00666e+67  -3.39654e+67   4.81763e+65
  -5.22197e+50   6.59417e+62   8.80091e+61   2.93252e+68  1.00755e+136  5.15551e+202   2.75538e+68   1.08932e+67   3.30332e+67   2.49326e+68   1.00713e+67  -3.36802e+67   7.33667e+65
   1.42716e+60   6.58911e+62   8.79722e+61   2.93174e+68  1.00788e+136  5.27849e+202   2.75449e+68    1.0875e+67    3.3024e+67   2.49275e+68  -1.00865e+67  -3.34645e+67   1.26368e+66
   3.78958e+59    6.5801e+62   2.42583e+61   4.19535e+65  -3.1964e+135  3.82379e+202   5.65383e+67  -1.49804e+67  -3.45346e+67   4.99345e+67  -1.00911e+67  -3.37496e+67   6.07398e+65
  -3.17953e+50   5.96556e+62   2.29864e+61   3.12688e+66 -3.05027e+135  3.33748e+202   5.53177e+67  -1.41001e+67  -3.33484e+67   5.05754e+67   1.00384e+67   3.19339e+67   4.73595e+65
  -4.83871e+50   5.97442e+62   8.32861e+61    2.9861e+68  1.13596e+136  7.67596e+202   2.78941e+68   1.32075e+67   3.48399e+67   2.50562e+68   1.00429e+67   3.22191e+67   7.16785e+65
    1.4242e+60   5.96928e+62   8.32495e+61   2.98532e+68  1.13347e+136  7.50116e+202   2.78903e+68   1.31897e+67   3.48309e+67   2.50512e+68  -1.00579e+67   3.24308e+67   1.23782e+66
   3.78959e+59   5.96043e+62   2.29621e+61   3.10435e+66 -3.06343e+135  3.28601e+202   5.54352e+67  -1.41053e+67  -3.33448e+67   5.05544e+67  -1.00624e+67   3.21458e+67   5.97101e+65
  -6.69014e+59   6.58127e+62  -3.94488e+61  -1.65243e+68  4.55885e+135 -2.12314e+202   1.50819e+68  -1.15013e+67  -3.36673e+67  -1.20075e+68   1.00502e+67  -3.39257e+67   1.50616e+65
   3.78958e+59    6.5801e+62   2.42583e+61   1.27527e+68  3.05795e+135  1.29071e+202   1.14914e+68   1.43969e+67    3.3895e+67   7.92349e+67   1.00511e+67  -3.39553e+67   1.56929e+66
   7.56789e+59   6.56492e+62   2.41858e+61   1.27376e+68  3.10595e+135  1.57776e+202   1.14537e+68   1.43621e+67    3.3862e+67    7.9152e+67  -1.00877e+67  -3.30573e+67   1.69455e+66
   -1.3384e+60   6.56608e+62  -3.94703e+61  -1.65135e+68  4.60824e+135 -2.16847e+202   1.50536e+68  -1.14762e+67  -3.36405e+67  -1.20018e+68  -1.00886e+67  -3.30278e+67  -1.26948e+65
  -6.66065e+59   5.96157e+62  -3.73187e+61  -1.67272e+68  4.93908e+135 -2.66372e+202   1.51792e+68   -1.2534e+67  -3.41945e+67  -1.20543e+68   1.00223e+67   3.19662e+67   1.71454e+65
   3.78959e+59   5.96043e+62   2.29621e+61   1.28166e+68  3.25263e+135  1.77608e+202   1.14777e+68   1.47991e+67   3.39834e+67   7.93831e+67   1.00233e+67   3.19367e+67   1.54269e+66
    7.5679e+59   5.94503e+62   2.28896e+61   1.28018e+68  3.18388e+135  1.46361e+202   1.14911e+68    1.4765e+67   3.39511e+67   7.93016e+67  -1.00599e+67    3.2813e+67   1.66582e+66
  -1.33256e+60   5.94617e+62  -3.73414e+61  -1.67165e+68  4.87156e+135 -2.57421e+202   1.51896e+68  -1.25092e+67  -3.41679e+67  -1.20487e+68  -1.00608e+67   3.28425e+67  -1.01406e+65
   3.78958e+59    6.5801e+62   2.42583e+61   4.60989e+65 -3.21808e+135   3.7034e+202     5.673e+67   -1.4926e+67  -3.45251e+67    4.9912e+67   1.00467e+67  -3.40852e+67   1.56929e+66
   1.42716e+60   6.58911e+62   8.79722e+61   2.93228e+68  1.00752e+136  5.01878e+202   2.75513e+68   1.09617e+67   3.30365e+67    2.4923e+68   1.00588e+67  -3.38003e+67   2.98855e+66
   2.85245e+60   6.57392e+62   8.78486e+61   2.92888e+68  1.00856e+136  5.42042e+202   2.75132e+68   1.08833e+67   3.29815e+67   2.49023e+68  -1.00847e+67  -3.29024e+67   3.51684e+66
   7.56789e+59   6.56492e+62   2.41858e+61   3.80724e+65 -3.15588e+135  3.83272e+202   5.61785e+67  -1.49445e+67  -3.45201e+67   4.98453e+67  -1.00968e+67  -3.31869e+67   1.69455e+66
   3.78959e+59   5.96043e+62   2.29621e+61    3.1451e+66 -3.04086e+135  3.38802e+202   5.52336e+67  -1.40518e+67  -3.33354e+67   5.05322e+67    1.0019e+67   3.18111e+67   1.54269e+66
    1.4242e+60   5.96928e+62   8.32495e+61    2.9858e+68   1.1374e+136  7.85251e+202   2.78884e+68   1.32714e+67    3.4842e+67   2.50467e+68   1.00307e+67    3.2096e+67   2.91449e+66
    2.8466e+60   5.95388e+62   8.31271e+61   2.98246e+68   1.1267e+136  7.25256e+202   2.78718e+68   1.31942e+67   3.47877e+67   2.50264e+68  -1.00571e+67   3.29722e+67   3.43382e+66
    7.5679e+59   5.94503e+62   2.28896e+61   3.06582e+66 -3.09583e+135  3.25805e+202   5.57246e+67  -1.40701e+67  -3.33307e+67   5.04666e+67  -1.00687e+67   3.26877e+67   1.66582e+66
   -1.3384e+60   6.56608e+62  -3.94703e+61  -1.65242e+68  4.58703e+135 -2.01562e+202   1.50725e+68  -1.16635e+67  -3.36653e+67  -1.19913e+68   1.00612e+67  -3.36995e+67  -2.06515e+66
   7.56789e+59   6.56492e+62   2.41858e+61   1.27453e+68  3.06892e+135  1.22774e+202   1.14784e+68   1.44677e+67   3.38798e+67   7.91059e+67   1.00571e+67  -3.37288e+67   2.65168e+66
   1.13242e+60   6.53961e+62    2.4065e+61   1.27167e+68  3.28137e+135  1.89777e+202   1.13534e+68   1.44016e+67   3.38057e+67   7.89597e+67  -9.96078e+66  -3.00831e+67   2.77621e+66
   -2.0037e+60   6.54077e+62  -3.93943e+61  -1.64855e+68  4.78613e+135  -2.5423e+202   1.49636e+68  -1.15741e+67  -3.35839e+67  -1.19697e+68  -9.95663e+66  -3.00539e+67  -2.34004e+66
  -1.33256e+60   5.94617e+62  -3.73414e+61  -1.67265e+68  4.93784e+135 -2.81285e+202   1.51788e+68  -1.26894e+67  -3.41911e+67  -1.20384e+68   1.00327e+67   3.21727e+67  -1.99117e+66
    7.5679e+59   5.94503e+62   2.28896e+61   1.28094e+68  3.23516e+135  1.81462e+202   1.14773e+68   1.48687e+67   3.39686e+67   7.92564e+67   1.00287e+67   3.21434e+67   2.60673e+66
   1.13242e+60   5.91935e+62   2.27688e+61   1.27812e+68  2.97011e+135  1.07744e+202   1.15611e+68   1.48038e+67   3.38958e+67   7.91127e+67  -9.93489e+66    3.5753e+67   2.72915e+66
  -1.99503e+60    5.9205e+62  -3.72674e+61  -1.66884e+68  4.65926e+135  -2.1888e+202   1.52286e+68  -1.26015e+67   -3.4111e+67  -1.20171e+68  -9.93091e+66   3.57822e+67   -2.2614e+66
   7.56789e+59   6.56492e+62   2.41858e+61   4.57992e+65 -3.19957e+135   3.5918e+202   5.65666e+67   -1.4839e+67  -3.45023e+67   4.97993e+67    1.0048e+67  -3.38584e+67   2.65168e+66
   2.85245e+60   6.57392e+62   8.78486e+61    2.9316e+68  1.01208e+136  4.80373e+202   2.75358e+68    1.1287e+67   3.30443e+67   2.48829e+68   1.00764e+67  -3.35745e+67   7.36928e+66
   4.26918e+60    6.5486e+62    8.7531e+61   2.92405e+68  1.02464e+136  5.90041e+202   2.74325e+68   1.11127e+67    3.2925e+67   2.48367e+68  -9.94469e+66  -2.99293e+67   7.89336e+66
   1.13242e+60   6.53961e+62    2.4065e+61   3.76402e+65 -2.95928e+135  3.60084e+202   5.44006e+67  -1.48578e+67  -3.44661e+67   4.97003e+67  -9.97313e+66  -3.02124e+67   2.77621e+66
    7.5679e+59   5.94503e+62   2.28896e+61   3.14176e+66 -3.05099e+135  3.46138e+202    5.5325e+67  -1.39664e+67  -3.33132e+67   5.04213e+67   1.00198e+67   3.20181e+67   2.60673e+66
    2.8466e+60   5.95388e+62   8.31271e+61   2.98508e+68  1.13895e+136  8.18508e+202   2.78778e+68    1.3587e+67   3.48482e+67   2.50072e+68   1.00474e+67   3.23021e+67   7.20538e+66
    4.2605e+60   5.92819e+62   8.28115e+61   2.97766e+68  1.10367e+136   6.6876e+202   2.78617e+68   1.34158e+67   3.47311e+67   2.49619e+68  -9.91933e+66   3.59113e+67   7.72057e+66
   1.13242e+60   5.91935e+62   2.27688e+61   3.06206e+66  -3.2888e+135  3.45058e+202   5.74298e+67  -1.39848e+67  -3.32774e+67   5.03242e+67   -9.9469e+66   3.56281e+67   2.72915e+66
  -1.78667e+50    7.2405e+62  -4.16056e+61  -1.67928e+68  4.70066e+135 -2.23202e+202   1.53295e+68  -1.15512e+67  -3.42249e+67  -1.22152e+68   1.00947e+67  -3.44148e+67   2.28968e+65
  -3.69614e+50   7.23932e+62   2.56013e+61   1.29697e+68  3.16971e+135  1.46661e+202   1.16841e+68   1.45885e+67    3.4458e+67   8.06509e+67   1.00944e+67  -3.44455e+67   4.90225e+65
   3.78958e+59   7.23434e+62   2.55771e+61   1.29642e+68  3.18018e+135  1.55705e+202   1.16734e+68   1.45757e+67   3.44445e+67   8.06218e+67  -1.01148e+67  -3.42241e+67   6.18074e+65
  -6.71919e+59   7.23551e+62  -4.16169e+61  -1.67924e+68  4.71518e+135 -2.23224e+202   1.53243e+68  -1.15503e+67  -3.42246e+67  -1.22149e+68  -1.01145e+67  -3.41934e+67  -5.35653e+64
  -1.65489e+50   6.58633e+62  -3.94372e+61  -1.70028e+68  5.08356e+135 -2.77836e+202   1.54356e+68  -1.26202e+67  -3.47707e+67  -1.22637e+68    1.0067e+67   3.26454e+67   2.29972e+65
  -3.43865e+50   6.58516e+62   2.42826e+61   1.30358e+68  3.35729e+135  1.80486e+202   1.16773e+68   1.50054e+67    3.4549e+67   8.08033e+67   1.00666e+67   3.26147e+67   4.81762e+65
   3.78958e+59    6.5801e+62   2.42583e+61   1.30303e+68   3.3384e+135  1.70298e+202   1.16793e+68   1.49928e+67   3.45357e+67   8.07746e+67  -1.00867e+67   3.28318e+67   6.07407e+65
  -6.69014e+59   6.58127e+62  -3.94488e+61  -1.70024e+68  5.06869e+135 -2.76732e+202     1.544e+68  -1.26193e+67  -3.47705e+67  -1.22634e+68  -1.00864e+67   3.28624e+67  -4.76905e+64
  -3.69614e+50   7.23932e+62   2.56013e+61   4.80889e+65 -3.32244e+135  3.98894e+202   5.76426e+67  -1.52307e+67  -3.51201e+67   5.08317e+67   1.00944e+67  -3.45801e+67   4.90225e+65
  -5.60806e+50   7.24848e+62   9.28152e+61   2.98105e+68  1.03652e+136  5.35629e+202   2.80181e+68   1.08992e+67   3.35624e+67   2.53644e+68   1.00992e+67  -3.42848e+67   7.51601e+65
   1.43007e+60   7.24349e+62   9.27781e+61   2.98022e+68  1.03684e+136  5.48388e+202   2.80087e+68     1.088e+67   3.35524e+67    2.5359e+68  -1.01146e+67  -3.40634e+67   1.29007e+66
   3.78958e+59   7.23434e+62   2.55771e+61    4.5739e+65 -3.30667e+135  4.04119e+202   5.75055e+67  -1.52361e+67  -3.51164e+67   5.08099e+67  -1.01194e+67  -3.43586e+67   6.18074e+65
  -3.43865e+50   6.58516e+62   2.42826e+61   3.26033e+66 -3.15305e+135  3.52101e+202   5.62466e+67  -1.43248e+67   -3.3888e+67   5.14731e+67   1.00666e+67   3.24846e+67   4.81762e+65
  -5.22197e+50   6.59417e+62   8.80091e+61   3.03646e+68  1.17152e+136  8.03825e+202     2.837e+68   1.32918e+67   3.54317e+67   2.54922e+68   1.00713e+67     3.278e+67   7.33664e+65
   1.42716e+60   6.58911e+62   8.79722e+61   3.03564e+68  1.16889e+136  7.85499e+202   2.83659e+68    1.3273e+67   3.54219e+67    2.5487e+68  -1.00865e+67    3.2997e+67   1.26285e+66
   3.78958e+59    6.5801e+62   2.42583e+61   3.23728e+66 -3.16676e+135  3.46802e+202    5.6367e+67  -1.43301e+67  -3.38844e+67   5.14517e+67  -1.00911e+67   3.27018e+67   6.07407e+65
  -6.71919e+59   7.23551e+62  -4.16169e+61  -1.67902e+68  4.68935e+135 -2.21379e+202   1.53303e+68  -1.15323e+67  -3.42195e+67   -1.2215e+68   1.00776e+67  -3.45299e+67   1.28741e+65
   3.78958e+59   7.23434e+62   2.55771e+61   1.29684e+68  3.16177e+135  1.37672e+202    1.1686e+68   1.46311e+67   3.44543e+67   8.05989e+67   1.00785e+67  -3.45606e+67   1.59684e+66
   7.56789e+59   7.21937e+62   2.55045e+61    1.2953e+68  3.21223e+135  1.67695e+202   1.16473e+68   1.45956e+67   3.44205e+67   8.05144e+67  -1.01151e+67  -3.36359e+67   1.72431e+66
  -1.34415e+60   7.22055e+62  -4.16372e+61  -1.67784e+68  4.74064e+135 -2.26423e+202   1.53006e+68  -1.15051e+67  -3.41906e+67  -1.22089e+68   -1.0116e+67  -3.36052e+67  -1.52869e+65
  -6.69014e+59   6.58127e+62  -3.94488e+61  -1.69997e+68  5.08727e+135 -2.78954e+202   1.54311e+68  -1.25985e+67  -3.47644e+67  -1.22634e+68   1.00502e+67   3.25268e+67    1.5148e+65
   3.78958e+59    6.5801e+62   2.42583e+61   1.30345e+68  3.36502e+135  1.88681e+202   1.16725e+68   1.50472e+67   3.45453e+67   8.07521e+67   1.00511e+67   3.24961e+67    1.5693e+66
   7.56789e+59   6.56492e+62   2.41858e+61   1.30194e+68  3.29316e+135  1.56003e+202   1.16864e+68   1.50124e+67   3.45122e+67   8.06692e+67  -1.00877e+67   3.33981e+67   1.69456e+66
   -1.3384e+60   6.56608e+62  -3.94703e+61  -1.69881e+68  5.01606e+135 -2.69171e+202   1.54414e+68  -1.25716e+67  -3.47358e+67  -1.22574e+68  -1.00886e+67   3.34288e+67  -1.25275e+65
   3.78958e+59   7.23434e+62   2.55771e+61   4.99609e+65 -3.32879e+135  3.91598e+202   5.76979e+67  -1.51807e+67  -3.51067e+67    5.0787e+67   1.00739e+67  -3.46952e+67   1.59684e+66
   1.43007e+60   7.24349e+62   9.27781e+61   2.98083e+68  1.03662e+136  5.21539e+202   2.80156e+68   1.09717e+67   3.35663e+67   2.53545e+68   1.00865e+67  -3.44001e+67   3.06557e+66
   2.85822e+60   7.22852e+62   9.26532e+61    2.9773e+68  1.03767e+136  5.63423e+202   2.79761e+68   1.08902e+67   3.35089e+67   2.53331e+68  -1.01119e+67  -3.34755e+67   3.60232e+66
   7.56789e+59   7.21937e+62   2.55045e+61   4.18323e+65  -3.2636e+135  4.04782e+202   5.71295e+67  -1.51995e+67  -3.51015e+67   5.07193e+67  -1.01245e+67  -3.37701e+67   1.72431e+66
   3.78958e+59    6.5801e+62   2.42583e+61   3.27874e+66 -3.14372e+135  3.57382e+202   5.61647e+67  -1.42757e+67  -3.38748e+67   5.14292e+67   1.00467e+67   3.23662e+67    1.5693e+66
   1.42716e+60   6.58911e+62   8.79722e+61   3.03619e+68  1.17305e+136  8.22446e+202   2.83644e+68   1.33597e+67   3.54344e+67   2.54825e+68   1.00588e+67   3.26612e+67   2.98771e+66
   2.85245e+60   6.57392e+62   8.78486e+61   3.03271e+68  1.16181e+136  7.59473e+202    2.8347e+68   1.32796e+67   3.53777e+67   2.54614e+68  -1.00847e+67   3.35631e+67    3.5152e+66
   7.56789e+59   6.56492e+62   2.41858e+61   3.19841e+66  -3.2013e+135  3.44102e+202   5.66703e+67  -1.42942e+67  -3.38699e+67   5.13625e+67  -1.00968e+67   3.32685e+67   1.69456e+66
  -1.34415e+60   7.22055e+62  -4.16372e+61  -1.67899e+68   4.7199e+135 -2.10296e+202   1.53199e+68  -1.16994e+67   -3.4217e+67  -1.21982e+68   1.00895e+67  -3.42787e+67  -2.14067e+66
   7.56789e+59   7.21937e+62   2.55045e+61   1.29609e+68  3.17455e+135  1.31353e+202   1.16722e+68    1.4703e+67   3.44386e+67   8.04675e+67   1.00851e+67  -3.43092e+67    2.6982e+66
   1.13242e+60   7.19443e+62   2.53837e+61   1.29318e+68  3.39315e+135  2.01157e+202   1.15455e+68   1.46357e+67   3.43631e+67   8.03188e+67  -9.98632e+66  -3.06202e+67   2.82492e+66
  -2.01224e+60   7.19561e+62  -4.15592e+61  -1.67501e+68  4.92439e+135  -2.6526e+202   1.52093e+68  -1.16076e+67  -3.41334e+67   -1.2176e+68  -9.98198e+66  -3.05899e+67  -2.41967e+66
   -1.3384e+60   6.56608e+62  -3.94703e+61  -1.69989e+68  5.08466e+135 -2.94401e+202    1.5431e+68  -1.27589e+67  -3.47606e+67  -1.22469e+68   1.00612e+67   3.27571e+67  -2.06347e+66
   7.56789e+59   6.56492e+62   2.41858e+61   1.30271e+68  3.34559e+135  1.92434e+202   1.16726e+68   1.51179e+67   3.45301e+67   8.06231e+67   1.00571e+67   3.27266e+67   2.65169e+66
   1.13242e+60   6.53961e+62    2.4065e+61   1.29985e+68  3.07251e+135  1.15552e+202   1.17573e+68   1.50518e+67    3.4456e+67   8.04769e+67  -9.96077e+66   3.63789e+67   2.77622e+66
   -2.0037e+60   6.54077e+62  -3.93943e+61  -1.69597e+68  4.79728e+135 -2.29104e+202   1.54809e+68  -1.26686e+67  -3.46784e+67   -1.2225e+68  -9.95662e+66   3.64092e+67  -2.33766e+66
   7.56789e+59   7.21937e+62   2.55045e+61   4.97009e+65 -3.30818e+135  3.79729e+202   5.75189e+67  -1.50921e+67  -3.50833e+67   5.06724e+67   1.00757e+67  -3.44434e+67    2.6982e+66
   2.85822e+60   7.22852e+62   9.26532e+61   2.98012e+68  1.04148e+136  4.99355e+202   2.79993e+68    1.1305e+67    3.3574e+67   2.53133e+68   1.01051e+67  -3.41494e+67   7.53789e+66
   4.27774e+60   7.20357e+62   9.23336e+61   2.97239e+68  1.05429e+136  6.13265e+202   2.78941e+68   1.11266e+67   3.34514e+67   2.52661e+68  -9.96966e+66  -3.04609e+67   8.07044e+66
   1.13242e+60   7.19443e+62   2.53837e+61   4.13605e+65 -3.06075e+135  3.80363e+202   5.53256e+67  -1.51114e+67  -3.50467e+67   5.05717e+67  -9.99903e+66   -3.0754e+67   2.82492e+66
   7.56789e+59   6.56492e+62   2.41858e+61   3.27568e+66 -3.15552e+135  3.65187e+202   5.62695e+67  -1.41887e+67  -3.38521e+67   5.13165e+67    1.0048e+67    3.2597e+67   2.65169e+66
   2.85245e+60   6.57392e+62   8.78486e+61   3.03543e+68  1.17453e+136  8.57034e+202   2.83537e+68   1.36833e+67   3.54405e+67    2.5442e+68   1.00764e+67   3.28911e+67   7.36764e+66
   4.26918e+60    6.5486e+62    8.7531e+61   3.02784e+68  1.13808e+136  7.00762e+202   2.83368e+68   1.35081e+67   3.53203e+67   2.53956e+68  -9.94468e+66   3.65428e+67     7.891e+66
   1.13242e+60   6.53961e+62    2.4065e+61   3.19419e+66 -3.40041e+135  3.64352e+202   5.84005e+67  -1.42075e+67  -3.38159e+67   5.12176e+67  -9.97313e+66   3.62497e+67   2.77622e+66
  -1.91824e+50   7.92984e+62  -4.38134e+61  -1.70682e+68  4.83747e+135 -2.32983e+202   1.55868e+68  -1.15831e+67  -3.47966e+67  -1.24302e+68   1.01221e+67  -3.50453e+67   2.27495e+65
  -3.95474e+50   7.92865e+62   2.69434e+61   1.31932e+68  3.27885e+135  1.56238e+202   1.18858e+68   1.48301e+67   3.50374e+67   8.20643e+67   1.01217e+67  -3.50772e+67    4.9901e+65
    3.7896e+59   7.92374e+62   2.69192e+61   1.31875e+68  3.28986e+135  1.65685e+202   1.18749e+68   1.48171e+67   3.50238e+67   8.20346e+67  -1.01425e+67  -3.48497e+67   6.29175e+65
  -6.74781e+59   7.92493e+62  -4.38244e+61  -1.70675e+68  4.85241e+135  -2.3306e+202   1.55813e+68  -1.15814e+67  -3.47956e+67  -1.24298e+68  -1.01422e+67  -3.48178e+67  -5.92484e+64
  -1.78667e+50    7.2405e+62  -4.16056e+61  -1.72851e+68  5.23961e+135 -2.91156e+202   1.56965e+68  -1.26873e+67   -3.5361e+67  -1.24803e+68   1.00947e+67   3.32211e+67   2.28969e+65
  -3.69614e+50   7.23932e+62   2.56013e+61   1.32615e+68  3.47593e+135  1.92155e+202   1.18789e+68   1.52619e+67   3.51313e+67    8.2222e+67   1.00944e+67   3.31892e+67   4.90224e+65
   3.78958e+59   7.23434e+62   2.55771e+61    1.3256e+68  3.45626e+135  1.81517e+202    1.1881e+68   1.52491e+67   3.51178e+67   8.21928e+67  -1.01148e+67   3.34119e+67   6.18106e+65
  -6.71919e+59   7.23551e+62  -4.16169e+61  -1.72845e+68  5.22383e+135  -2.8989e+202   1.57008e+68  -1.26858e+67  -3.53601e+67  -1.24799e+68  -1.01145e+67   3.34438e+67  -5.27435e+64
  -3.95474e+50   7.92865e+62   2.69434e+61   5.18876e+65 -3.43934e+135  4.22115e+202   5.86482e+67  -1.54959e+67  -3.57234e+67   5.17382e+67   1.01217e+67  -3.52167e+67    4.9901e+65
   -5.9907e+50   7.93797e+62   9.77074e+61   3.03131e+68  1.06697e+136  5.57002e+202   2.84989e+68   1.09069e+67   3.41102e+67   2.58114e+68   1.01267e+67  -3.49107e+67   7.70656e+65
   1.43295e+60   7.93305e+62     9.767e+61   3.03044e+68  1.06727e+136  5.70253e+202   2.84891e+68   1.08867e+67   3.40993e+67   2.58058e+68  -1.01423e+67  -3.46832e+67   1.31799e+66
    3.7896e+59   7.92374e+62   2.69192e+61   4.94812e+65 -3.42284e+135  4.27489e+202   5.85072e+67  -1.55015e+67  -3.57197e+67    5.1716e+67  -1.01472e+67  -3.49891e+67   6.29175e+65
  -3.69614e+50   7.23932e+62   2.56013e+61   3.39862e+66 -3.26124e+135  3.71788e+202   5.72083e+67  -1.45573e+67  -3.44468e+67   5.24028e+67   1.00944e+67   3.30546e+67   4.90224e+65
  -5.60806e+50   7.24848e+62   9.28152e+61   3.08866e+68  1.20903e+136  8.42778e+202    2.8863e+68   1.33824e+67   3.60455e+67   2.59438e+68   1.00992e+67   3.33606e+67   7.51598e+65
   1.43007e+60   7.24349e+62   9.27781e+61    3.0878e+68  1.20625e+136  8.23545e+202   2.88587e+68   1.33625e+67   3.60348e+67   2.59382e+68  -1.01146e+67   3.35832e+67   1.28933e+66
   3.78958e+59   7.23434e+62   2.55771e+61   3.37499e+66 -3.27555e+135  3.66332e+202   5.73319e+67  -1.45628e+67  -3.44431e+67   5.23809e+67  -1.01194e+67   3.32774e+67   6.18106e+65
  -6.74781e+59   7.92493e+62  -4.38244e+61  -1.70657e+68  4.82667e+135 -2.31076e+202   1.55876e+68  -1.15664e+67  -3.47915e+67  -1.24299e+68   1.01046e+67  -3.51552e+67   1.04877e+65
    3.7896e+59   7.92374e+62   2.69192e+61   1.31919e+68  3.27114e+135  1.46951e+202   1.18875e+68   1.48736e+67   3.50337e+67   8.20113e+67   1.01055e+67  -3.51872e+67   1.62545e+66
   7.56792e+59     7.909e+62   2.68466e+61   1.31762e+68  3.32419e+135  1.78376e+202   1.18477e+68   1.48373e+67   3.49991e+67   8.19251e+67  -1.01422e+67  -3.42346e+67    1.7552e+66
  -1.34983e+60   7.91019e+62  -4.38434e+61   -1.7053e+68     4.88e+135 -2.36688e+202   1.55566e+68  -1.15372e+67  -3.47606e+67  -1.24233e+68  -1.01431e+67  -3.42027e+67  -1.80964e+65
  -6.71919e+59   7.23551e+62  -4.16169e+61  -1.72823e+68  5.24344e+135 -2.92478e+202   1.56921e+68  -1.26679e+67   -3.5355e+67    -1.248e+68   1.00776e+67   3.31073e+67   1.29567e+65
   3.78958e+59   7.23434e+62   2.55771e+61   1.32602e+68  3.48349e+135   2.0061e+202   1.18742e+68   1.53044e+67   3.51276e+67   8.21699e+67   1.00785e+67   3.30754e+67   1.59687e+66
   7.56789e+59   7.21937e+62   2.55045e+61   1.32448e+68  3.40831e+135  1.66406e+202   1.18887e+68   1.52689e+67   3.50937e+67   8.20853e+67  -1.01151e+67    3.4004e+67   1.72435e+66
  -1.34415e+60   7.22055e+62  -4.16372e+61  -1.72698e+68  5.16836e+135 -2.81787e+202   1.57023e+68   -1.2639e+67  -3.53245e+67  -1.24734e+68   -1.0116e+67   3.40359e+67  -1.51259e+65
    3.7896e+59   7.92374e+62   2.69192e+61   5.37943e+65 -3.44542e+135  4.14458e+202   5.87002e+67   -1.5445e+67  -3.57097e+67   5.16927e+67   1.01007e+67  -3.53266e+67   1.62545e+66
   1.43295e+60   7.93305e+62     9.767e+61   3.03111e+68   1.0672e+136   5.4247e+202   2.84963e+68   1.09835e+67   3.41147e+67   2.58012e+68   1.01139e+67  -3.50208e+67   3.14669e+66
   2.86391e+60   7.91831e+62   9.75438e+61   3.02744e+68  1.06827e+136  5.86189e+202   2.84555e+68   1.08989e+67   3.40547e+67    2.5779e+68  -1.01387e+67  -3.40684e+67   3.69226e+66
   7.56792e+59     7.909e+62   2.68466e+61   4.55498e+65 -3.37705e+135  4.27892e+202   5.81142e+67  -1.54641e+67  -3.57042e+67   5.16237e+67  -1.01519e+67  -3.43737e+67    1.7552e+66
   3.78958e+59   7.23434e+62   2.55771e+61   3.41721e+66 -3.25204e+135   3.7731e+202   5.71289e+67  -1.45074e+67  -3.44334e+67    5.2358e+67   1.00739e+67   3.29408e+67   1.59687e+66
   1.43007e+60   7.24349e+62   9.27781e+61    3.0884e+68  1.21065e+136  8.62416e+202   2.88575e+68   1.34542e+67   3.60488e+67   2.59337e+68   1.00866e+67   3.32465e+67   3.06482e+66
   2.85822e+60   7.22852e+62   9.26532e+61   3.08479e+68  1.19883e+136  7.96256e+202   2.88394e+68    1.3371e+67   3.59895e+67   2.59119e+68  -1.01119e+67    3.4175e+67   3.60082e+66
   7.56789e+59   7.21937e+62   2.55045e+61   3.33569e+66 -3.31236e+135  3.63746e+202   5.76497e+67  -1.45262e+67  -3.44282e+67   5.22901e+67  -1.01245e+67   3.38698e+67   1.72435e+66
  -1.34983e+60   7.91019e+62  -4.38434e+61  -1.70651e+68  4.85971e+135 -2.19644e+202   1.55763e+68  -1.17383e+67  -3.47885e+67  -1.24125e+68   1.01174e+67  -3.48781e+67  -2.21964e+66
   7.56792e+59     7.909e+62   2.68466e+61   1.31842e+68  3.28585e+135  1.40622e+202   1.18728e+68   1.49468e+67   3.50176e+67   8.18775e+67   1.01129e+67  -3.49098e+67   2.74642e+66
   1.13242e+60   7.88443e+62   2.67258e+61   1.31545e+68  3.51084e+135  2.13385e+202   1.17444e+68   1.48782e+67   3.49406e+67    8.1726e+67  -1.00115e+67  -3.11771e+67   2.87539e+66
  -2.02067e+60   7.88562e+62  -4.37633e+61  -1.70243e+68  5.06979e+135 -2.77043e+202   1.54638e+68   -1.1644e+67  -3.47026e+67  -1.23896e+68   -1.0007e+67  -3.11456e+67  -2.50291e+66
  -1.34415e+60   7.22055e+62  -4.16372e+61  -1.72812e+68  5.23933e+135 -3.08471e+202   1.56922e+68  -1.28333e+67  -3.53509e+67  -1.24628e+68   1.00895e+67   3.33624e+67  -2.13906e+66
   7.56789e+59   7.21937e+62   2.55045e+61   1.32527e+68  3.46193e+135  2.04239e+202   1.18749e+68   1.53763e+67   3.51119e+67   8.20384e+67   1.00851e+67   3.33306e+67   2.69825e+66
   1.13242e+60   7.19443e+62   2.53837e+61   1.32235e+68   3.1805e+135  1.24005e+202   1.19606e+68    1.5309e+67   3.50363e+67   8.18896e+67  -9.98631e+66    3.7026e+67   2.82495e+66
  -2.01224e+60   7.19561e+62  -4.15592e+61   -1.7241e+68  4.94279e+135   -2.401e+202   1.57425e+68  -1.27406e+67  -3.52664e+67  -1.24403e+68  -9.98198e+66   3.70575e+67  -2.41735e+66
   7.56792e+59     7.909e+62   2.68466e+61   5.35799e+65 -3.42255e+135  4.01821e+202   5.85051e+67  -1.53546e+67  -3.56856e+67   5.15761e+67   1.01032e+67  -3.50488e+67   2.74642e+66
   2.86391e+60   7.91831e+62   9.75438e+61   3.03037e+68  1.07238e+136  5.19574e+202   2.84794e+68    1.1325e+67   3.41223e+67   2.57589e+68   1.01335e+67  -3.47442e+67   7.71334e+66
   4.28618e+60   7.89372e+62   9.72221e+61   3.02245e+68  1.08545e+136  6.37955e+202   2.83721e+68   1.11424e+67   3.39963e+67   2.57107e+68  -9.99422e+66   -3.1012e+67   8.25468e+66
   1.13242e+60   7.88443e+62   2.67258e+61   4.50447e+65 -3.16769e+135  4.02159e+202    5.6284e+67  -1.53743e+67  -3.56487e+67   5.14734e+67  -1.00246e+67  -3.13157e+67   2.87539e+66
   7.56789e+59   7.21937e+62   2.55045e+61   3.41437e+66 -3.26563e+135   3.8562e+202   5.72476e+67  -1.44188e+67  -3.44101e+67   5.22433e+67   1.00757e+67   3.31964e+67   2.69825e+66
   2.85822e+60   7.22852e+62   9.26532e+61   3.08762e+68  1.21205e+136  8.98379e+202   2.88467e+68   1.37858e+67   3.60547e+67   2.58921e+68   1.01051e+67   3.35011e+67   7.53638e+66
   4.27774e+60   7.20357e+62   9.23336e+61   3.07985e+68  1.17437e+136  7.35178e+202   2.88289e+68   1.36065e+67   3.59312e+67   2.58447e+68  -9.96965e+66   3.71959e+67   8.06822e+66
   1.13242e+60   7.19443e+62   2.53837e+61   3.33095e+66 -3.51787e+135  3.85053e+202   5.94051e+67  -1.44381e+67  -3.43735e+67   5.21425e+67  -9.99902e+66   3.68922e+67   2.82495e+66
   -2.0651e+50     8.655e+62  -4.60619e+61  -1.73537e+68  4.98155e+135 -2.43463e+202   1.58536e+68  -1.16182e+67  -3.53891e+67   -1.2653e+68    1.0149e+67  -3.56985e+67   2.25548e+65
  -4.21064e+50   8.65378e+62   2.83096e+61   1.34247e+68   3.3939e+135  1.66568e+202   1.20948e+68   1.50804e+67   3.56381e+67   8.35289e+67   1.01487e+67  -3.57316e+67   5.08164e+65
   3.78964e+59   8.64895e+62   2.82854e+61    1.3419e+68  3.40548e+135  1.76444e+202   1.20836e+68   1.50671e+67   3.56242e+67   8.34985e+67  -1.01699e+67  -3.54977e+67   6.40749e+65
    -6.776e+59   8.65016e+62  -4.60727e+61  -1.73527e+68  4.99695e+135  -2.4361e+202   1.58476e+68  -1.16159e+67  -3.53875e+67  -1.26524e+68  -1.01695e+67  -3.54645e+67  -6.55764e+64
  -1.91824e+50   7.92984e+62  -4.38134e+61   -1.7578e+68  5.40425e+135 -3.05487e+202    1.5967e+68  -1.27596e+67  -3.59731e+67  -1.27048e+68   1.01221e+67   3.38173e+67   2.27496e+65
  -3.95474e+50   7.92865e+62   2.69434e+61   1.34955e+68  3.60113e+135  2.04751e+202   1.20879e+68   1.55279e+67   3.57351e+67   8.36922e+67   1.01217e+67   3.37842e+67   4.99009e+65
    3.7896e+59   7.92374e+62   2.69192e+61   1.34899e+68   3.5806e+135  1.93631e+202   1.20901e+68   1.55148e+67   3.57214e+67   8.36623e+67  -1.01425e+67   3.40129e+67   6.29226e+65
  -6.74781e+59   7.92493e+62  -4.38244e+61  -1.75771e+68  5.38752e+135  -3.0404e+202   1.59712e+68  -1.27574e+67  -3.59715e+67  -1.27042e+68  -1.01422e+67   3.40461e+67  -5.84293e+64
  -4.21064e+50   8.65378e+62   2.83096e+61   5.56493e+65 -3.56265e+135  4.47118e+202   5.96905e+67  -1.57713e+67  -3.63493e+67   5.26771e+67   1.01487e+67  -3.58763e+67   5.08164e+65
  -6.35629e+50   8.66327e+62   1.02689e+62    3.0834e+68  1.09899e+136  5.79764e+202   2.89971e+68   1.09162e+67   3.46776e+67   2.62746e+68   1.01539e+67   -3.5559e+67   7.90931e+65
   1.43578e+60   8.65843e+62   1.02651e+62   3.08247e+68  1.09927e+136  5.93539e+202   2.89868e+68   1.08949e+67   3.46657e+67   2.62687e+68  -1.01696e+67  -3.53251e+67   1.34751e+66
   3.78964e+59   8.64895e+62   2.82854e+61   5.31731e+65 -3.54536e+135  4.52645e+202   5.95453e+67   -1.5777e+67  -3.63456e+67   5.26543e+67  -1.01748e+67  -3.56422e+67   6.40749e+65
  -3.95474e+50   7.92865e+62   2.69434e+61   3.54219e+66 -3.37525e+135  3.92929e+202   5.82048e+67  -1.47982e+67  -3.50257e+67   5.33661e+67   1.01217e+67   3.36446e+67   4.99009e+65
   -5.9907e+50   7.93797e+62   9.77074e+61   3.14278e+68  1.24865e+136  8.84695e+202   2.93742e+68   1.34793e+67   3.66825e+67   2.64116e+68   1.01267e+67   3.39619e+67   7.70652e+65
   1.43295e+60   7.93305e+62     9.767e+61   3.14187e+68   1.2457e+136  8.64483e+202   2.93695e+68   1.34584e+67   3.66709e+67   2.64058e+68  -1.01423e+67   3.41906e+67    1.3173e+66
    3.7896e+59   7.92374e+62   2.69192e+61   3.51782e+66 -3.39021e+135  3.87314e+202   5.83317e+67  -1.48038e+67  -3.50221e+67   5.33437e+67  -1.01472e+67   3.38735e+67   6.29226e+65
    -6.776e+59   8.65016e+62  -4.60727e+61  -1.73514e+68  4.97128e+135 -2.41461e+202   1.58542e+68  -1.16037e+67  -3.53843e+67  -1.26526e+68   1.01312e+67  -3.58029e+67   7.90251e+64
   3.78964e+59   8.64895e+62   2.82854e+61   1.34234e+68  3.38646e+135  1.56972e+202   1.20964e+68   1.51248e+67   3.56344e+67   8.34749e+67   1.01321e+67  -3.58361e+67   1.65521e+66
   7.56798e+59   8.63443e+62   2.82128e+61   1.34073e+68  3.44224e+135  1.89888e+202   1.20555e+68   1.50877e+67   3.55989e+67   8.33867e+67  -1.01688e+67  -3.48547e+67   1.78735e+66
  -1.35542e+60   8.63564e+62  -4.60903e+61  -1.73378e+68  5.02681e+135 -2.47702e+202   1.58219e+68  -1.15724e+67  -3.53514e+67  -1.26454e+68  -1.01697e+67  -3.48215e+67  -2.11216e+65
  -6.74781e+59   7.92493e+62  -4.38244e+61  -1.75753e+68  5.40817e+135 -3.07026e+202   1.59627e+68  -1.27424e+67  -3.59674e+67  -1.27043e+68   1.01046e+67   3.37086e+67     1.057e+65
    3.7896e+59   7.92374e+62   2.69192e+61   1.34942e+68  3.60848e+135  2.13475e+202   1.20834e+68   1.55712e+67   3.57313e+67   8.36391e+67   1.01055e+67   3.36754e+67   1.62549e+66
   7.56792e+59     7.909e+62   2.68466e+61   1.34784e+68  3.52975e+135  1.77639e+202   1.20983e+68   1.55348e+67   3.56966e+67   8.35525e+67  -1.01422e+67   3.46317e+67   1.75527e+66
  -1.34983e+60   7.91019e+62  -4.38434e+61   -1.7562e+68  5.32903e+135 -2.95349e+202   1.59729e+68  -1.27116e+67   -3.5935e+67  -1.26973e+68   -1.0143e+67   3.46649e+67  -1.79358e+65
   3.78964e+59   8.64895e+62   2.82854e+61   5.76005e+65 -3.56841e+135  4.39069e+202   5.97389e+67  -1.57194e+67  -3.63353e+67   5.26307e+67   1.01272e+67  -3.59806e+67   1.65521e+66
   1.43578e+60   8.65843e+62   1.02651e+62   3.08321e+68  1.09936e+136  5.64771e+202   2.89945e+68   1.09972e+67   3.46826e+67   2.62641e+68   1.01409e+67  -3.56636e+67   3.23216e+66
   2.86953e+60   8.64391e+62   1.02523e+62    3.0794e+68  1.10045e+136  6.10442e+202   2.89521e+68   1.09094e+67   3.46201e+67   2.62411e+68  -1.01651e+67  -3.46824e+67   3.78691e+66
   7.56798e+59   8.63443e+62   2.82128e+61   4.92089e+65 -3.49666e+135  4.52753e+202   5.91346e+67  -1.57387e+67  -3.63294e+67   5.25603e+67  -1.01789e+67  -3.49988e+67   1.78735e+66
    3.7896e+59   7.92374e+62   2.69192e+61   3.56095e+66 -3.36619e+135  3.98709e+202   5.81281e+67  -1.47474e+67  -3.50121e+67   5.33205e+67   1.01007e+67    3.3536e+67   1.62549e+66
   1.43295e+60   7.93305e+62     9.767e+61   3.14254e+68  1.25035e+136  9.05413e+202   2.93687e+68   1.35552e+67   3.66863e+67   2.64013e+68   1.01139e+67    3.3853e+67   3.14599e+66
   2.86391e+60   7.91831e+62   9.75438e+61    3.1388e+68  1.23791e+136  8.35831e+202   2.93498e+68   1.34688e+67   3.66245e+67   2.63786e+68  -1.01387e+67   3.48091e+67   3.69083e+66
   7.56792e+59     7.909e+62   2.68466e+61   3.47785e+66 -3.42944e+135   3.8486e+202   5.86646e+67  -1.47666e+67  -3.50067e+67   5.32511e+67  -1.01519e+67   3.44927e+67   1.75527e+66
  -1.35542e+60   8.63564e+62  -4.60903e+61  -1.73505e+68  5.00697e+135 -2.29662e+202   1.58421e+68  -1.17805e+67  -3.53808e+67  -1.26344e+68    1.0145e+67  -3.54987e+67  -2.30212e+66
   7.56798e+59   8.63443e+62   2.82128e+61   1.34156e+68  3.40325e+135  1.50646e+202   1.20808e+68   1.51994e+67   3.56179e+67   8.33383e+67   1.01403e+67  -3.55317e+67   2.79648e+66
   1.13242e+60   8.61024e+62    2.8092e+61   1.33853e+68  3.63486e+135   2.2654e+202   1.19506e+68   1.51295e+67   3.55394e+67   8.31839e+67  -1.00362e+67  -3.17548e+67   2.92778e+66
  -2.02897e+60   8.61145e+62  -4.60081e+61  -1.73086e+68  5.22286e+135 -2.89644e+202   1.57276e+68  -1.16836e+67  -3.52925e+67  -1.26109e+68  -1.00315e+67   -3.1722e+67  -2.58982e+66
  -1.34983e+60   7.91019e+62  -4.38434e+61   -1.7574e+68  5.40242e+135 -3.23582e+202   1.59632e+68  -1.29128e+67  -3.59629e+67  -1.26865e+68   1.01174e+67   3.39896e+67  -2.21803e+66
   7.56792e+59     7.909e+62   2.68466e+61   1.34864e+68  3.58463e+135  2.16954e+202   1.20846e+68   1.56443e+67   3.57151e+67   8.35049e+67   1.01129e+67   3.39565e+67   2.74649e+66
   1.13242e+60   7.88443e+62   2.67258e+61   1.34567e+68  3.29446e+135  1.33164e+202   1.21712e+68   1.55756e+67    3.5638e+67   8.33532e+67  -1.00115e+67   3.76955e+67   2.87545e+66
  -2.02067e+60   7.88562e+62  -4.37633e+61  -1.75328e+68  5.09634e+135 -2.51941e+202   1.60136e+68  -1.28177e+67  -3.58762e+67  -1.26634e+68   -1.0007e+67   3.77283e+67   -2.5006e+66
   7.56798e+59   8.63443e+62   2.82128e+61   5.74338e+65 -3.54312e+135    4.256e+202   5.95268e+67  -1.56271e+67  -3.63105e+67   5.25119e+67   1.01302e+67  -3.56758e+67   2.79648e+66
   2.86953e+60   8.64391e+62   1.02523e+62   3.08244e+68   1.1049e+136  5.41134e+202   2.89767e+68   1.13472e+67   3.46901e+67   2.62206e+68   1.01616e+67    -3.536e+67   7.89601e+66
   4.29452e+60    8.6197e+62     1.022e+62   3.07433e+68  1.11822e+136  6.64226e+202   2.88674e+68   1.11601e+67   3.45607e+67   2.61712e+68  -1.00184e+67  -3.15836e+67   8.44646e+66
   1.13242e+60   8.61024e+62    2.8092e+61   4.86757e+65  -3.2805e+135  4.25613e+202   5.72777e+67  -1.56473e+67  -3.62731e+67   5.24071e+67  -1.00498e+67  -3.18985e+67   2.92778e+66
   7.56792e+59     7.909e+62   2.68466e+61   3.55815e+66 -3.38172e+135  4.07564e+202   5.82613e+67  -1.46571e+67  -3.49882e+67   5.32035e+67   1.01032e+67   3.38175e+67   2.74649e+66
   2.86391e+60   7.91831e+62   9.75438e+61   3.14172e+68  1.25165e+136  9.42805e+202   2.93577e+68   1.38948e+67    3.6692e+67   2.63585e+68   1.01335e+67   3.41334e+67   7.71191e+66
   4.28618e+60   7.89372e+62   9.72221e+61   3.13377e+68  1.21268e+136  7.72233e+202   2.93391e+68   1.37112e+67   3.65651e+67     2.631e+68  -9.99421e+66   3.78717e+67   8.25253e+66
   1.13242e+60   7.88443e+62   2.67258e+61   3.47244e+66 -3.64159e+135  4.07291e+202   6.04454e+67  -1.46769e+67  -3.49513e+67   5.31006e+67  -1.00246e+67   3.75569e+67   2.87545e+66
  -2.21246e+50   9.41662e+62  -4.83527e+61  -1.76499e+68  5.13339e+135 -2.54703e+202   1.61303e+68  -1.16566e+67  -3.60036e+67  -1.28839e+68   1.01756e+67  -3.63756e+67   2.23136e+65
  -4.45951e+50   9.41539e+62    2.9701e+61   1.36649e+68   3.5153e+135  1.77723e+202   1.23116e+68   1.53399e+67   3.62612e+67   8.50476e+67   1.01753e+67  -3.64101e+67   5.17756e+65
   3.78971e+59   9.41063e+62   2.96768e+61    1.3659e+68  3.52749e+135  1.88058e+202   1.23001e+68   1.53263e+67   3.62471e+67   8.50164e+67  -1.01968e+67  -3.61693e+67   6.52832e+65
  -6.80377e+59   9.41186e+62  -4.83632e+61  -1.76486e+68  5.14932e+135 -2.54934e+202   1.61239e+68  -1.16537e+67  -3.60013e+67  -1.28831e+68  -1.01965e+67  -3.61348e+67  -7.25556e+64
   -2.0651e+50     8.655e+62  -4.60619e+61   -1.7882e+68   5.5781e+135  -3.2092e+202   1.62476e+68  -1.28373e+67  -3.66082e+67  -1.29374e+68    1.0149e+67   3.44351e+67   2.25549e+65
  -4.21064e+50   8.65378e+62   2.83096e+61   1.37382e+68  3.73338e+135  2.18364e+202   1.23047e+68   1.58039e+67   3.63616e+67   8.52169e+67   1.01487e+67   3.44007e+67   5.08163e+65
   3.78964e+59   8.64895e+62   2.82854e+61   1.37324e+68  3.71191e+135  2.06726e+202   1.23069e+68   1.57905e+67   3.63475e+67   8.51862e+67  -1.01699e+67   3.46358e+67   6.40783e+65
    -6.776e+59   8.65016e+62  -4.60727e+61  -1.78808e+68  5.56035e+135 -3.19271e+202   1.62517e+68  -1.28345e+67   -3.6606e+67  -1.29367e+68  -1.01695e+67   3.46703e+67  -6.47657e+64
  -4.45951e+50   9.41539e+62    2.9701e+61   5.93912e+65 -3.69284e+135  4.74071e+202   6.07717e+67  -1.60574e+67  -3.69991e+67   5.36503e+67   1.01753e+67  -3.65603e+67   5.17756e+65
  -6.70701e+50   9.42504e+62   1.07763e+62    3.1374e+68  1.13271e+136  6.04034e+202   2.95137e+68   1.09273e+67   3.52654e+67   2.67547e+68   1.01807e+67  -3.62311e+67   8.12557e+65
   1.43859e+60   9.42028e+62   1.07724e+62   3.13643e+68  1.13297e+136  6.18367e+202   2.95029e+68   1.09048e+67   3.52526e+67   2.67485e+68  -1.01966e+67  -3.59903e+67   1.37874e+66
   3.78971e+59   9.41063e+62   2.96768e+61   5.68257e+65 -3.67469e+135  4.79756e+202   6.06219e+67  -1.60633e+67  -3.69953e+67   5.36268e+67   -1.0202e+67  -3.63193e+67   6.52832e+65
  -4.21064e+50   8.65378e+62   2.83096e+61    3.6915e+66 -3.49552e+135  4.15661e+202    5.9238e+67  -1.50478e+67  -3.56258e+67   5.43652e+67   1.01487e+67    3.4256e+67   5.08163e+65
  -6.35629e+50   8.66327e+62   1.02689e+62   3.19894e+68  1.29051e+136  9.29851e+202   2.99044e+68   1.35828e+67   3.73441e+67   2.68968e+68   1.01539e+67   3.45852e+67   7.90927e+65
   1.43578e+60   8.65843e+62   1.02651e+62   3.19799e+68  1.28738e+136  9.08578e+202   2.98994e+68   1.35607e+67   3.73314e+67   2.68907e+68  -1.01696e+67   3.48203e+67   1.34681e+66
   3.78964e+59   8.64895e+62   2.82854e+61   3.66616e+66 -3.51117e+135  4.09883e+202   5.93685e+67  -1.50537e+67  -3.56222e+67   5.43421e+67  -1.01748e+67   3.44913e+67   6.40783e+65
  -6.80377e+59   9.41186e+62  -4.83632e+61  -1.76477e+68   5.1237e+135 -2.52594e+202   1.61308e+68  -1.16443e+67  -3.59991e+67  -1.28833e+68   1.01575e+67   -3.6474e+67   5.11919e+64
   3.78971e+59   9.41063e+62   2.96768e+61   1.36635e+68  3.50818e+135  1.67806e+202    1.2313e+68   1.53853e+67   3.62576e+67   8.49925e+67   1.01584e+67  -3.65086e+67   1.68631e+66
   7.56807e+59   9.39634e+62   2.96041e+61    1.3647e+68  3.56682e+135  2.02311e+202   1.22708e+68   1.53472e+67   3.62211e+67   8.49019e+67  -1.01951e+67  -3.54973e+67    1.8209e+66
  -1.36092e+60   9.39757e+62  -4.83794e+61  -1.76333e+68  5.18162e+135 -2.59532e+202   1.60971e+68   -1.1611e+67  -3.59642e+67  -1.28757e+68   -1.0196e+67  -3.54628e+67  -2.43626e+65
    -6.776e+59   8.65016e+62  -4.60727e+61  -1.78794e+68  5.58208e+135 -3.22692e+202   1.62435e+68  -1.28223e+67  -3.66029e+67  -1.29369e+68   1.01312e+67    3.4332e+67   7.98398e+64
   3.78964e+59   8.64895e+62   2.82854e+61   1.37369e+68  3.74048e+135  2.27366e+202   1.23003e+68   1.58482e+67   3.63578e+67   8.51626e+67   1.01321e+67   3.42975e+67   1.65525e+66
   7.56798e+59   8.63443e+62   2.82128e+61   1.37206e+68  3.65794e+135   1.8978e+202   1.23157e+68   1.58107e+67   3.63219e+67   8.50737e+67  -1.01688e+67   3.52825e+67   1.78739e+66
  -1.35542e+60   8.63564e+62  -4.60903e+61  -1.78653e+68  5.49869e+135 -3.09944e+202   1.62536e+68  -1.27897e+67  -3.65686e+67  -1.29294e+68  -1.01697e+67   3.53171e+67  -2.09618e+65
   3.78971e+59   9.41063e+62   2.96768e+61   6.13886e+65 -3.69823e+135  4.65597e+202   6.08162e+67  -1.60043e+67  -3.69848e+67   5.36029e+67   1.01532e+67  -3.66585e+67   1.68631e+66
   1.43859e+60   9.42028e+62   1.07724e+62   3.13723e+68  1.13323e+136  5.88557e+202    2.9511e+68   1.10128e+67   3.52712e+67   2.67439e+68   1.01677e+67  -3.63297e+67   3.32232e+66
   2.87508e+60   9.40598e+62   1.07595e+62   3.13327e+68  1.13434e+136  6.36303e+202    2.9467e+68   1.09215e+67   3.52059e+67     2.672e+68  -1.01911e+67  -3.53186e+67    3.8866e+66
   7.56807e+59   9.39634e+62   2.96041e+61    5.2798e+65 -3.62288e+135  4.79532e+202   6.01927e+67  -1.60241e+67  -3.69786e+67   5.35306e+67  -1.02056e+67  -3.56468e+67    1.8209e+66
   3.78964e+59   8.64895e+62   2.82854e+61   3.71044e+66 -3.48663e+135  4.21715e+202   5.91642e+67   -1.4996e+67   -3.5612e+67   5.43185e+67   1.01272e+67   3.41529e+67   1.65525e+66
   1.43578e+60   8.65843e+62   1.02651e+62   3.19872e+68   1.2923e+136  9.51727e+202    2.9899e+68    1.3663e+67   3.73484e+67   2.68861e+68    1.0141e+67   3.44818e+67   3.23145e+66
   2.86953e+60   8.64391e+62   1.02523e+62   3.19483e+68   1.2792e+136  8.78457e+202   2.98793e+68   1.35731e+67   3.72837e+67   2.68626e+68  -1.01651e+67   3.54667e+67   3.78547e+66
   7.56798e+59   8.63443e+62   2.82128e+61   3.62511e+66 -3.55297e+135  4.07582e+202   5.97169e+67  -1.50157e+67  -3.56064e+67   5.42473e+67  -1.01789e+67   3.51384e+67   1.78739e+66
  -1.36092e+60   9.39757e+62  -4.83794e+61  -1.76466e+68  5.16219e+135 -2.40409e+202   1.61177e+68   -1.1826e+67  -3.59949e+67  -1.28645e+68   1.01722e+67  -3.61417e+67  -2.38815e+66
   7.56807e+59   9.39634e+62   2.96041e+61   1.36555e+68  3.52719e+135  1.61499e+202   1.22964e+68   1.54614e+67   3.62406e+67   8.48528e+67   1.01674e+67  -3.61761e+67   2.84856e+66
   1.13243e+60   9.37252e+62   2.94833e+61   1.36245e+68  3.76566e+135  2.40706e+202   1.21644e+68     1.539e+67   3.61605e+67   8.46949e+67  -1.00606e+67  -3.23544e+67   2.98226e+66
  -2.03716e+60   9.37375e+62  -4.82951e+61  -1.76035e+68  5.38415e+135 -3.03135e+202   1.60013e+68  -1.17266e+67  -3.59043e+67  -1.28404e+68  -1.00558e+67  -3.23202e+67  -2.68048e+66
  -1.35542e+60   8.63564e+62  -4.60903e+61   -1.7878e+68  5.57454e+135  -3.3983e+202   1.62443e+68  -1.29978e+67   -3.6598e+67  -1.29184e+68    1.0145e+67   3.46399e+67  -2.30052e+66
   7.56798e+59   8.63443e+62   2.82128e+61   1.37289e+68  3.71415e+135  2.30665e+202    1.2302e+68   1.59224e+67   3.63409e+67   8.50253e+67   1.01403e+67   3.46055e+67   2.79652e+66
   1.13242e+60   8.61024e+62    2.8092e+61   1.36985e+68   3.4148e+135  1.43097e+202   1.23895e+68   1.58522e+67   3.62621e+67   8.48702e+67  -1.00362e+67   3.83886e+67   2.92778e+66
  -2.02897e+60   8.61145e+62  -4.60081e+61  -1.78357e+68  5.25858e+135 -2.64714e+202    1.6295e+68  -1.29003e+67  -3.65091e+67  -1.28948e+68  -1.00315e+67   3.84229e+67  -2.58753e+66
   7.56807e+59   9.39634e+62   2.96041e+61   6.12605e+65 -3.67032e+135  4.51224e+202   6.05863e+67  -1.59099e+67   -3.6959e+67   5.34815e+67   1.01569e+67  -3.63256e+67   2.84856e+66
   2.87508e+60   9.40598e+62   1.07595e+62   3.13642e+68  1.13914e+136  5.64149e+202   2.94924e+68   1.13716e+67   3.52786e+67   2.66992e+68   1.01895e+67  -3.59979e+67   8.08637e+66
   4.30274e+60   9.38215e+62    1.0727e+62   3.12812e+68  1.15271e+136  6.92209e+202    2.9381e+68   1.11799e+67   3.51456e+67   2.66486e+68   -1.0042e+67  -3.21769e+67   8.64624e+66
   1.13243e+60   9.37252e+62   2.94833e+61   5.22209e+65 -3.39961e+135  4.50883e+202   5.83085e+67  -1.59308e+67  -3.69212e+67   5.33742e+67  -1.00746e+67  -3.25034e+67   2.98226e+66
   7.56798e+59   8.63443e+62   2.82128e+61   3.70736e+66 -3.50422e+135  4.31157e+202   5.93124e+67   -1.4904e+67  -3.55875e+67   5.41989e+67   1.01302e+67   3.44614e+67   2.79652e+66
   2.86953e+60   8.64391e+62   1.02523e+62   3.19786e+68  1.29349e+136  9.90609e+202   2.98878e+68   1.40109e+67   3.73538e+67   2.68421e+68   1.01616e+67   3.47891e+67   7.89457e+66
   4.29452e+60    8.6197e+62     1.022e+62    3.1897e+68  1.25315e+136  8.12176e+202   2.98681e+68   1.38227e+67   3.72231e+67   2.67925e+68  -1.00183e+67   3.85715e+67   8.44426e+66
   1.13242e+60   8.61024e+62    2.8092e+61   3.61854e+66 -3.77203e+135   4.3121e+202   6.15234e+67  -1.49245e+67  -3.55504e+67   5.40934e+67  -1.00498e+67   3.82449e+67   2.92778e+66
  -2.35405e+50   1.02154e+63  -5.06874e+61  -1.79573e+68  5.29349e+135 -2.66755e+202   1.64174e+68  -1.16981e+67  -3.66414e+67  -1.31234e+68   1.02017e+67  -3.70781e+67   2.20257e+65
  -4.69749e+50   1.02141e+63   3.11184e+61   1.39141e+68  3.64361e+135  1.89794e+202   1.25366e+68   1.56096e+67   3.69081e+67   8.66238e+67   1.02015e+67   -3.7114e+67    5.2785e+65
   3.78971e+59   1.02095e+63   3.10941e+61   1.39081e+68  3.65647e+135  2.00622e+202   1.25248e+68   1.55956e+67   3.68937e+67   8.65916e+67  -1.02233e+67  -3.68658e+67   6.65354e+65
  -6.83119e+59   1.02107e+63  -5.06975e+61  -1.79558e+68  5.30998e+135 -2.67086e+202   1.64107e+68  -1.16946e+67  -3.66383e+67  -1.31225e+68  -1.02231e+67  -3.68299e+67  -8.03113e+64
  -2.21246e+50   9.41662e+62  -4.83527e+61  -1.81977e+68  5.76186e+135  -3.3756e+202   1.65389e+68  -1.29207e+67  -3.72677e+67  -1.31788e+68   1.01756e+67   3.50757e+67   2.23137e+65
  -4.45951e+50   9.41539e+62    2.9701e+61   1.39902e+68   3.8732e+135  2.33092e+202   1.25297e+68   1.60906e+67   3.70119e+67   8.67992e+67   1.01753e+67   3.50399e+67   5.17754e+65
   3.78971e+59   9.41063e+62   2.96768e+61   1.39842e+68  3.85072e+135  2.20899e+202    1.2532e+68   1.60768e+67   3.69976e+67   8.67676e+67  -1.01968e+67    3.5282e+67   6.52712e+65
  -6.80377e+59   9.41186e+62  -4.83632e+61  -1.81962e+68  5.74303e+135 -3.35685e+202    1.6543e+68  -1.29173e+67  -3.72649e+67   -1.3178e+68  -1.01965e+67   3.53178e+67  -7.18651e+64
  -4.69749e+50   1.02141e+63   3.11184e+61   6.31833e+65 -3.83045e+135  5.03148e+202   6.18939e+67  -1.63541e+67   -3.7674e+67     5.466e+67   1.02015e+67    -3.727e+67    5.2785e+65
  -7.04875e+50    1.0224e+63   1.12932e+62   3.19344e+68  1.16825e+136  6.29988e+202   3.00497e+68   1.09407e+67    3.5875e+67   2.72529e+68   1.02071e+67  -3.69281e+67   8.35661e+65
   1.44135e+60   1.02193e+63   1.12894e+62   3.19241e+68  1.16849e+136  6.44919e+202   3.00383e+68    1.0917e+67   3.58613e+67   2.72463e+68  -1.02232e+67    -3.668e+67   1.41165e+66
   3.78971e+59   1.02095e+63   3.10941e+61   6.05176e+65 -3.81137e+135  5.08993e+202   6.17392e+67  -1.63603e+67  -3.76702e+67   5.46357e+67  -1.02288e+67  -3.70216e+67   6.65354e+65
  -4.45951e+50   9.41539e+62    2.9701e+61   3.84694e+66 -3.62251e+135  4.40132e+202   6.03101e+67  -1.53066e+67  -3.62484e+67   5.54019e+67   1.01753e+67   3.48898e+67   5.17754e+65
  -6.70701e+50   9.42504e+62   1.07763e+62   3.25726e+68  1.33479e+136  9.78562e+202   3.04548e+68   1.36934e+67   3.80315e+67   2.74001e+68   1.01807e+67   3.52316e+67   8.12553e+65
   1.43859e+60   9.42028e+62   1.07724e+62   3.25625e+68  1.33147e+136  9.56145e+202   3.04495e+68   1.36701e+67   3.80178e+67   2.73937e+68  -1.01966e+67   3.54736e+67   1.37787e+66
   3.78971e+59   9.41063e+62   2.96768e+61   3.82048e+66 -3.63891e+135  4.34189e+202   6.04442e+67  -1.53127e+67  -3.62448e+67    5.5378e+67   -1.0202e+67    3.5132e+67   6.52712e+65
  -6.83119e+59   1.02107e+63  -5.06975e+61  -1.79552e+68   5.2845e+135 -2.64539e+202   1.64178e+68  -1.16883e+67  -3.66371e+67  -1.31227e+68   1.01832e+67    -3.717e+67   2.13065e+64
   3.78971e+59   1.02095e+63   3.10941e+61   1.39128e+68  3.63682e+135  1.79537e+202   1.25378e+68   1.56559e+67   3.69044e+67   8.65673e+67   1.01843e+67  -3.72059e+67   1.71883e+66
   7.56805e+59   1.01954e+63   3.10215e+61   1.38957e+68  3.69847e+135  2.15739e+202   1.24943e+68   1.56166e+67    3.6867e+67   8.64738e+67  -1.02209e+67  -3.61637e+67   1.85589e+66
  -1.36635e+60   1.01966e+63  -5.07123e+61    -1.794e+68  5.34498e+135 -2.72244e+202   1.63827e+68  -1.16531e+67  -3.66001e+67  -1.31147e+68  -1.02219e+67  -3.61277e+67  -2.78326e+65
  -6.80377e+59   9.41186e+62  -4.83632e+61  -1.81952e+68  5.76585e+135 -3.39584e+202    1.6535e+68  -1.29079e+67  -3.72626e+67  -1.31782e+68   1.01575e+67   3.49786e+67   5.18863e+64
   3.78971e+59   9.41063e+62   2.96768e+61   1.39888e+68  3.88003e+135  2.42384e+202   1.25254e+68   1.61359e+67   3.70081e+67   8.67436e+67   1.01584e+67   3.49427e+67   1.68618e+66
   7.56807e+59   9.39634e+62   2.96041e+61    1.3972e+68  3.79338e+135  2.02922e+202   1.25413e+68   1.60972e+67   3.69711e+67   8.66518e+67  -1.01951e+67   3.59576e+67    1.8207e+66
  -1.36092e+60   9.39757e+62  -4.83794e+61  -1.81803e+68  5.67801e+135 -3.25672e+202   1.65452e+68  -1.28735e+67  -3.72266e+67  -1.31703e+68   -1.0196e+67   3.59936e+67  -2.42198e+65
   3.78971e+59   1.02095e+63   3.10941e+61   6.51867e+65 -3.83541e+135  4.94221e+202   6.19341e+67     -1.63e+67  -3.76594e+67   5.46113e+67   1.01788e+67  -3.73617e+67   1.71883e+66
   1.44135e+60   1.02193e+63   1.12894e+62   3.19329e+68  1.16894e+136  6.13974e+202   3.00469e+68   1.10308e+67   3.58814e+67   2.72416e+68   1.01941e+67  -3.70203e+67   3.41746e+66
   2.88054e+60   1.02052e+63   1.12763e+62   3.18917e+68  1.17005e+136  6.63932e+202   3.00012e+68   1.09358e+67   3.58133e+67   2.72168e+68  -1.02167e+67  -3.59782e+67   3.99156e+66
   7.56805e+59   1.01954e+63   3.10215e+61   5.63431e+65 -3.75621e+135  5.08405e+202   6.12905e+67  -1.63204e+67  -3.76528e+67   5.45367e+67  -1.02319e+67  -3.63189e+67   1.85589e+66
   3.78971e+59   9.41063e+62   2.96768e+61   3.86611e+66 -3.61383e+135  4.46478e+202   6.02393e+67  -1.52537e+67  -3.62343e+67   5.53541e+67   1.01532e+67   3.47928e+67   1.68618e+66
   1.43859e+60   9.42028e+62   1.07724e+62   3.25705e+68  1.33668e+136  1.00168e+203   3.04495e+68   1.37781e+67   3.80363e+67   2.73891e+68   1.01677e+67   3.51342e+67   3.32144e+66
   2.87508e+60   9.40598e+62   1.07595e+62     3.253e+68  1.32286e+136  9.24442e+202   3.04288e+68   1.36845e+67   3.79687e+67   2.73646e+68  -1.01911e+67   3.61489e+67   3.88491e+66
   7.56807e+59   9.39634e+62   2.96041e+61   3.77781e+66 -3.68343e+135  4.32065e+202   6.08087e+67  -1.52741e+67  -3.62286e+67   5.52805e+67  -1.02056e+67   3.58082e+67    1.8207e+66
  -1.36635e+60   1.01966e+63  -5.07123e+61  -1.79539e+68  5.32597e+135 -2.51953e+202   1.64038e+68  -1.18749e+67  -3.66322e+67  -1.31032e+68    1.0199e+67  -3.68084e+67  -2.47779e+66
   7.56805e+59   1.01954e+63   3.10215e+61   1.39045e+68   3.6582e+135  1.73263e+202   1.25201e+68   1.57335e+67   3.68871e+67    8.6424e+67   1.01942e+67  -3.68442e+67   2.90291e+66
   1.13242e+60    1.0172e+63   3.09006e+61   1.38727e+68  3.90373e+135   2.5598e+202   1.23861e+68   1.56603e+67   3.68054e+67   8.62617e+67  -1.00845e+67  -3.29772e+67   3.03904e+66
  -2.04523e+60   1.01732e+63  -5.06259e+61  -1.79098e+68  5.55432e+135 -3.17598e+202   1.62856e+68  -1.17732e+67   -3.6539e+67  -1.30786e+68  -1.00796e+67  -3.29414e+67  -2.77495e+66
  -1.36092e+60   9.39757e+62  -4.83794e+61  -1.81936e+68  5.75637e+135 -3.57322e+202   1.65362e+68  -1.30884e+67  -3.72573e+67  -1.31591e+68   1.01722e+67   3.53147e+67  -2.38672e+66
   7.56807e+59   9.39634e+62   2.96041e+61   1.39805e+68  3.85101e+135  2.45469e+202   1.25277e+68   1.62114e+67   3.69906e+67   8.66027e+67   1.01674e+67   3.52789e+67   2.84836e+66
   1.13243e+60   9.37252e+62   2.94833e+61   1.39492e+68  3.54198e+135  1.53876e+202   1.26159e+68   1.61393e+67   3.69098e+67   8.64431e+67  -1.00606e+67   3.91067e+67   2.98197e+66
  -2.03716e+60   9.37375e+62  -4.82951e+61  -1.81505e+68   5.4302e+135 -2.78514e+202   1.65873e+68  -1.29889e+67  -3.71665e+67   -1.3135e+68  -1.00558e+67   3.91425e+67  -2.67838e+66
   7.56805e+59   1.01954e+63   3.10215e+61   6.50591e+65 -3.80467e+135  4.78869e+202   6.16854e+67  -1.62036e+67  -3.76327e+67   5.44869e+67   1.01832e+67  -3.69994e+67   2.90291e+66
   2.88054e+60   1.02052e+63   1.12763e+62   3.19244e+68  1.17523e+136  5.88749e+202   3.00274e+68   1.13986e+67   3.58888e+67   2.71957e+68   1.02172e+67  -3.66593e+67   8.28494e+66
   4.31083e+60   1.01818e+63   1.12435e+62   3.18391e+68  1.18904e+136  7.22044e+202   2.99136e+68   1.12018e+67   3.57521e+67   2.71437e+68  -1.00652e+67   -3.2793e+67   8.85456e+66
   1.13242e+60    1.0172e+63   3.09006e+61   5.56226e+65 -3.52547e+135  4.78143e+202   5.93783e+67  -1.62254e+67  -3.75944e+67    5.4376e+67  -1.00992e+67  -3.31318e+67   3.03904e+66
   7.56807e+59   9.39634e+62   2.96041e+61   3.86244e+66 -3.63361e+135   4.5655e+202    6.0403e+67  -1.51599e+67  -3.62091e+67   5.52314e+67   1.01569e+67   3.51294e+67   2.84836e+66
   2.87508e+60   9.40598e+62   1.07595e+62   3.25615e+68  1.33774e+136  1.04213e+203   3.04381e+68   1.41346e+67   3.80415e+67   2.73439e+68   1.01895e+67   3.54696e+67   8.08467e+66
   4.30274e+60   9.38215e+62    1.0727e+62   3.24777e+68  1.29595e+136  8.55288e+202   3.04172e+68   1.39412e+67   3.79068e+67   2.72929e+68   -1.0042e+67   3.92966e+67   8.64374e+66
   1.13243e+60   9.37252e+62   2.94833e+61   3.76894e+66 -3.90967e+135  4.56971e+202   6.26409e+67  -1.51815e+67   -3.6172e+67   5.51224e+67  -1.00746e+67   3.89577e+67   2.98197e+66
  -2.49133e+50    1.1052e+63  -5.30675e+61  -1.82764e+68  5.46215e+135 -2.79636e+202   1.67154e+68  -1.17413e+67  -3.73035e+67  -1.33719e+68   1.02274e+67  -3.78075e+67   2.16776e+65
  -4.92545e+50   1.10508e+63   3.25627e+61   1.41733e+68  3.77962e+135  2.02913e+202   1.27705e+68   1.58919e+67   3.75804e+67   8.82607e+67   1.02272e+67  -3.78446e+67   5.38396e+65
   3.78937e+59   1.10462e+63   3.25385e+61   1.41671e+68  3.79324e+135  2.14271e+202   1.27583e+68   1.58776e+67   3.75658e+67   8.82278e+67  -1.02494e+67  -3.75886e+67   6.77875e+65
   -6.8585e+59   1.10474e+63  -5.30772e+61  -1.82745e+68   5.4792e+135 -2.80076e+202   1.67082e+68   -1.1737e+67  -3.72994e+67  -1.33708e+68  -1.02492e+67  -3.75514e+67  -8.93685e+64
  -2.35405e+50   1.02154e+63  -5.06874e+61  -1.85258e+68  5.95636e+135  -3.5553e+202   1.68416e+68    -1.301e+67  -3.79532e+67  -1.34294e+68   1.02017e+67   3.57404e+67   2.20259e+65
  -4.69749e+50   1.02141e+63   3.11184e+61   1.42518e+68  4.02117e+135  2.49048e+202   1.27633e+68   1.63888e+67   3.76873e+67   8.84418e+67   1.02015e+67   3.57033e+67   5.27849e+65
   3.78971e+59   1.02095e+63   3.10941e+61   1.42457e+68  3.99764e+135  2.36268e+202   1.27657e+68   1.63748e+67   3.76728e+67   8.84095e+67  -1.02233e+67   3.59527e+67   6.64696e+65
  -6.83119e+59   1.02107e+63  -5.06975e+61   -1.8524e+68  5.93628e+135 -3.53387e+202   1.68456e+68  -1.30059e+67  -3.79495e+67  -1.34284e+68  -1.02231e+67   3.59899e+67  -8.01096e+64
  -4.92545e+50   1.10508e+63   3.25627e+61   6.72163e+65 -3.97601e+135  5.34498e+202   6.30592e+67  -1.66606e+67  -3.83754e+67   5.57082e+67   1.02272e+67  -3.80069e+67   5.38396e+65
  -7.36997e+50   1.10608e+63   1.18201e+62   3.25166e+68  1.20584e+136  6.57949e+202   3.06063e+68   1.09586e+67   3.65078e+67     2.777e+68   1.02332e+67  -3.76516e+67    8.6024e+65
   1.44403e+60   1.10562e+63   1.18163e+62   3.25059e+68  1.20607e+136  6.73539e+202   3.05945e+68   1.09337e+67   3.64933e+67   2.77632e+68  -1.02493e+67  -3.73956e+67   1.44582e+66
   3.78937e+59   1.10462e+63   3.25385e+61   6.45042e+65 -3.95593e+135  5.40497e+202   6.28995e+67  -1.66669e+67  -3.83714e+67   5.56833e+67  -1.02553e+67  -3.77507e+67   6.77875e+65
  -4.69749e+50   1.02141e+63   3.11184e+61   4.00829e+66 -3.75671e+135  4.66503e+202    6.1423e+67  -1.55749e+67  -3.68948e+67   5.64781e+67   1.02015e+67   3.55473e+67   5.27849e+65
  -7.04875e+50    1.0224e+63   1.12932e+62   3.31785e+68  1.38168e+136  1.03119e+203   3.10265e+68   1.38118e+67   3.87459e+67   2.79227e+68   1.02071e+67   3.59026e+67   8.35656e+65
   1.44135e+60   1.02193e+63   1.12894e+62   3.31679e+68  1.37817e+136  1.00757e+203   3.10208e+68   1.37873e+67   3.87314e+67    2.7916e+68  -1.02232e+67    3.6152e+67   1.41019e+66
   3.78971e+59   1.02095e+63   3.10941e+61   3.98128e+66 -3.77393e+135  4.60387e+202   6.15612e+67  -1.55812e+67  -3.68911e+67   5.64535e+67  -1.02288e+67   3.57969e+67   6.64696e+65
   -6.8585e+59   1.10474e+63  -5.30772e+61  -1.82746e+68  5.45419e+135 -2.77349e+202   1.67159e+68  -1.17351e+67  -3.72998e+67  -1.33711e+68   1.02085e+67  -3.78923e+67  -1.11377e+64
   3.78937e+59   1.10462e+63   3.25385e+61   1.41717e+68  3.77302e+135  1.92275e+202   1.27713e+68    1.5938e+67   3.75763e+67   8.82025e+67   1.02098e+67  -3.79295e+67   1.75252e+66
   7.56751e+59   1.10323e+63   3.24658e+61   1.41542e+68   3.8379e+135  2.30295e+202   1.27264e+68   1.58976e+67   3.75381e+67    8.8106e+67  -1.02462e+67  -3.68551e+67   1.89185e+66
  -1.37175e+60   1.10336e+63  -5.30905e+61  -1.82585e+68  5.51732e+135 -2.85887e+202   1.66793e+68  -1.16978e+67  -3.72603e+67  -1.33626e+68  -1.02475e+67  -3.68177e+67  -3.16007e+65
  -6.83119e+59   1.02107e+63  -5.06975e+61  -1.85234e+68   5.9603e+135 -3.57827e+202   1.68379e+68  -1.29995e+67  -3.79483e+67  -1.34286e+68   1.01832e+67   3.56498e+67   2.15121e+64
   3.78971e+59   1.02095e+63   3.10941e+61   1.42504e+68  4.02768e+135  2.58636e+202   1.27592e+68    1.6435e+67   3.76835e+67   8.83851e+67   1.01843e+67   3.56126e+67   1.71817e+66
   7.56805e+59   1.01954e+63   3.10215e+61   1.42331e+68  3.93672e+135  2.17177e+202   1.27755e+68   1.63952e+67   3.76455e+67   8.82903e+67  -1.02209e+67   3.66585e+67   1.85487e+66
  -1.36635e+60   1.01966e+63  -5.07123e+61  -1.85077e+68  5.86765e+135 -3.42625e+202   1.68481e+68  -1.29632e+67  -3.79101e+67  -1.34203e+68  -1.02219e+67   3.66959e+67  -2.77605e+65
   3.78937e+59   1.10462e+63   3.25385e+61   6.90538e+65  -3.9805e+135  5.25125e+202    6.3095e+67  -1.66065e+67  -3.83609e+67    5.5658e+67   1.02039e+67  -3.80917e+67   1.75252e+66
   1.44403e+60   1.10562e+63   1.18163e+62    3.2515e+68  1.20664e+136  6.41238e+202   3.06033e+68   1.10521e+67   3.65144e+67   2.77584e+68   1.02202e+67  -3.77368e+67   3.51744e+66
   2.88586e+60   1.10423e+63    1.1803e+62   3.24722e+68  1.20778e+136  6.93583e+202    3.0556e+68   1.09534e+67   3.64439e+67   2.77325e+68  -1.02418e+67  -3.66625e+67   4.10146e+66
   7.56751e+59   1.10323e+63   3.24658e+61   5.99974e+65 -3.89721e+135   5.3954e+202   6.24305e+67  -1.66274e+67  -3.83536e+67    5.5581e+67   -1.0258e+67  -3.70165e+67   1.89185e+66
   3.78971e+59   1.02095e+63   3.10941e+61   4.02797e+66 -3.74828e+135  4.73161e+202   6.13556e+67  -1.55209e+67  -3.68803e+67   5.64292e+67   1.01788e+67   3.54568e+67   1.71817e+66
   1.44135e+60   1.02193e+63   1.12894e+62   3.31766e+68  1.38367e+136  1.05565e+203   3.10213e+68   1.39012e+67   3.87516e+67   2.79113e+68   1.01941e+67   3.58117e+67   3.41599e+66
   2.88054e+60   1.02052e+63   1.12763e+62   3.31344e+68  1.36911e+136  9.74176e+202   3.09997e+68   1.38038e+67   3.86812e+67   2.78859e+68  -1.02167e+67   3.68574e+67   3.98898e+66
   7.56805e+59   1.01954e+63   3.10215e+61   3.93701e+66 -3.82135e+135  4.58468e+202   6.19423e+67  -1.55419e+67  -3.68743e+67   5.63532e+67  -1.02319e+67   3.65033e+67   1.85487e+66
  -1.37175e+60   1.10336e+63  -5.30905e+61  -1.82731e+68  5.49895e+135 -2.64372e+202   1.67008e+68  -1.19274e+67  -3.72942e+67   -1.3351e+68   1.02253e+67  -3.75001e+67  -2.57122e+66
   7.56751e+59   1.10323e+63   3.24658e+61    1.4163e+68  3.79681e+135  1.86031e+202   1.27523e+68   1.60164e+67   3.75584e+67   8.80551e+67   1.02207e+67  -3.75373e+67   2.95964e+66
   1.13235e+60   1.10093e+63   3.23448e+61   1.41303e+68  4.04957e+135  2.72466e+202   1.26162e+68   1.59408e+67    3.7475e+67   8.78868e+67  -1.01078e+67  -3.36243e+67   3.09822e+66
  -2.05324e+60   1.10105e+63   -5.3002e+61  -1.82282e+68  5.73408e+135 -3.33128e+202   1.65809e+68  -1.18237e+67  -3.71983e+67   -1.3326e+68  -1.01032e+67  -3.35868e+67  -2.87343e+66
  -1.36635e+60   1.01966e+63  -5.07123e+61  -1.85216e+68   5.9486e+135 -3.76171e+202   1.68393e+68   -1.3185e+67  -3.79422e+67  -1.34089e+68    1.0199e+67   3.60152e+67  -2.47706e+66
   7.56805e+59   1.01954e+63   3.10215e+61   1.42418e+68  3.99584e+135  2.61478e+202   1.27621e+68    1.6512e+67   3.76656e+67   8.82405e+67   1.01942e+67    3.5978e+67   2.90189e+66
   1.13242e+60    1.0172e+63   3.09006e+61   1.42095e+68   3.6765e+135  1.65589e+202   1.28508e+68   1.64374e+67   3.75824e+67   8.80748e+67  -1.00845e+67   3.98511e+67   3.03785e+66
  -2.04523e+60   1.01732e+63  -5.06259e+61  -1.84777e+68  5.61195e+135 -2.93442e+202    1.6891e+68  -1.30838e+67  -3.78496e+67  -1.33844e+68  -1.00796e+67   3.98886e+67  -2.77357e+66
   7.56751e+59   1.10323e+63   3.24658e+61   6.88192e+65 -3.94673e+135  5.08732e+202   6.28267e+67  -1.65086e+67  -3.83333e+67   5.55301e+67    1.0209e+67  -3.76988e+67   2.95964e+66
   2.88586e+60   1.10423e+63    1.1803e+62    3.2506e+68  1.21331e+136  6.15073e+202   3.05828e+68   1.14284e+67   3.65218e+67    2.7711e+68   1.02447e+67  -3.73454e+67   8.49214e+66
   4.31875e+60   1.10193e+63     1.177e+62   3.24183e+68  1.22735e+136  7.53883e+202   3.04665e+68   1.12259e+67   3.63812e+67   2.76575e+68  -1.00878e+67  -3.34332e+67   9.07185e+66
   1.13235e+60   1.10093e+63   3.23448e+61    5.8795e+65 -3.65859e+135   5.0759e+202   6.04891e+67  -1.65318e+67  -3.82944e+67   5.54142e+67  -1.01235e+67  -3.37851e+67   3.09822e+66
   7.56805e+59   1.01954e+63   3.10215e+61   4.02418e+66 -3.77042e+135  4.83908e+202   6.15354e+67   -1.5425e+67  -3.68542e+67   5.63034e+67   1.01832e+67   3.58228e+67   2.90189e+66
   2.88054e+60   1.02052e+63   1.12763e+62   3.31672e+68  1.38461e+136  1.09777e+203   3.10097e+68   1.42667e+67   3.87567e+67   2.78648e+68   1.02172e+67   3.61763e+67   8.28235e+66
   4.31083e+60   1.01818e+63   1.12435e+62   3.30808e+68  1.34126e+136  9.01906e+202   3.09873e+68   1.40674e+67   3.86176e+67   2.78123e+68  -1.00652e+67   4.00485e+67   8.85111e+66
   1.13242e+60    1.0172e+63   3.09006e+61   3.92355e+66 -4.05503e+135   4.8475e+202   6.37999e+67  -1.54483e+67  -3.68174e+67   5.61892e+67  -1.00992e+67   3.96965e+67   3.03785e+66
  -2.63723e+50   1.19273e+63  -5.54949e+61  -1.86074e+68  5.63924e+135 -2.93247e+202   1.70247e+68  -1.17822e+67  -3.79905e+67  -1.36301e+68   1.02527e+67  -3.85651e+67   2.12036e+65
  -5.14646e+50    1.1926e+63   3.40351e+61   1.44433e+68  3.92451e+135  2.17281e+202    1.3014e+68   1.61916e+67   3.82802e+67    8.9961e+67   1.02525e+67  -3.86035e+67   5.48864e+65
   3.78796e+59   1.19215e+63   3.40109e+61   1.44373e+68  3.93919e+135  2.29219e+202   1.30017e+68   1.61778e+67    3.8266e+67    8.9929e+67  -1.02752e+67  -3.83391e+67   6.88972e+65
  -6.88642e+59   1.19228e+63  -5.55042e+61  -1.86048e+68  5.65659e+135 -2.93797e+202   1.70168e+68  -1.17763e+67  -3.79849e+67  -1.36287e+68  -1.02749e+67  -3.83007e+67  -1.01315e+65
  -2.49133e+50    1.1052e+63  -5.30675e+61  -1.88673e+68  6.16262e+135 -3.74973e+202   1.71566e+68  -1.31052e+67  -3.86673e+67  -1.36901e+68   1.02274e+67   3.64305e+67   2.16781e+65
  -4.92545e+50   1.10508e+63   3.25627e+61   1.45234e+68  4.17778e+135  2.66343e+202   1.30058e+68   1.66998e+67   3.83883e+67   9.01459e+67   1.02272e+67   3.63921e+67   5.38396e+65
   3.78937e+59   1.10462e+63   3.25385e+61   1.45175e+68   4.1534e+135   2.5298e+202   1.30086e+68   1.66862e+67   3.83744e+67   9.01145e+67  -1.02494e+67   3.66494e+67    6.7581e+65
   -6.8585e+59   1.10474e+63  -5.30772e+61  -1.88648e+68  6.14084e+135 -3.72464e+202   1.71602e+68  -1.30994e+67  -3.86618e+67  -1.36887e+68  -1.02492e+67   3.66878e+67  -9.05444e+64
  -5.14646e+50    1.1926e+63   3.40351e+61   7.18939e+65    -4.13e+135  5.68182e+202   6.42691e+67  -1.69731e+67  -3.91042e+67   5.67962e+67   1.02525e+67  -3.87727e+67   5.48864e+65
  -7.65739e+50   1.19362e+63   1.23574e+62   3.31223e+68  1.24579e+136  6.88587e+202   3.11851e+68   1.09858e+67   3.71661e+67   2.83071e+68   1.02587e+67  -3.84029e+67   8.85753e+65
   1.44655e+60   1.19317e+63   1.23535e+62   3.31114e+68  1.24606e+136  7.04949e+202    3.1173e+68   1.09605e+67   3.71513e+67   2.83002e+68  -1.02751e+67  -3.81386e+67    1.4797e+66
   3.78796e+59   1.19215e+63   3.40109e+61   6.94102e+65 -4.10889e+135  5.74297e+202   6.41044e+67  -1.69789e+67  -3.90994e+67   5.67724e+67  -1.02812e+67  -3.85082e+67   6.88972e+65
  -4.92545e+50   1.10508e+63   3.25627e+61   4.17331e+66 -3.89858e+135  4.94932e+202   6.25779e+67  -1.58526e+67  -3.75675e+67   5.75934e+67   1.02272e+67   3.62297e+67   5.38396e+65
  -7.36997e+50   1.10608e+63   1.18201e+62   3.38081e+68  1.43138e+136  1.08818e+203   3.16205e+68   1.39391e+67   3.94883e+67   2.84654e+68   1.02332e+67   3.65995e+67   8.60237e+65
   1.44403e+60   1.10562e+63   1.18163e+62   3.37974e+68  1.42772e+136   1.0634e+203   3.16147e+68   1.39143e+67   3.94738e+67   2.84586e+68  -1.02493e+67   3.68568e+67   1.44276e+66
   3.78937e+59   1.10462e+63   3.25385e+61   4.14892e+66 -3.91671e+135  4.88624e+202    6.2721e+67  -1.58583e+67  -3.75628e+67     5.757e+67  -1.02553e+67   3.64872e+67    6.7581e+65
  -6.88642e+59   1.19228e+63  -5.55042e+61  -1.86065e+68  5.63325e+135 -2.91033e+202   1.70255e+68  -1.17834e+67  -3.79888e+67  -1.36292e+68   1.02333e+67  -3.86425e+67  -4.81536e+64
   3.78796e+59   1.19215e+63   3.40109e+61   1.44409e+68  3.91755e+135  2.06171e+202    1.3014e+68    1.6234e+67   3.82745e+67   8.99008e+67   1.02347e+67  -3.86809e+67   1.78575e+66
   7.56535e+59   1.19079e+63   3.39381e+61   1.44234e+68  3.98626e+135  2.46152e+202   1.29681e+68   1.61935e+67   3.82363e+67   8.98038e+67  -1.02712e+67  -3.75728e+67   1.92673e+66
  -1.37721e+60   1.19092e+63  -5.55159e+61  -1.85889e+68  5.69869e+135 -3.00449e+202    1.6987e+68  -1.17428e+67  -3.79457e+67    -1.362e+68  -1.02726e+67  -3.75342e+67  -3.59115e+65
   -6.8585e+59   1.10474e+63  -5.30772e+61   -1.8865e+68  6.16646e+135 -3.77585e+202   1.71529e+68  -1.30976e+67  -3.86621e+67   -1.3689e+68   1.02085e+67   3.63468e+67  -1.23083e+64
   3.78937e+59   1.10462e+63   3.25385e+61   1.45221e+68  4.18396e+135   2.7623e+202   1.30019e+68   1.67466e+67   3.83849e+67   9.00891e+67   1.02098e+67   3.63084e+67   1.75045e+66
   7.56751e+59   1.10323e+63   3.24658e+61   1.45048e+68  4.08884e+135   2.3271e+202   1.30192e+68   1.67067e+67   3.83471e+67   8.99938e+67  -1.02462e+67   3.73867e+67   1.88873e+66
  -1.37175e+60   1.10336e+63  -5.30905e+61  -1.88478e+68  6.06808e+135 -3.60854e+202   1.71627e+68  -1.30579e+67  -3.86202e+67    -1.368e+68  -1.02475e+67   3.74252e+67  -3.17289e+65
   3.78796e+59   1.19215e+63   3.40109e+61   7.30657e+65 -4.13406e+135  5.58477e+202   6.43008e+67  -1.69226e+67   -3.9091e+67   5.67442e+67   1.02286e+67    -3.885e+67   1.78575e+66
   1.44655e+60   1.19317e+63   1.23535e+62   3.31201e+68  1.24654e+136  6.70724e+202   3.11815e+68   1.10788e+67   3.71714e+67   2.82951e+68   1.02459e+67  -3.84807e+67   3.62055e+66
   2.89093e+60   1.19181e+63   1.23401e+62   3.30762e+68  1.24781e+136  7.25745e+202   3.11329e+68   1.09776e+67   3.70995e+67   2.82685e+68  -1.02665e+67   -3.7373e+67   4.21411e+66
   7.56535e+59   1.19079e+63   3.39381e+61    6.4241e+65 -4.04651e+135  5.73049e+202   6.36154e+67   -1.6943e+67   -3.9082e+67   5.66674e+67  -1.02837e+67  -3.77415e+67   1.92673e+66
   3.78937e+59   1.10462e+63   3.25385e+61   4.19444e+66 -3.89051e+135  5.01938e+202   6.25148e+67  -1.57979e+67  -3.75523e+67   5.75446e+67   1.02039e+67   3.61463e+67   1.75045e+66
   1.44403e+60   1.10562e+63   1.18163e+62   3.38066e+68  1.43347e+136  1.11401e+203   3.16154e+68   1.40327e+67   3.94949e+67   2.84538e+68   1.02202e+67   3.65157e+67   3.51438e+66
   2.88586e+60   1.10423e+63    1.1803e+62   3.37634e+68  1.41823e+136  1.02824e+203   3.15934e+68   1.39331e+67   3.94234e+67   2.84277e+68  -1.02418e+67   3.75938e+67   4.09652e+66
   7.56751e+59   1.10323e+63   3.24658e+61   4.10597e+66 -3.96732e+135  4.86942e+202   6.31204e+67  -1.58183e+67  -3.75445e+67   5.74688e+67   -1.0258e+67   3.72252e+67   1.88873e+66
  -1.37721e+60   1.19092e+63  -5.55159e+61   -1.8605e+68  5.68196e+135 -2.77761e+202   1.70096e+68  -1.19838e+67  -3.79829e+67  -1.36083e+68    1.0251e+67  -3.82184e+67  -2.66945e+66
   7.56535e+59   1.19079e+63   3.39381e+61   1.44316e+68  3.94359e+135   1.9991e+202   1.29937e+68   1.63107e+67   3.82554e+67     8.975e+67   1.02469e+67  -3.82567e+67   3.01821e+66
    1.1321e+60   1.18852e+63    3.3817e+61   1.43977e+68  4.20376e+135  2.90271e+202   1.28552e+68   1.62324e+67   3.81701e+67   8.95741e+67  -1.01306e+67  -3.42969e+67   3.15929e+66
  -2.06127e+60   1.18865e+63  -5.54254e+61  -1.85593e+68  5.92424e+135 -3.49841e+202    1.6888e+68  -1.18783e+67  -3.78843e+67   -1.3583e+68  -1.01266e+67   -3.4258e+67  -2.97687e+66
  -1.37175e+60   1.10336e+63  -5.30905e+61  -1.88624e+68   6.1519e+135 -3.96494e+202   1.71544e+68  -1.32874e+67  -3.86541e+67  -1.36683e+68   1.02253e+67   3.67428e+67   -2.5725e+66
   7.56751e+59   1.10323e+63   3.24658e+61   1.45136e+68  4.14935e+135  2.78823e+202   1.30058e+68   1.68255e+67   3.83675e+67   8.99429e+67   1.02208e+67   3.67044e+67   2.95651e+66
   1.13235e+60   1.10093e+63   3.23448e+61   1.44799e+68   3.8191e+135  1.78362e+202   1.30949e+68   1.67478e+67   3.82819e+67   8.97695e+67  -1.01078e+67   4.06237e+67   3.09487e+66
  -2.05324e+60   1.10105e+63   -5.3002e+61   -1.8818e+68  5.80436e+135 -3.09565e+202   1.72067e+68  -1.31848e+67  -3.85594e+67  -1.36436e+68  -1.01032e+67   4.06625e+67  -2.87401e+66
   7.56535e+59   1.19079e+63   3.39381e+61   7.24838e+65 -4.09716e+135  5.41054e+202   6.40132e+67  -1.68257e+67   -3.9063e+67   5.66135e+67   1.02344e+67  -3.84254e+67   3.01821e+66
   2.89093e+60   1.19181e+63   1.23401e+62   3.31103e+68  1.25352e+136  6.43261e+202   3.11599e+68   1.14611e+67   3.71781e+67   2.82464e+68   1.02722e+67  -3.80576e+67   8.70758e+66
   4.32637e+60   1.18954e+63   1.23068e+62   3.30198e+68  1.26777e+136  7.87883e+202   3.10408e+68   1.12523e+67   3.70336e+67   2.81912e+68  -1.01098e+67  -3.40989e+67   9.29778e+66
    1.1321e+60   1.18852e+63    3.3817e+61   6.16751e+65 -3.79961e+135  5.39449e+202    6.1644e+67  -1.68506e+67  -3.90236e+67    5.6491e+67  -1.01477e+67  -3.44649e+67   3.15929e+66
   7.56751e+59   1.10323e+63   3.24658e+61   4.19421e+66 -3.91523e+135  5.13402e+202   6.27122e+67  -1.56995e+67  -3.75242e+67   5.74179e+67    1.0209e+67    3.6543e+67   2.95651e+66
   2.88586e+60   1.10423e+63    1.1803e+62   3.37971e+68  1.43434e+136  1.15801e+203    3.1604e+68   1.44081e+67   3.95013e+67   2.84062e+68   1.02447e+67   3.69109e+67   8.48719e+66
   4.31875e+60   1.10193e+63     1.177e+62    3.3708e+68  1.38934e+136  9.52504e+202     3.158e+68   1.42025e+67   3.93577e+67    2.8352e+68  -1.00878e+67    4.0829e+67   9.06604e+66
   1.13235e+60   1.10093e+63   3.23448e+61   4.08456e+66 -4.20873e+135  5.14725e+202   6.50032e+67  -1.57248e+67  -3.74875e+67   5.72969e+67  -1.01235e+67   4.04629e+67   3.09487e+66
  -2.77904e+50   1.28419e+63  -5.79716e+61  -1.89504e+68  5.82377e+135 -3.07275e+202   1.73459e+68  -1.18118e+67  -3.87023e+67   -1.3899e+68   1.02778e+67  -3.93529e+67   2.03877e+65
  -5.35303e+50   1.28406e+63   3.55364e+61   1.47254e+68  4.08009e+135   2.3323e+202   1.32679e+68   1.65184e+67   3.90111e+67   9.17245e+67   1.02771e+67  -3.93928e+67   5.57333e+65
   3.78395e+59   1.28361e+63   3.55123e+61   1.47204e+68   4.0966e+135  2.45812e+202   1.32561e+68   1.65068e+67   3.89985e+67   9.16986e+67  -1.03007e+67  -3.91191e+67    6.9516e+65
  -6.91653e+59   1.28374e+63  -5.79804e+61  -1.89462e+68  5.84058e+135 -3.07901e+202   1.73365e+68  -1.18022e+67  -3.86937e+67  -1.38966e+68  -1.03001e+67  -3.90796e+67   -1.2003e+65
  -2.63723e+50   1.19273e+63  -5.54949e+61   -1.9224e+68   6.3821e+135 -3.96062e+202   1.74855e+68  -1.32054e+67  -3.94136e+67  -1.39621e+68   1.02527e+67   3.71477e+67   2.12047e+65
  -5.14646e+50    1.1926e+63   3.40351e+61   1.48049e+68  4.34333e+135   2.8508e+202   1.32571e+68    1.7026e+67   3.91146e+67   9.19079e+67   1.02525e+67   3.71078e+67   5.48871e+65
   3.78796e+59   1.19215e+63   3.40109e+61   1.48002e+68  4.31886e+135  2.71234e+202   1.32611e+68   1.70152e+67   3.91034e+67   9.18829e+67  -1.02752e+67   3.73736e+67   6.83996e+65
  -6.88642e+59   1.19228e+63  -5.55042e+61  -1.92197e+68  6.35739e+135 -3.92945e+202   1.74878e+68  -1.31954e+67   -3.9404e+67  -1.39598e+68  -1.02749e+67   3.74132e+67  -1.05509e+65
  -5.35303e+50   1.28406e+63   3.55364e+61   7.78128e+65 -4.29262e+135  6.04075e+202   6.55227e+67  -1.72838e+67  -3.98605e+67   5.79224e+67   1.02771e+67  -3.95689e+67   5.57333e+65
   -7.9243e+50    1.2851e+63   1.29054e+62   3.37537e+68  1.28868e+136  7.23242e+202   3.17875e+68   1.10332e+67   3.78531e+67   2.88651e+68   1.02832e+67  -3.91839e+67   9.10103e+65
   1.44874e+60   1.28465e+63   1.29014e+62   3.37435e+68  1.28914e+136  7.40622e+202    3.1776e+68   1.10097e+67   3.78397e+67   2.88586e+68  -1.03003e+67  -3.89107e+67    1.5093e+66
   3.78395e+59   1.28361e+63   3.55123e+61   7.64111e+65 -4.27063e+135   6.1019e+202   6.53545e+67   -1.7287e+67  -3.98537e+67   5.79048e+67  -1.03064e+67  -3.92958e+67    6.9516e+65
  -5.14646e+50    1.1926e+63   3.40351e+61    4.3346e+66 -4.04837e+135  5.25544e+202   6.37743e+67  -1.61387e+67  -3.82698e+67   5.87431e+67   1.02525e+67   3.69386e+67   5.48871e+65
  -7.65739e+50   1.19362e+63   1.23574e+62   3.44622e+68  1.48406e+136  1.15005e+203   3.22372e+68   1.40779e+67    4.0258e+67   2.90286e+68   1.02587e+67   3.73236e+67   8.85756e+65
   1.44655e+60   1.19317e+63   1.23535e+62   3.44524e+68  1.48044e+136  1.12445e+203   3.22323e+68   1.40554e+67    4.0246e+67   2.90223e+68  -1.02751e+67   3.75896e+67    1.4732e+66
   3.78796e+59   1.19215e+63   3.40109e+61    4.3229e+66 -4.06765e+135  5.18991e+202   6.39245e+67  -1.61414e+67   -3.8262e+67   5.87263e+67  -1.02812e+67   3.72045e+67   6.83996e+65
  -6.91653e+59   1.28374e+63  -5.79804e+61  -1.89516e+68  5.82202e+135 -3.05508e+202   1.73477e+68    -1.183e+67   -3.8706e+67   -1.3898e+68   1.02579e+67  -3.94222e+67  -9.57452e+64
   3.78395e+59   1.28361e+63   3.55123e+61   1.47212e+68  4.07138e+135  2.21457e+202   1.32665e+68   1.65483e+67   3.90003e+67   9.16631e+67   1.02586e+67  -3.94618e+67   1.81333e+66
   7.55932e+59   1.28228e+63   3.54397e+61   1.47051e+68  4.14546e+135  2.63576e+202   1.32207e+68   1.65112e+67   3.89645e+67   9.15754e+67  -1.02962e+67  -3.83181e+67   1.95463e+66
  -1.38297e+60   1.28241e+63  -5.79903e+61  -1.89306e+68  5.88819e+135 -3.15783e+202   1.73057e+68  -1.17817e+67  -3.86564e+67  -1.38868e+68   -1.0297e+67  -3.82791e+67  -4.14441e+65
  -6.88642e+59   1.19228e+63  -5.55042e+61  -1.92214e+68  6.38586e+135 -3.99096e+202   1.74815e+68  -1.32026e+67  -3.94078e+67  -1.39603e+68   1.02333e+67   3.70714e+67  -5.23345e+64
   3.78796e+59   1.19215e+63   3.40109e+61   1.48038e+68  4.34914e+135  2.95243e+202   1.32537e+68   1.70715e+67   3.91119e+67   9.18548e+67   1.02347e+67   3.70318e+67   1.78077e+66
   7.56535e+59   1.19079e+63   3.39381e+61   1.47885e+68  4.25126e+135  2.49796e+202   1.32735e+68    1.7036e+67   3.90789e+67   9.17697e+67  -1.02712e+67   3.81439e+67    1.9193e+66
  -1.37721e+60   1.19092e+63  -5.55159e+61  -1.92005e+68   6.2791e+135 -3.80279e+202   1.74891e+68  -1.31543e+67  -3.93571e+67  -1.39493e+68  -1.02726e+67    3.8183e+67  -3.64782e+65
   3.78395e+59   1.28361e+63   3.55123e+61     7.719e+65 -4.29654e+135  5.94415e+202   6.55525e+67  -1.72455e+67  -3.98519e+67   5.78693e+67    1.0253e+67  -3.96384e+67   1.81333e+66
   1.44874e+60   1.28465e+63   1.29014e+62   3.37495e+68  1.28893e+136  7.03109e+202   3.17826e+68   1.11152e+67   3.78533e+67   2.88526e+68   1.02705e+67  -3.92535e+67   3.72088e+66
   2.89548e+60   1.28332e+63   1.28879e+62   3.37064e+68  1.29063e+136  7.61366e+202   3.17342e+68    1.1016e+67   3.77833e+67   2.88265e+68  -1.02912e+67  -3.81111e+67   4.32275e+66
   7.55932e+59   1.28228e+63   3.54397e+61   7.02301e+65 -4.20488e+135  6.08908e+202   6.48488e+67  -1.72616e+67  -3.98387e+67   5.78026e+67  -1.03087e+67  -3.84957e+67   1.95463e+66
   3.78796e+59   1.19215e+63   3.40109e+61   4.35952e+66 -4.04092e+135  5.32981e+202   6.37175e+67  -1.60851e+67  -3.82535e+67   5.86982e+67   1.02286e+67   3.68626e+67   1.78077e+66
   1.44655e+60   1.19317e+63   1.23535e+62   3.44611e+68  1.48622e+136  1.17713e+203   3.22327e+68   1.41737e+67   4.02661e+67   2.90171e+68   1.02459e+67   3.72476e+67   3.61404e+66
   2.89093e+60   1.19181e+63   1.23401e+62   3.44192e+68  1.47067e+136  1.08762e+203    3.2212e+68   1.40769e+67   4.01986e+67   2.89916e+68  -1.02665e+67   3.83599e+67   4.20411e+66
   7.56535e+59   1.19079e+63   3.39381e+61   4.29345e+66 -4.12201e+135  5.17585e+202   6.43463e+67  -1.61004e+67  -3.82395e+67   5.86333e+67  -1.02837e+67   3.79752e+67    1.9193e+66
  -1.38297e+60   1.28241e+63  -5.79903e+61  -1.89503e+68  5.87615e+135 -2.92243e+202   1.73307e+68  -1.20456e+67  -3.87019e+67  -1.38756e+68   1.02761e+67  -3.89648e+67  -2.77607e+66
   7.55932e+59   1.28228e+63   3.54397e+61   1.47107e+68  4.09897e+135  2.15018e+202   1.32445e+68   1.66163e+67   3.89775e+67   9.15135e+67   1.02721e+67  -3.90037e+67   3.07591e+66
   1.13147e+60   1.28005e+63   3.53184e+61   1.46757e+68    4.367e+135  3.09507e+202   1.31037e+68   1.65355e+67     3.889e+67   9.13315e+67  -1.01533e+67  -3.49957e+67   3.21981e+66
  -2.06955e+60   1.28018e+63  -5.78977e+61  -1.89035e+68  6.12562e+135 -3.67879e+202   1.72071e+68  -1.19375e+67  -3.86004e+67  -1.38497e+68  -1.01493e+67  -3.49568e+67  -3.08857e+66
  -1.37721e+60   1.19092e+63  -5.55159e+61  -1.92166e+68  6.36692e+135 -4.18415e+202   1.74816e+68  -1.33953e+67  -3.93943e+67  -1.39376e+68    1.0251e+67   3.74988e+67  -2.67513e+66
   7.56535e+59   1.19079e+63   3.39381e+61   1.47967e+68  4.31248e+135  2.97666e+202   1.32596e+68   1.71533e+67   3.90979e+67   9.17159e+67   1.02469e+67     3.746e+67   3.01076e+66
    1.1321e+60   1.18852e+63    3.3817e+61   1.47622e+68  3.97126e+135  1.92421e+202   1.33496e+68   1.70738e+67   3.90115e+67   9.15372e+67  -1.01306e+67   4.14263e+67   3.15184e+66
  -2.06127e+60   1.18865e+63  -5.54254e+61  -1.91708e+68  6.00721e+135 -3.26836e+202   1.75342e+68  -1.32896e+67  -3.92955e+67  -1.39123e+68  -1.01265e+67   4.14652e+67  -2.98151e+66
   7.55932e+59   1.28228e+63   3.54397e+61   7.58405e+65 -4.25682e+135  5.76169e+202   6.52487e+67  -1.71565e+67  -3.98258e+67   5.77407e+67   1.02597e+67  -3.91813e+67   3.07591e+66
   2.89548e+60   1.28332e+63   1.28879e+62   3.37385e+68  1.29595e+136  6.73427e+202   3.17599e+68    1.1496e+67   3.78572e+67   2.88032e+68   1.02993e+67  -3.87974e+67   8.92824e+66
   4.33343e+60   1.28109e+63   1.28544e+62   3.36455e+68  1.31045e+136  8.24211e+202   3.16382e+68   1.12815e+67   3.77088e+67   2.87465e+68  -1.01316e+67  -3.47909e+67   9.52959e+66
   1.13147e+60   1.28005e+63   3.53184e+61   6.44394e+65  -3.9495e+135  5.74003e+202   6.28484e+67  -1.71828e+67   -3.9786e+67   5.76132e+67  -1.01712e+67  -3.51733e+67   3.21981e+66
   7.56535e+59   1.19079e+63   3.39381e+61   4.37595e+66 -4.06878e+135  5.45206e+202   6.39369e+67  -1.59831e+67  -3.82204e+67   5.85795e+67   1.02344e+67   3.72913e+67   3.01076e+66
   2.89093e+60   1.19181e+63   1.23401e+62   3.44532e+68   1.4872e+136  1.22342e+203   3.22228e+68   1.45604e+67   4.02772e+67   2.89695e+68   1.02722e+67   3.76753e+67   8.69756e+66
   4.32637e+60   1.18954e+63   1.23068e+62    3.4362e+68  1.44059e+136  1.00791e+203   3.21976e+68   1.43497e+67   4.01309e+67   2.89139e+68  -1.01098e+67   4.16407e+67   9.28712e+66
    1.1321e+60   1.18852e+63    3.3817e+61   4.26262e+66  -4.3716e+135  5.47037e+202   6.62554e+67  -1.60092e+67  -3.81823e+67   5.84541e+67  -1.01477e+67   4.12583e+67   3.15184e+66
  -2.91716e+50   1.37967e+63  -6.05002e+61   -1.9306e+68  6.01419e+135 -3.21158e+202   1.76799e+68  -1.18172e+67  -3.94373e+67  -1.41805e+68   1.03032e+67  -4.01724e+67     1.868e+65
  -5.54374e+50   1.37954e+63   3.70673e+61   1.50206e+68  4.24835e+135  2.51194e+202   1.35327e+68   1.68848e+67   3.97778e+67    9.3543e+67   1.03008e+67  -4.02152e+67   5.58682e+65
    3.7751e+59    1.3791e+63   3.70436e+61   1.50186e+68  4.26846e+135  2.64512e+202    1.3523e+68   1.68802e+67   3.97692e+67   9.35362e+67   -1.0327e+67  -3.99311e+67     6.898e+65
  -6.95133e+59   1.37923e+63  -6.05081e+61   -1.9298e+68  6.02843e+135 -3.21778e+202   1.76672e+68  -1.17988e+67  -3.94229e+67  -1.41758e+68  -1.03245e+67  -3.98899e+67  -1.52901e+65
  -2.77904e+50   1.28419e+63  -5.79716e+61  -1.95988e+68  6.61699e+135 -4.19014e+202   1.78309e+68  -1.33081e+67  -4.01985e+67  -1.42481e+68   1.02777e+67   3.78942e+67   2.03907e+65
  -5.35303e+50   1.28406e+63   3.55364e+61    1.5095e+68  4.51765e+135  3.05316e+202   1.35161e+68   1.73713e+67   3.98641e+67   9.37149e+67   1.02771e+67   3.78514e+67   5.57357e+65
   3.78395e+59   1.28361e+63   3.55123e+61    1.5094e+68  4.49512e+135  2.91302e+202   1.35232e+68   1.73689e+67   3.98606e+67   9.37103e+67  -1.03007e+67   3.81267e+67   6.85853e+65
  -6.91653e+59   1.28374e+63  -5.79804e+61    -1.959e+68   6.5865e+135 -4.14742e+202   1.78299e+68   -1.3288e+67  -4.01794e+67  -1.42433e+68  -1.03001e+67    3.8168e+67     -1.29e+65
  -5.54374e+50   1.37954e+63   3.70673e+61   8.51376e+65 -4.46347e+135  6.41854e+202   6.68147e+67  -1.75816e+67  -4.06437e+67   5.90767e+67   1.03008e+67  -4.03965e+67   5.58682e+65
  -8.16573e+50    1.3806e+63   1.34644e+62    3.4413e+68  1.33531e+136  7.64123e+202   3.24148e+68    1.1117e+67   3.85744e+67   2.94438e+68   1.03054e+67  -3.99965e+67   9.27794e+65
   1.45029e+60   1.38016e+63   1.34605e+62   3.44059e+68  1.33633e+136  7.82993e+202   3.24057e+68   1.11005e+67   3.85654e+67   2.94393e+68   -1.0325e+67  -3.97135e+67   1.52681e+66
    3.7751e+59    1.3791e+63   3.70436e+61   8.68639e+65  -4.4411e+135  6.47678e+202   6.66472e+67  -1.75776e+67  -4.06322e+67   5.90784e+67  -1.03296e+67  -4.01147e+67     6.898e+65
  -5.35303e+50   1.28406e+63   3.55364e+61   4.47447e+66  -4.2059e+135  5.58377e+202   6.50071e+67  -1.64308e+67  -3.90075e+67   5.99128e+67   1.02771e+67   3.76753e+67   5.57357e+65
   -7.9243e+50    1.2851e+63   1.29054e+62   3.51403e+68   1.5399e+136  1.21754e+203   3.28762e+68   1.42329e+67   4.10528e+67   2.96117e+68   1.02832e+67   3.80754e+67   9.10126e+65
   1.44874e+60   1.28465e+63   1.29014e+62   3.51341e+68  1.53678e+136  1.19208e+203   3.28745e+68   1.42188e+67   4.10488e+67   2.96074e+68  -1.03003e+67   3.83513e+67   1.49717e+66
   3.78395e+59   1.28361e+63   3.55123e+61   4.50018e+66 -4.22682e+135  5.51449e+202   6.51696e+67  -1.64249e+67  -3.89915e+67   5.99165e+67  -1.03064e+67     3.795e+67   6.85853e+65
  -6.95133e+59   1.37923e+63  -6.05081e+61  -1.93113e+68  6.02103e+135  -3.2056e+202   1.76837e+68  -1.18708e+67  -3.94535e+67  -1.41788e+68   1.02834e+67  -4.02333e+67  -1.68233e+65
    3.7751e+59    1.3791e+63   3.70436e+61   1.50125e+68   4.2352e+135  2.38439e+202   1.35286e+68   1.68851e+67   3.97551e+67   9.34844e+67   1.02802e+67  -4.02746e+67   1.82267e+66
   7.54617e+59   1.37779e+63   3.69718e+61   1.50022e+68  4.31847e+135   2.8293e+202   1.34863e+68   1.68615e+67   3.97263e+67   9.34343e+67  -1.03229e+67  -3.90921e+67   1.96241e+66
  -1.38939e+60   1.37792e+63  -6.05153e+61  -1.92821e+68  6.08351e+135 -3.31551e+202   1.76342e+68  -1.18034e+67  -3.93914e+67  -1.41626e+68  -1.03197e+67  -3.90542e+67  -4.97181e+65
  -6.91653e+59   1.28374e+63  -5.79804e+61  -1.95953e+68  6.62109e+135 -4.22749e+202    1.7826e+68  -1.33157e+67  -4.01916e+67  -1.42446e+68   1.02579e+67   3.78254e+67  -1.04679e+65
   3.78395e+59   1.28361e+63   3.55123e+61   1.50948e+68  4.52293e+135  3.15674e+202   1.35138e+68   1.74105e+67   3.98625e+67   9.36749e+67   1.02586e+67    3.7784e+67   1.80405e+66
   7.55932e+59   1.28228e+63   3.54397e+61   1.50868e+68  4.42665e+135  2.68914e+202   1.35405e+68    1.7392e+67   3.98453e+67   9.36306e+67  -1.02962e+67   3.89324e+67   1.94099e+66
  -1.38297e+60   1.28241e+63  -5.79903e+61  -1.95647e+68   6.4993e+135 -4.00554e+202   1.78265e+68   -1.3245e+67  -4.01196e+67  -1.42282e+68   -1.0297e+67   3.89705e+67  -4.27048e+65
    3.7751e+59    1.3791e+63   3.70436e+61   8.07737e+65 -4.46802e+135  6.33088e+202   6.68481e+67  -1.75726e+67  -4.06463e+67   5.90266e+67   1.02776e+67  -4.04582e+67   1.82267e+66
   1.45029e+60   1.38016e+63   1.34605e+62   3.44043e+68  1.33417e+136  7.39549e+202   3.24073e+68   1.11678e+67   3.85618e+67   2.94313e+68   1.02923e+67  -4.00571e+67   3.80383e+66
   2.89907e+60   1.37885e+63   1.34469e+62   3.43672e+68  1.33709e+136  8.02154e+202   3.23634e+68   1.10822e+67   3.85002e+67   2.94089e+68  -1.03168e+67   -3.8878e+67   4.41159e+66
   7.54617e+59   1.37779e+63   3.69718e+61   8.00182e+65 -4.37329e+135  6.46908e+202   6.61357e+67  -1.75744e+67   -4.0624e+67   5.89985e+67  -1.03316e+67  -3.92814e+67   1.96241e+66
   3.78395e+59   1.28361e+63   3.55123e+61    4.5081e+66 -4.19971e+135  5.66452e+202   6.49618e+67  -1.63833e+67  -3.89897e+67   5.98811e+67    1.0253e+67   3.76074e+67   1.80405e+66
   1.44874e+60   1.28465e+63   1.29014e+62   3.51401e+68  1.54196e+136  1.24527e+203   3.28729e+68   1.43245e+67   4.10625e+67   2.96014e+68   1.02706e+67   3.80084e+67   3.70877e+66
   2.89548e+60   1.28332e+63   1.28879e+62   3.51056e+68  1.52713e+136   1.1541e+203   3.28586e+68   1.42448e+67    4.1012e+67   2.95799e+68  -1.02911e+67    3.9158e+67   4.30437e+66
   7.55932e+59   1.28228e+63   3.54397e+61   4.51907e+66 -4.28625e+135  5.50364e+202   6.56253e+67  -1.63808e+67  -3.89579e+67   5.98578e+67  -1.03087e+67   3.87547e+67   1.94099e+66
  -1.38939e+60   1.37792e+63  -6.05153e+61  -1.93105e+68  6.08352e+135 -3.08005e+202   1.76653e+68  -1.21172e+67   -3.9457e+67  -1.41531e+68   1.03021e+67  -3.97416e+67  -2.90126e+66
   7.54617e+59   1.37779e+63   3.69718e+61   1.50005e+68  4.26297e+135  2.31485e+202    1.3505e+68   1.69297e+67   3.97223e+67   9.33528e+67   1.02948e+67  -3.97794e+67   3.12438e+66
   1.13019e+60    1.3756e+63   3.68505e+61   1.49662e+68  4.54049e+135  3.30284e+202   1.33634e+68   1.68506e+67   3.96313e+67   9.31799e+67  -1.01775e+67  -3.57212e+67   3.27241e+66
  -2.07837e+60   1.37573e+63  -6.04203e+61  -1.92603e+68  6.33871e+135 -3.87443e+202   1.75377e+68  -1.20012e+67  -3.93529e+67  -1.41249e+68  -1.01702e+67  -3.56861e+67  -3.21782e+66
  -1.38297e+60   1.28241e+63  -5.79903e+61  -1.95844e+68  6.59431e+135  -4.4208e+202   1.78215e+68  -1.35089e+67  -4.01651e+67   -1.4217e+68   1.02761e+67   3.82847e+67  -2.78871e+66
   7.55932e+59   1.28228e+63   3.54397e+61   1.50924e+68  4.48638e+135  3.18197e+202   1.35247e+68   1.74972e+67   3.98583e+67   9.35687e+67   1.02722e+67   3.82467e+67   3.06223e+66
   1.13147e+60   1.28005e+63   3.53184e+61   1.50604e+68   4.1364e+135  2.08246e+202   1.36181e+68   1.74234e+67   3.97778e+67   9.34031e+67  -1.01533e+67   4.22618e+67   3.20731e+66
  -2.06955e+60   1.28018e+63  -5.78977e+61  -1.95335e+68  6.21811e+135 -3.44883e+202   1.78711e+68  -1.33914e+67  -4.00543e+67  -1.41889e+68  -1.01493e+67    4.2297e+67  -3.09894e+66
   7.54617e+59   1.37779e+63   3.69718e+61   7.82994e+65  -4.4269e+135  6.14636e+202   6.65396e+67  -1.75061e+67  -4.06279e+67    5.8917e+67   1.02861e+67  -3.99686e+67   3.12438e+66
   2.89907e+60   1.37885e+63   1.34469e+62   3.43915e+68  1.34055e+136  7.05509e+202    3.2384e+68   1.15293e+67   3.85564e+67   2.93829e+68   1.03245e+67   -3.9566e+67   9.14431e+66
   4.33956e+60   1.37666e+63   1.34131e+62   3.42982e+68  1.35558e+136  8.62993e+202   3.22616e+68    1.1314e+67   3.84039e+67   2.93264e+68  -1.01545e+67  -3.55086e+67   9.75841e+66
   1.13019e+60    1.3756e+63   3.68505e+61    6.8265e+65 -4.11013e+135  6.11637e+202   6.41139e+67  -1.75292e+67  -4.05883e+67   5.88001e+67   -1.0193e+67  -3.59122e+67   3.27241e+66
   7.55932e+59   1.28228e+63   3.54397e+61   4.57534e+66   -4.232e+135  5.79525e+202   6.52145e+67  -1.62756e+67  -3.89449e+67   5.97959e+67   1.02597e+67   3.80691e+67   3.06223e+66
   2.89548e+60   1.28332e+63   1.28879e+62   3.51376e+68  1.54352e+136  1.29466e+203   3.28679e+68   1.47249e+67    4.1086e+67   2.95565e+68   1.02993e+67   3.84717e+67   8.90981e+66
   4.33343e+60   1.28109e+63   1.28544e+62   3.50476e+68  1.49581e+136  1.06975e+203   3.28444e+68   1.45173e+67   4.09445e+67   2.95015e+68  -1.01316e+67   4.24878e+67   9.51163e+66
   1.13147e+60   1.28005e+63   3.53184e+61   4.49164e+66 -4.54517e+135  5.81703e+202   6.75673e+67  -1.62949e+67  -3.88982e+67   5.96848e+67  -1.01712e+67   4.20843e+67   3.20731e+66
  -3.05425e+50   1.47925e+63  -6.30839e+61  -1.96778e+68  6.21216e+135 -3.34768e+202   1.80304e+68  -1.17978e+67  -4.01946e+67  -1.44786e+68   1.03305e+67  -4.10253e+67   1.49828e+65
  -5.72297e+50   1.47911e+63   3.86279e+61   1.53267e+68  4.42849e+135  2.71297e+202   1.38066e+68   1.72903e+67   4.05851e+67   9.53916e+67   1.03228e+67  -4.10757e+67    5.4251e+65
   3.76065e+59   1.47868e+63   3.86053e+61   1.53313e+68  4.45532e+135  2.85433e+202    1.3802e+68   1.73009e+67   4.05834e+67   9.54288e+67  -1.03555e+67  -4.07794e+67   6.65389e+65
  -6.99205e+59   1.47882e+63  -6.30901e+61  -1.96622e+68  6.22022e+135 -3.35282e+202   1.80111e+68  -1.17617e+67  -4.01708e+67  -1.44689e+68  -1.03478e+67  -4.07333e+67  -2.08599e+65
  -2.91716e+50   1.37967e+63  -6.05002e+61  -1.99959e+68  6.87029e+135 -4.44087e+202    1.8197e+68  -1.34095e+67  -4.10294e+67   -1.4552e+68   1.03032e+67   3.86737e+67   1.86868e+65
  -5.54374e+50   1.37954e+63   3.70673e+61   1.53917e+68  4.70004e+135  3.27053e+202   1.37806e+68   1.77413e+67   4.06344e+67   9.55417e+67   1.03008e+67   3.86233e+67   5.58741e+65
    3.7751e+59    1.3791e+63   3.70436e+61   1.53989e+68  4.68331e+135  3.13501e+202   1.37947e+68   1.77578e+67   4.06469e+67   9.55842e+67   -1.0327e+67   3.89094e+67   6.79113e+65
  -6.95133e+59   1.37923e+63  -6.05081e+61  -1.99779e+68   6.8288e+135 -4.37661e+202   1.81887e+68  -1.33681e+67  -4.09919e+67  -1.45419e+68  -1.03246e+67   3.89556e+67  -1.64244e+65
  -5.72297e+50   1.47911e+63   3.86279e+61   9.07752e+65 -4.64127e+135  6.81639e+202   6.81329e+67  -1.78695e+67  -4.14545e+67   6.02318e+67   1.03228e+67  -4.12553e+67    5.4251e+65
  -8.39959e+50   1.48019e+63   1.40349e+62   3.50998e+68  1.38624e+136   8.1309e+202   3.30662e+68   1.12462e+67   3.93356e+67   3.00416e+68   1.03227e+67  -4.08434e+67   9.27328e+65
   1.45097e+60   1.47977e+63   1.40311e+62      3.51e+68  1.38846e+136  8.34252e+202   3.30631e+68   1.12467e+67   3.93359e+67   3.00418e+68  -1.03487e+67  -4.05496e+67   1.52178e+66
   3.76065e+59   1.47868e+63   3.86053e+61   9.93303e+65 -4.61966e+135   6.8664e+202   6.79753e+67  -1.78498e+67   -4.1435e+67   6.02781e+67  -1.03486e+67  -4.09654e+67   6.65389e+65
  -5.54374e+50   1.37954e+63   3.70673e+61   4.56311e+66 -4.37026e+135  5.93326e+202   6.62653e+67  -1.67251e+67  -3.97872e+67   6.10753e+67   1.03008e+67   3.84419e+67   5.58741e+65
  -8.16573e+50    1.3806e+63   1.34644e+62   3.58407e+68  1.59906e+136  1.29169e+203   3.35358e+68   1.44117e+67   4.18691e+67   3.02126e+68   1.03054e+67   3.88538e+67   9.27856e+65
   1.45029e+60   1.38016e+63   1.34605e+62   3.58434e+68  1.59733e+136  1.26834e+203   3.35413e+68    1.4418e+67   4.18829e+67   3.02133e+68   -1.0325e+67   3.91415e+67   1.51018e+66
    3.7751e+59    1.3791e+63   3.70436e+61   4.67195e+66 -4.39381e+135  5.85792e+202   6.64503e+67  -1.66999e+67  -3.97545e+67   6.11264e+67  -1.03296e+67   3.87258e+67   6.79113e+65
  -6.99205e+59   1.47882e+63  -6.30901e+61  -1.96889e+68  6.23263e+135   -3.361e+202   1.80369e+68  -1.19086e+67  -4.02326e+67  -1.44748e+68   1.03134e+67  -4.10777e+67  -2.91403e+65
   3.76065e+59   1.47868e+63   3.86053e+61   1.53132e+68  4.40809e+135  2.57336e+202    1.3799e+68   1.72407e+67   4.05415e+67   9.53494e+67   1.02968e+67  -4.11237e+67    1.7904e+66
   7.52515e+59   1.47739e+63    3.8536e+61   1.53175e+68  4.50814e+135   3.0447e+202   1.37676e+68   1.72508e+67   4.05251e+67   9.53995e+67  -1.03547e+67  -3.98974e+67   1.92856e+66
  -1.39664e+60   1.47753e+63  -6.30929e+61  -1.96419e+68  6.28266e+135 -3.47592e+202   1.79715e+68  -1.17999e+67  -4.01504e+67  -1.44468e+68  -1.03382e+67  -3.98624e+67  -6.31906e+65
  -6.95133e+59   1.37923e+63  -6.05081e+61  -1.99912e+68  6.87616e+135 -4.49143e+202   1.81902e+68  -1.34399e+67  -4.10224e+67  -1.45449e+68   1.02834e+67   3.86121e+67  -1.79482e+65
    3.7751e+59    1.3791e+63   3.70436e+61   1.53928e+68  4.70414e+135  3.37391e+202   1.37803e+68   1.77629e+67   4.06329e+67   9.55324e+67   1.02802e+67    3.8566e+67   1.81206e+66
   7.54617e+59   1.37779e+63   3.69718e+61   1.54039e+68  4.61923e+135  2.90791e+202   1.38234e+68   1.77884e+67   4.06532e+67   9.55971e+67  -1.03228e+67   3.97543e+67    1.9474e+66
  -1.38939e+60   1.37792e+63  -6.05153e+61  -1.99383e+68  6.72581e+135 -4.21027e+202   1.81735e+68  -1.33178e+67  -4.09056e+67  -1.45159e+68  -1.03197e+67   3.97897e+67  -5.13036e+65
   3.76065e+59   1.47868e+63   3.86053e+61   8.11851e+65 -4.64801e+135  6.74993e+202   6.81812e+67    -1.791e+67  -4.14768e+67   6.01987e+67   1.03038e+67  -4.13096e+67    1.7904e+66
   1.45097e+60   1.47977e+63   1.40311e+62   3.50839e+68  1.38244e+136  7.81031e+202    3.3055e+68   1.12372e+67   3.92987e+67   3.00303e+68   1.03069e+67  -4.08939e+67   3.84219e+66
   2.90138e+60   1.47848e+63   1.40175e+62    3.5063e+68  1.38809e+136  8.49825e+202   3.30243e+68   1.11889e+67   3.92553e+67   3.00186e+68   -1.0346e+67  -3.96745e+67   4.45435e+66
   7.52515e+59   1.47739e+63    3.8536e+61    9.5778e+65 -4.55308e+135  6.86918e+202   6.74833e+67  -1.78763e+67  -4.14382e+67   6.02723e+67  -1.03491e+67  -4.00997e+67   1.92856e+66
    3.7751e+59    1.3791e+63   3.70436e+61   4.61123e+66 -4.36667e+135  6.02533e+202   6.62415e+67  -1.66949e+67  -3.97685e+67   6.10746e+67   1.02776e+67   3.83824e+67   1.81206e+66
   1.45029e+60   1.38016e+63   1.34605e+62   3.58418e+68  1.60062e+136   1.3186e+203   3.35347e+68   1.44854e+67   4.18792e+67   3.02054e+68   1.02924e+67   3.87979e+67   3.78727e+66
   2.89907e+60   1.37885e+63   1.34469e+62   3.58276e+68  1.58872e+136  1.23046e+203   3.35372e+68   1.44526e+67   4.18704e+67   3.01953e+68  -1.03168e+67   3.99899e+67   4.38693e+66
   7.54617e+59   1.37779e+63   3.69718e+61   4.81671e+66 -4.46117e+135  5.85086e+202   6.69654e+67  -1.66475e+67  -3.96971e+67   6.11612e+67  -1.03316e+67    3.9565e+67    1.9474e+66
  -1.39664e+60   1.47753e+63  -6.30929e+61  -1.96877e+68   6.3075e+135 -3.25318e+202   1.80147e+68  -1.22093e+67  -4.02562e+67  -1.44411e+68   1.03331e+67  -4.05514e+67  -3.06788e+66
   7.52515e+59   1.47739e+63    3.8536e+61   1.53002e+68  4.43428e+135  2.49376e+202   1.37751e+68   1.72386e+67   4.04851e+67   9.52784e+67   1.03111e+67  -4.05863e+67   3.14416e+66
   1.12839e+60   1.47525e+63    3.8416e+61   1.52736e+68  4.72691e+135  3.52755e+202   1.36387e+68   1.71772e+67   4.03884e+67   9.51706e+67  -1.02079e+67  -3.64734e+67   3.30052e+66
  -2.08775e+60   1.47538e+63  -6.29941e+61   -1.9626e+68  6.56206e+135 -4.08631e+202   1.78762e+68  -1.20671e+67  -4.01492e+67  -1.44044e+68  -1.01858e+67  -3.64507e+67  -3.38564e+66
  -1.38939e+60   1.37792e+63  -6.05153e+61  -1.99667e+68  6.83573e+135 -4.67808e+202   1.81745e+68  -1.36314e+67  -4.09711e+67  -1.45064e+68    1.0302e+67   3.91023e+67  -2.91715e+66
   7.54617e+59   1.37779e+63   3.69718e+61   1.54022e+68  4.67222e+135  3.40629e+202   1.38023e+68   1.78568e+67   4.06493e+67   9.55156e+67   1.02948e+67    3.9067e+67   3.10932e+66
   1.13019e+60    1.3756e+63   3.68505e+61   1.53835e+68  4.32211e+135  2.26832e+202    1.3908e+68   1.78137e+67   4.05943e+67    9.5427e+67  -1.01774e+67   4.31337e+67   3.26249e+66
  -2.07837e+60   1.37573e+63  -6.04203e+61  -1.98989e+68   6.4305e+135 -3.62752e+202   1.82116e+68   -1.3475e+67  -4.08266e+67  -1.44687e+68  -1.01702e+67   4.31572e+67  -3.22843e+66
   7.52515e+59   1.47739e+63    3.8536e+61   7.84536e+65 -4.60903e+135  6.57545e+202   6.78944e+67  -1.78885e+67  -4.14782e+67   6.01513e+67   1.03166e+67  -4.07886e+67   3.14416e+66
   2.90138e+60   1.47848e+63   1.40175e+62   3.50703e+68   1.3872e+136  7.39541e+202   3.30334e+68    1.1554e+67   3.92722e+67   2.99877e+68   1.03426e+67  -4.03641e+67   9.33314e+66
   4.34454e+60   1.47633e+63   1.39837e+62   3.49841e+68  1.40364e+136  9.04789e+202   3.29169e+68    1.1355e+67   3.91146e+67   2.99371e+68  -1.01822e+67  -3.62483e+67   9.96278e+66
   1.12839e+60   1.47525e+63    3.8416e+61   7.68203e+65 -4.28524e+135  6.52999e+202   6.54662e+67  -1.78923e+67  -4.14405e+67    6.0101e+67  -1.02081e+67   -3.6683e+67   3.30052e+66
   7.54617e+59   1.37779e+63   3.69718e+61    4.7998e+66 -4.40632e+135    6.167e+202   6.65534e+67   -1.6579e+67   -3.9701e+67   6.10798e+67   1.02861e+67   3.88778e+67   3.10932e+66
   2.89907e+60   1.37885e+63   1.34469e+62    3.5852e+68  1.60345e+136  1.37207e+203   3.35413e+68   1.48998e+67   4.19267e+67   3.01693e+68   1.03246e+67   3.93018e+67   9.11959e+66
   4.33956e+60   1.37666e+63   1.34131e+62   3.57747e+68  1.55645e+136  1.14106e+203   3.35289e+68   1.47215e+67   4.18112e+67   3.01214e+68  -1.01544e+67   4.33767e+67   9.73637e+66
   1.13019e+60    1.3756e+63   3.68505e+61     4.856e+66  -4.7325e+135  6.18455e+202   6.89643e+67   -1.6566e+67  -3.96252e+67   6.10472e+67  -1.01929e+67   4.29426e+67   3.26249e+66
  -3.21039e+50   1.58301e+63  -6.57269e+61  -2.00822e+68  6.43919e+135 -3.51926e+202   1.84094e+68  -1.18374e+67  -4.09871e+67  -1.47998e+68   1.03616e+67   -4.1911e+67   8.01413e+64
  -5.90009e+50   1.58287e+63   4.02179e+61   1.56302e+68  4.60559e+135  2.91493e+202     1.408e+68   1.76542e+67   4.14262e+67   9.72217e+67   1.03424e+67  -4.19814e+67   4.94606e+65
   3.75087e+59   1.58245e+63   4.01977e+61   1.56453e+68  4.64236e+135  3.06417e+202   1.40838e+68   1.76891e+67   4.14309e+67   9.73334e+67   -1.0387e+67  -4.16723e+67   6.29265e+65
  -7.02842e+59   1.58259e+63  -6.57302e+61  -2.00558e+68  6.43844e+135 -3.52536e+202   1.83807e+68  -1.17763e+67  -4.09563e+67  -1.47825e+68  -1.03678e+67  -4.16113e+67  -2.77339e+65
  -3.05425e+50   1.47925e+63  -6.30839e+61  -2.04184e+68  7.14325e+135 -4.71383e+202   1.85871e+68  -1.35069e+67  -4.19036e+67  -1.48774e+68   1.03304e+67   3.94921e+67   1.49942e+65
  -5.72297e+50   1.47911e+63   3.86279e+61   1.56939e+68  4.89083e+135  3.50381e+202   1.40495e+68   1.81378e+67   4.14324e+67   9.73686e+67   1.03228e+67   3.94217e+67   5.42621e+65
   3.76065e+59   1.47868e+63   3.86053e+61   1.57143e+68  4.88422e+135  3.37969e+202   1.40747e+68   1.81849e+67   4.14673e+67    9.7491e+67  -1.03555e+67   3.97206e+67   6.74474e+65
  -6.99205e+59   1.47882e+63  -6.30901e+61  -2.03869e+68  7.08615e+135 -4.61892e+202   1.85678e+68  -1.34341e+67  -4.18432e+67  -1.48592e+68  -1.03478e+67   3.97818e+67  -2.00091e+65
  -5.90009e+50   1.58287e+63   4.02179e+61   8.01685e+65 -4.82497e+135  7.27001e+202   6.94666e+67  -1.82305e+67  -4.23048e+67    6.1337e+67   1.03424e+67  -4.21419e+67   4.94606e+65
  -8.59347e+50   1.58398e+63   1.46171e+62   3.58034e+68  1.43912e+136  8.64267e+202   3.37339e+68   1.13575e+67   4.01336e+67   3.06543e+68   1.03314e+67  -4.17291e+67   8.95504e+65
   1.45156e+60   1.58356e+63   1.46135e+62   3.58144e+68  1.44298e+136  8.87989e+202   3.37398e+68   1.13829e+67   4.01417e+67    3.0662e+68  -1.03699e+67  -4.14219e+67   1.50057e+66
   3.75087e+59   1.58245e+63   4.01977e+61   9.95278e+65 -4.80571e+135  7.30609e+202   6.93304e+67  -1.81859e+67  -4.22773e+67   6.14585e+67   -1.0359e+67  -4.18435e+67   6.29265e+65
  -5.72297e+50   1.47911e+63   3.86279e+61   4.57952e+66 -4.54062e+135  6.30355e+202   6.75396e+67  -1.70221e+67  -4.06072e+67   6.22088e+67   1.03228e+67   3.92421e+67   5.42621e+65
  -8.39959e+50   1.48019e+63   1.40349e+62   3.65634e+68  1.66216e+136  1.37448e+203    3.4215e+68    1.4624e+67   4.27132e+67   3.08297e+68   1.03227e+67    3.9655e+67   9.27437e+65
   1.45097e+60   1.47977e+63   1.40311e+62   3.65796e+68  1.66258e+136  1.35501e+203   3.42317e+68   1.46614e+67   4.27504e+67   3.08385e+68  -1.03486e+67   3.99561e+67    1.5199e+66
   3.76065e+59   1.47868e+63   3.86053e+61   4.82339e+66 -4.56817e+135  6.21967e+202   6.77602e+67  -1.69658e+67  -4.05511e+67   6.23403e+67  -1.03485e+67   3.95346e+67   6.74474e+65
  -7.02842e+59   1.58259e+63  -6.57302e+61  -2.00931e+68  6.46687e+135   -3.536e+202   1.84136e+68  -1.19841e+67  -4.10423e+67  -1.47904e+68   1.03546e+67  -4.19566e+67  -4.87619e+65
   3.75087e+59   1.58245e+63   4.01977e+61   1.56164e+68  4.58226e+135    2.773e+202    1.4073e+68   1.75685e+67    4.1364e+67   9.72311e+67   1.03057e+67  -4.20172e+67   1.69356e+66
   7.51271e+59   1.58119e+63   4.01343e+61   1.56482e+68   4.7099e+135  3.27294e+202    1.4063e+68    1.7642e+67   4.13608e+67   9.74793e+67   -1.0397e+67  -4.07414e+67   1.84236e+66
   -1.4032e+60   1.58132e+63  -6.57248e+61  -2.00151e+68  6.49325e+135 -3.65623e+202   1.83214e+68  -1.18043e+67  -4.09392e+67  -1.47408e+68  -1.03482e+67  -4.07067e+67   -8.3046e+65
  -6.99205e+59   1.47882e+63  -6.30901e+61  -2.04137e+68   7.1554e+135 -4.78919e+202   1.85786e+68  -1.35811e+67   -4.1905e+67  -1.48651e+68   1.03133e+67   3.94375e+67  -2.82686e+65
   3.76065e+59   1.47868e+63   3.86053e+61   1.56962e+68  4.89193e+135  3.60337e+202   1.40517e+68   1.81247e+67   4.14254e+67   9.74116e+67   1.02969e+67   3.93764e+67   1.79966e+66
   7.52515e+59   1.47739e+63    3.8536e+61   1.57431e+68   4.8327e+135  3.15955e+202   1.41251e+68   1.82331e+67   4.15073e+67   9.76911e+67  -1.03547e+67   4.06104e+67   1.94536e+66
  -1.39664e+60   1.47753e+63  -6.30929e+61  -2.03216e+68  6.95839e+135 -4.41611e+202   1.85306e+68  -1.33686e+67  -4.17191e+67  -1.48128e+68  -1.03382e+67   4.06462e+67  -6.18385e+65
   3.75087e+59   1.58245e+63   4.01977e+61    7.0551e+65 -4.83563e+135  7.22371e+202   6.95423e+67  -1.83064e+67  -4.23442e+67   6.13561e+67   1.03338e+67  -4.21884e+67   1.69356e+66
   1.45156e+60   1.58356e+63   1.46135e+62    3.5785e+68  1.43328e+136  8.26761e+202   3.37229e+68    1.1301e+67   4.00736e+67   3.06475e+68   1.03052e+67  -4.17665e+67    3.8062e+66
    2.9034e+60   1.58229e+63   1.46004e+62   3.57949e+68  1.44361e+136  9.03696e+202   3.37181e+68   1.13239e+67   4.00515e+67   3.06573e+68  -1.03806e+67  -4.05022e+67   4.42791e+66
   7.51271e+59   1.58119e+63   4.01343e+61   1.12695e+66 -4.74589e+135  7.30956e+202   6.88997e+67  -1.82092e+67   -4.2292e+67   6.16281e+67  -1.03519e+67  -4.09495e+67   1.84236e+66
   3.76065e+59   1.47868e+63   3.86053e+61   4.64189e+66 -4.54157e+135  6.41557e+202   6.75509e+67   -1.7026e+67   -4.0593e+67   6.22609e+67   1.03038e+67   3.91904e+67   1.79966e+66
   1.45097e+60   1.47977e+63   1.40311e+62   3.65635e+68  1.66196e+136   1.3969e+203   3.42154e+68   1.46518e+67   4.27131e+67    3.0827e+68    1.0307e+67   3.96118e+67   3.84051e+66
   2.90138e+60   1.47848e+63   1.40175e+62   3.65892e+68   1.6563e+136  1.31905e+203   3.42511e+68   1.47111e+67   4.27772e+67   3.08403e+68  -1.03459e+67   4.08544e+67   4.44926e+66
   7.52515e+59   1.47739e+63    3.8536e+61   5.21388e+66 -4.64829e+135  6.21704e+202   6.83774e+67   -1.6894e+67  -4.04561e+67    6.2564e+67  -1.03491e+67   4.04081e+67   1.94536e+66
   -1.4032e+60   1.58132e+63  -6.57248e+61  -2.00852e+68  6.55341e+135 -3.44569e+202   1.83815e+68  -1.23474e+67  -4.11009e+67  -1.47404e+68   1.03825e+67  -4.13978e+67  -3.31243e+66
   7.51271e+59   1.58119e+63   4.01343e+61   1.56097e+68  4.61115e+135  2.68861e+202   1.40553e+68   1.75185e+67   4.12719e+67   9.73065e+67   1.03127e+67  -4.14317e+67   3.10187e+66
   1.12816e+60   1.57908e+63   4.00195e+61   1.56086e+68  4.93271e+135  3.77351e+202   1.39392e+68   1.75159e+67   4.11598e+67   9.74101e+67  -1.02542e+67  -3.72555e+67   3.27566e+66
  -2.09579e+60   1.57921e+63  -6.56181e+61  -1.99933e+68  6.79241e+135 -4.31759e+202   1.82156e+68  -1.21354e+67  -4.09985e+67  -1.46799e+68  -1.01844e+67  -3.72598e+67  -3.62414e+66
  -1.39664e+60   1.47753e+63  -6.30929e+61  -2.03674e+68  7.09672e+135 -4.96517e+202   1.85435e+68  -1.37779e+67  -4.18247e+67  -1.48071e+68    1.0333e+67   3.99572e+67  -3.05431e+66
   7.52515e+59   1.47739e+63    3.8536e+61   1.57258e+68  4.86933e+135  3.64967e+202   1.40929e+68    1.8221e+67   4.14673e+67   9.75701e+67   1.03111e+67   3.99216e+67     3.161e+66
   1.12839e+60   1.47525e+63    3.8416e+61   1.57482e+68  4.54224e+135  2.49863e+202   1.42331e+68   1.82725e+67   4.14835e+67   9.77256e+67  -1.02078e+67   4.40471e+67   3.33116e+66
  -2.08775e+60   1.47538e+63  -6.29941e+61   -2.0254e+68  6.63258e+135 -3.78902e+202   1.85446e+68  -1.35164e+67  -4.15985e+67  -1.47426e+68  -1.01859e+67   4.40452e+67  -3.35953e+66
   7.51271e+59   1.58119e+63   4.01343e+61   7.41632e+65   -4.805e+135  7.06738e+202   6.93221e+67  -1.83327e+67  -4.23809e+67   6.14553e+67   1.03578e+67  -4.16399e+67   3.10187e+66
    2.9034e+60   1.58229e+63   1.46004e+62   3.57725e+68  1.43487e+136  7.73558e+202   3.37073e+68   1.15387e+67   3.99998e+67   3.06186e+68   1.03423e+67   -4.1193e+67   9.45533e+66
   4.34982e+60   1.58019e+63   1.45669e+62   3.57125e+68  1.45513e+136  9.49079e+202   3.36136e+68   1.14003e+67    3.9837e+67   3.05888e+68  -1.02255e+67  -3.70003e+67   1.01098e+67
   1.12816e+60   1.57908e+63   4.00195e+61   1.00729e+66 -4.48136e+135  6.98816e+202   6.69506e+67  -1.82714e+67  -4.23441e+67   6.16228e+67    -1.021e+67  -3.74804e+67   3.27566e+66
   7.52515e+59   1.47739e+63    3.8536e+61   5.04083e+66 -4.59377e+135   6.5771e+202   6.79646e+67  -1.69061e+67   -4.0496e+67    6.2443e+67   1.03167e+67   3.97193e+67     3.161e+66
   2.90138e+60   1.47848e+63   1.40175e+62   3.65965e+68  1.66676e+136  1.45525e+203   3.42437e+68   1.50764e+67   4.27943e+67   3.08095e+68   1.03427e+67   4.01648e+67   9.32805e+66
   4.34454e+60   1.47633e+63   1.39837e+62   3.65591e+68   1.6249e+136  1.22675e+203   3.42648e+68     1.499e+67   4.27493e+67   3.07852e+68   -1.0182e+67   4.43156e+67   9.96884e+66
   1.12839e+60   1.47525e+63    3.8416e+61   5.51349e+66 -4.93967e+135  6.56778e+202   7.04987e+67  -1.67971e+67  -4.03455e+67    6.2656e+67  -1.02081e+67   4.38376e+67   3.33116e+66
   -3.3468e+50   1.69106e+63  -6.84315e+61   -2.0571e+68  6.78801e+135 -3.92599e+202    1.8849e+68  -1.23296e+67  -4.18854e+67  -1.51495e+68    1.0393e+67  -4.28217e+67  -4.75985e+63
  -6.06473e+50   1.69091e+63   4.18385e+61   1.58866e+68  4.72039e+135  3.02078e+202   1.43241e+68   1.76234e+67   4.22473e+67   9.89947e+67   1.03594e+67  -4.29365e+67   4.23776e+65
   3.79532e+59    1.6905e+63   4.18216e+61   1.59059e+68  4.76088e+135  3.17284e+202   1.43314e+68   1.76681e+67   4.22406e+67   9.91505e+67  -1.04112e+67  -4.26213e+67   6.67906e+65
  -7.00541e+59   1.69064e+63  -6.84313e+61  -2.05445e+68  6.79026e+135 -3.94783e+202   1.88195e+68  -1.22684e+67  -4.18757e+67  -1.51301e+68  -1.03777e+67  -4.25177e+67  -2.53374e+65
  -3.21039e+50   1.58301e+63  -6.57269e+61  -2.08519e+68  7.42328e+135 -4.99931e+202   1.89886e+68  -1.36126e+67  -4.27632e+67  -1.52143e+68   1.03616e+67   4.03567e+67    8.0195e+64
  -5.90009e+50   1.58287e+63   4.02179e+61   1.60145e+68  5.10026e+135  3.76538e+202   1.43339e+68   1.85421e+67   4.23131e+67     9.929e+67   1.03424e+67   4.02419e+67   4.94687e+65
   3.75087e+59   1.58245e+63   4.01977e+61     1.604e+68  5.09579e+135  3.63701e+202    1.4364e+68   1.86009e+67   4.23417e+67   9.94576e+67   -1.0387e+67   4.05535e+67   7.33623e+65
  -7.02842e+59   1.58259e+63  -6.57302e+61  -2.08194e+68  7.36518e+135 -4.90178e+202   1.89683e+68  -1.35376e+67  -4.27185e+67  -1.51938e+68  -1.03678e+67   4.06574e+67  -1.63129e+65
  -6.06473e+50   1.69091e+63   4.18385e+61   9.01991e+64 -5.01972e+135  7.94438e+202     7.085e+67   -1.9017e+67  -4.32471e+67   6.23543e+67   1.03594e+67  -4.30374e+67   4.23776e+65
  -8.78293e+50   1.69204e+63   1.52114e+62   3.64828e+68   1.4814e+136  8.82325e+202   3.43926e+68   1.11427e+67   4.09232e+67   3.12762e+68   1.03282e+67  -4.26483e+67   8.26141e+65
   1.45622e+60   1.69162e+63   1.52081e+62   3.65026e+68  1.48612e+136  9.07561e+202   3.44068e+68   1.11884e+67   4.09208e+67   3.12916e+68  -1.03775e+67  -4.23373e+67   1.52466e+66
   3.79532e+59    1.6905e+63   4.18216e+61   2.95119e+65 -5.00338e+135  7.98596e+202   7.07352e+67  -1.89697e+67  -4.32478e+67   6.25126e+67  -1.03462e+67  -4.27423e+67   6.67906e+65
  -5.90009e+50   1.58287e+63   4.02179e+61    4.6448e+66 -4.72116e+135  6.70431e+202   6.88675e+67  -1.73426e+67  -4.14179e+67   6.34053e+67   1.03424e+67   4.00813e+67   4.94687e+65
  -8.59347e+50   1.58398e+63   1.46171e+62   3.73153e+68  1.73017e+136  1.46621e+203   3.49201e+68   1.48473e+67   4.36224e+67   3.14683e+68   1.03314e+67   4.04704e+67   8.95637e+65
   1.45156e+60   1.58356e+63   1.46135e+62   3.73443e+68  1.73241e+136  1.44965e+203   3.49479e+68   1.49143e+67   4.36722e+67   3.14857e+68  -1.03699e+67    4.0787e+67   1.57929e+66
   3.75087e+59   1.58245e+63   4.01977e+61   4.94209e+66 -4.75254e+135   6.6189e+202   6.91156e+67   -1.7274e+67  -4.13665e+67   6.35827e+67   -1.0359e+67   4.03823e+67   7.33623e+65
  -7.00541e+59   1.69064e+63  -6.84313e+61  -2.05404e+68  6.75505e+135 -3.80658e+202   1.88244e+68  -1.22607e+67  -4.18664e+67  -1.51277e+68    1.0423e+67  -4.28644e+67  -6.77611e+65
   3.79532e+59    1.6905e+63   4.18216e+61   1.59071e+68  4.73519e+135  2.94104e+202   1.43417e+68   1.77046e+67   4.22432e+67   9.91228e+67   1.03097e+67  -4.29666e+67   1.57771e+66
   7.58384e+59   1.68926e+63   4.17685e+61   1.59651e+68  4.88642e+135  3.45927e+202   1.43534e+68   1.78385e+67   4.22029e+67   9.96092e+67  -1.04474e+67  -4.16503e+67   1.78737e+66
  -1.40106e+60    1.6894e+63  -6.84142e+61  -2.04452e+68  6.77638e+135 -3.97099e+202   1.87147e+68  -1.20409e+67  -4.18206e+67   -1.5059e+68  -1.03341e+67  -4.15986e+67  -9.73479e+65
  -7.02842e+59   1.58259e+63  -6.57302e+61  -2.08569e+68  7.45278e+135 -5.11172e+202   1.89863e+68  -1.37464e+67  -4.28049e+67  -1.52017e+68   1.03545e+67    4.0312e+67  -3.73102e+65
   3.75087e+59   1.58245e+63   4.01977e+61   1.60109e+68  5.09126e+135  3.85422e+202   1.43331e+68   1.84796e+67   4.22745e+67   9.93549e+67   1.03058e+67   4.02086e+67   1.79825e+66
   7.51271e+59   1.58119e+63   4.01343e+61   1.60981e+68  5.05982e+135   3.4259e+202   1.44413e+68   1.86808e+67    4.2399e+67   9.99012e+67   -1.0397e+67   4.14978e+67   2.00346e+66
   -1.4032e+60   1.58132e+63  -6.57248e+61  -2.07332e+68  7.21935e+135   -4.671e+202   1.89122e+68   -1.3461e+67  -4.25962e+67  -1.51275e+68  -1.03482e+67   4.15517e+67  -6.62676e+65
   3.79532e+59    1.6905e+63   4.18216e+61   3.06569e+65 -5.03311e+135  7.82828e+202   7.09451e+67  -1.89332e+67  -4.32452e+67    6.2485e+67   1.03747e+67  -4.30876e+67   1.57771e+66
   1.45622e+60   1.69162e+63   1.52081e+62    3.6488e+68   1.4804e+136  8.57047e+202   3.43996e+68   1.11838e+67   4.08872e+67   3.12809e+68   1.02878e+67  -4.26817e+67   3.73812e+66
   2.91187e+60   1.69039e+63    1.5196e+62   3.65269e+68  1.49419e+136  9.39138e+202   3.44208e+68   1.12735e+67   4.08432e+67   3.13152e+68  -1.04198e+67  -4.13633e+67   4.41971e+66
   7.58384e+59   1.68926e+63   4.17685e+61   1.01801e+66 -4.95242e+135  7.88739e+202   7.03808e+67   -1.8769e+67  -4.32146e+67   6.30016e+67  -1.03329e+67  -4.18149e+67   1.78737e+66
   3.75087e+59   1.58245e+63   4.01977e+61   4.65087e+66 -4.72674e+135  6.84814e+202   6.89084e+67  -1.73954e+67  -4.14337e+67     6.348e+67   1.03338e+67   4.00374e+67   1.79825e+66
   1.45156e+60   1.58356e+63   1.46135e+62   3.73147e+68  1.72802e+136  1.48432e+203   3.49226e+68   1.48319e+67   4.36039e+67   3.14712e+68   1.03053e+67   4.04424e+67    3.8852e+66
    2.9034e+60   1.58229e+63   1.46004e+62   3.73806e+68  1.72797e+136  1.41475e+203    3.4993e+68   1.49839e+67   4.37109e+67   3.15111e+68  -1.03804e+67   4.17394e+67   4.55228e+66
   7.51271e+59   1.58119e+63   4.01343e+61   5.62576e+66 -4.84974e+135  6.62314e+202   6.98669e+67  -1.71704e+67  -4.12538e+67     6.405e+67  -1.03519e+67   4.12897e+67   2.00346e+66
  -1.40106e+60    1.6894e+63  -6.84142e+61  -2.05053e+68  6.82031e+135 -3.65261e+202   1.87688e+68  -1.25433e+67  -4.19595e+67  -1.50551e+68   1.04671e+67  -4.22919e+67  -3.64207e+66
   7.58384e+59   1.68926e+63   4.17685e+61   1.59267e+68  4.78714e+135  2.88901e+202   1.43453e+68   1.77112e+67   4.21143e+67   9.94411e+67   1.03026e+67  -4.23419e+67   2.98012e+66
   1.13801e+60   1.68719e+63   4.16678e+61   1.59933e+68  5.17388e+135  4.05845e+202   1.42845e+68   1.78649e+67   4.20154e+67   1.00053e+68    -1.033e+67  -3.80922e+67    3.1913e+66
  -2.09433e+60   1.68732e+63  -6.82904e+61  -2.03405e+68  7.00443e+135 -4.53154e+202    1.8539e+68   -1.2163e+67  -4.18319e+67   -1.4941e+68  -1.01655e+67  -3.81166e+67  -3.94508e+66
   -1.4032e+60   1.58132e+63  -6.57248e+61  -2.08033e+68  7.39809e+135 -5.31398e+202    1.8942e+68  -1.40047e+67  -4.27582e+67  -1.51271e+68   1.03824e+67   4.08606e+67  -3.14414e+66
   7.51271e+59   1.58119e+63   4.01343e+61   1.60595e+68  5.07302e+135  3.90884e+202   1.43937e+68   1.85569e+67   4.23099e+67   9.97281e+67   1.03128e+67   4.08075e+67   3.26336e+66
   1.12816e+60   1.57908e+63   4.00195e+61   1.61695e+68  4.80913e+135  2.78353e+202   1.46069e+68   1.88107e+67   4.24542e+67    1.0043e+68  -1.02541e+67   4.50014e+67   3.47004e+66
  -2.09579e+60   1.57921e+63  -6.56181e+61  -2.05973e+68  6.82566e+135  -3.9466e+202   1.88677e+68  -1.35291e+67  -4.23922e+67  -1.50051e+68  -1.01845e+67   4.49818e+67  -3.44071e+66
   7.58384e+59   1.68926e+63   4.17685e+61   6.33969e+65 -5.01415e+135   7.6484e+202   7.08135e+67  -1.88964e+67  -4.33032e+67   6.28335e+67   1.04171e+67  -4.25065e+67   2.98012e+66
   2.91187e+60   1.69039e+63    1.5196e+62   3.65089e+68  1.48684e+136  8.15052e+202   3.44124e+68   1.15149e+67   4.08018e+67   3.12772e+68   1.03006e+67  -4.20539e+67   9.48855e+66
   4.36187e+60   1.68833e+63   1.51636e+62   3.65119e+68  1.51551e+136   1.0068e+203   3.43739e+68   1.15218e+67   4.06293e+67   3.12967e+68  -1.02836e+67  -3.77573e+67   1.01636e+67
   1.13801e+60   1.68719e+63   4.16678e+61   1.53922e+66 -4.70549e+135  7.51095e+202   6.86138e+67  -1.86875e+67  -4.32736e+67   6.35003e+67  -1.01671e+67  -3.82892e+67    3.1913e+66
   7.51271e+59   1.58119e+63   4.01343e+61   5.23968e+66 -4.79681e+135  7.05101e+202   6.94569e+67  -1.72943e+67  -4.13429e+67   6.38769e+67   1.03579e+67   4.05994e+67   3.26336e+66
    2.9034e+60   1.58229e+63   1.46004e+62   3.73581e+68  1.73035e+136  1.53682e+203   3.49656e+68   1.51981e+67   4.36589e+67   3.14724e+68   1.03426e+67   4.10486e+67   9.58009e+66
   4.34982e+60   1.58019e+63   1.45669e+62   3.74101e+68  1.70179e+136  1.32689e+203   3.50619e+68    1.5318e+67   4.37544e+67   3.15028e+68  -1.02252e+67   4.53034e+67   1.02408e+67
   1.12816e+60   1.57908e+63   4.00195e+61   6.61645e+66 -5.17531e+135  6.96685e+202   7.22433e+67  -1.69766e+67  -4.10496e+67   6.46427e+67  -1.02099e+67   4.47765e+67   3.47004e+66
   -3.4562e+50   1.80347e+63  -7.11867e+61  -2.12633e+68  7.53669e+135 -5.24685e+202   1.94103e+68  -1.44898e+67  -4.31075e+67  -1.55036e+68    1.0405e+67  -4.36954e+67   8.88211e+64
  -6.20799e+50   1.80332e+63   4.35011e+61   1.59847e+68  4.61007e+135  2.74933e+202    1.4471e+68   1.61654e+67   4.28495e+67   1.00832e+68   1.03592e+67  -4.38832e+67   4.31651e+65
   4.04209e+59   1.80291e+63   4.34843e+61   1.59583e+68  4.60287e+135  2.87392e+202   1.44443e+68   1.61044e+67   4.27197e+67   1.00759e+68  -1.03806e+67  -4.36261e+67   1.07889e+66
  -6.74257e+59   1.80307e+63  -7.11901e+61  -2.13326e+68  7.64784e+135 -5.40957e+202   1.94577e+68  -1.46498e+67  -4.33363e+67   -1.5534e+68  -1.03347e+67  -4.34477e+67    3.0613e+65
   -3.3468e+50   1.69106e+63  -6.84315e+61  -2.12011e+68  7.63408e+135 -5.23168e+202    1.9317e+68  -1.37794e+67  -4.33396e+67  -1.54892e+68    1.0393e+67   4.12602e+67  -5.40907e+63
  -6.06473e+50   1.69091e+63   4.18385e+61   1.64114e+68  5.36716e+135  4.10033e+202   1.46855e+68   1.88385e+67   4.34586e+67   1.01817e+68   1.03595e+67   4.10724e+67    4.2349e+65
   3.79532e+59    1.6905e+63   4.18216e+61   1.63907e+68  5.31538e+135  3.87093e+202     1.468e+68   1.87907e+67   4.33593e+67   1.01757e+68  -1.04112e+67   4.14012e+67   1.05666e+66
  -7.00541e+59   1.69064e+63  -6.84313e+61  -2.12638e+68  7.68609e+135 -5.34601e+202   1.93724e+68  -1.39241e+67  -4.35357e+67  -1.55178e+68  -1.03776e+67   4.15798e+67   2.07176e+65
  -6.20799e+50   1.80332e+63   4.35011e+61  -2.31788e+66 -5.26089e+135  9.37998e+202    7.2569e+67  -2.12573e+67  -4.44702e+67   6.34097e+67   1.03592e+67  -4.39426e+67   4.31651e+65
  -8.97659e+50   1.80446e+63   1.58192e+62    3.7028e+68  1.46859e+136  7.34265e+202   3.49888e+68   9.54419e+66    4.1514e+67   3.19222e+68   1.03303e+67  -4.36089e+67   8.93602e+65
   1.48036e+60   1.80406e+63   1.58157e+62   3.69801e+68  1.46106e+136  7.41614e+202   3.49488e+68   9.43359e+66   4.13601e+67   3.19007e+68  -1.03648e+67  -4.32639e+67    1.9902e+66
   4.04209e+59   1.80291e+63   4.34843e+61  -2.49916e+66 -5.23182e+135  9.48603e+202   7.23745e+67  -2.12992e+67  -4.45553e+67   6.33553e+67  -1.03359e+67  -4.35957e+67   1.07889e+66
  -6.06473e+50   1.69091e+63   4.18385e+61    5.3388e+66 -4.93786e+135  7.20287e+202   7.04725e+67  -1.78019e+67  -4.20358e+67   6.51766e+67   1.03595e+67   4.09715e+67    4.2349e+65
  -8.78293e+50   1.69204e+63   1.52114e+62   3.81747e+68  1.81342e+136  1.57825e+203   3.57206e+68    1.5051e+67   4.48275e+67   3.21868e+68   1.03282e+67   4.13052e+67   8.25643e+65
   1.45622e+60   1.69162e+63   1.52081e+62   3.81259e+68  1.79967e+136  1.52319e+203   3.56878e+68   1.49385e+67    4.4667e+67   3.21654e+68  -1.03775e+67   4.16121e+67    1.8984e+66
   3.79532e+59    1.6905e+63   4.18216e+61   5.14288e+66 -4.96593e+135  7.15486e+202   7.06568e+67  -1.78472e+67  -4.21291e+67   6.51191e+67  -1.03461e+67   4.12802e+67   1.05666e+66
  -6.74257e+59   1.80307e+63  -7.11901e+61  -2.10599e+68  7.18429e+135  -4.4581e+202    1.9279e+68  -1.32019e+67   -4.2707e+67   -1.5469e+68   1.04895e+67  -4.37948e+67  -3.15703e+65
   4.04209e+59   1.80291e+63   4.34843e+61   1.61499e+68  4.79937e+135  2.90558e+202   1.45885e+68    1.7161e+67   4.31618e+67   1.01176e+68   1.03767e+67   -4.3972e+67   1.82538e+66
   7.96393e+59    1.8017e+63   4.34381e+61   1.61698e+68  4.91377e+135  3.44638e+202   1.45714e+68    1.7207e+67   4.30386e+67   1.01452e+68  -1.04399e+67  -4.27177e+67   2.24935e+66
  -1.36454e+60   1.80185e+63  -7.11696e+61  -2.10669e+68  7.32278e+135 -4.75792e+202   1.92506e+68  -1.32179e+67  -4.28922e+67  -1.54559e+68  -1.03271e+67  -4.25399e+67  -4.13796e+65
  -7.00541e+59   1.69064e+63  -6.84313e+61  -2.12606e+68  7.71072e+135 -5.36774e+202   1.93625e+68  -1.39209e+67  -4.35283e+67  -1.55157e+68   1.04232e+67   4.12331e+67  -2.17122e+65
   3.79532e+59    1.6905e+63   4.18216e+61   1.63913e+68   5.3464e+135  4.19876e+202     1.467e+68   1.88241e+67   4.33606e+67   1.01728e+68   1.03097e+67   4.10559e+67   1.96649e+66
   7.58384e+59   1.68926e+63   4.17685e+61    1.6408e+68  5.23686e+135  3.57927e+202   1.47259e+68   1.88626e+67    4.3225e+67   1.01992e+68  -1.04474e+67   4.23805e+67   2.38124e+66
  -1.40106e+60    1.6894e+63  -6.84142e+61  -2.12701e+68  7.63196e+135 -5.24269e+202   1.93933e+68  -1.39429e+67  -4.37245e+67  -1.55034e+68  -1.03338e+67   4.25583e+67  -3.13083e+65
   4.04209e+59   1.80291e+63   4.34843e+61  -5.83376e+65 -5.25396e+135  8.75814e+202   7.24866e+67  -2.02425e+67  -4.41132e+67   6.37724e+67   1.04213e+67  -4.39417e+67   1.82538e+66
   1.48036e+60   1.80406e+63   1.58157e+62   3.71969e+68  1.52035e+136  8.45787e+202   3.50938e+68   1.06671e+67   4.18604e+67   3.19441e+68   1.02513e+67  -4.36075e+67   3.96761e+66
   2.94636e+60   1.80285e+63   1.58045e+62    3.7195e+68  1.52309e+136   9.1415e+202   3.50879e+68   1.06627e+67   4.16006e+67   3.19687e+68  -1.03991e+67  -4.23011e+67   4.79335e+66
   7.96393e+59    1.8017e+63   4.34381e+61  -6.64238e+65 -5.17004e+135  8.99782e+202    7.1906e+67  -2.02612e+67  -4.43872e+67   6.39842e+67  -1.02292e+67   -4.2699e+67   2.24935e+66
   3.79532e+59    1.6905e+63   4.18216e+61   5.14851e+66 -4.93831e+135  7.35244e+202   7.04615e+67  -1.78138e+67  -4.21278e+67   6.50901e+67   1.03747e+67   4.09349e+67   1.96649e+66
   1.45622e+60   1.69162e+63   1.52081e+62   3.81106e+68  1.79922e+136  1.57536e+203    3.5672e+68   1.49297e+67   4.46316e+67   3.21545e+68   1.02879e+67   4.12677e+67   4.11238e+66
   2.91187e+60   1.69039e+63    1.5196e+62   3.81465e+68  1.79022e+136  1.47768e+203    3.5723e+68   1.50126e+67   4.45808e+67   3.21871e+68  -1.04197e+67    4.2611e+67   4.92018e+66
   7.58384e+59   1.68926e+63   4.17685e+61   5.44713e+66  -5.0649e+135  7.17589e+202   7.13762e+67  -1.77449e+67  -4.21925e+67   6.53845e+67  -1.03328e+67   4.22159e+67   2.38124e+66
  -1.36454e+60   1.80185e+63  -7.11696e+61  -2.09461e+68   7.0833e+135 -3.83815e+202   1.91809e+68  -1.27981e+67  -4.26136e+67   -1.5405e+68   1.06581e+67  -4.32394e+67   -3.8705e+66
   7.96393e+59    1.8017e+63   4.34381e+61   1.62937e+68  5.00597e+135   3.1481e+202   1.46773e+68   1.79184e+67   4.33244e+67   1.01694e+68   1.02763e+67  -4.34083e+67   2.90897e+66
   1.18025e+60   1.79968e+63   4.33661e+61   1.64447e+68  5.47031e+135  4.42377e+202   1.46876e+68    1.8267e+67   4.30991e+67   1.03081e+68  -1.04337e+67  -3.90364e+67   3.15433e+66
   -2.0576e+60   1.79981e+63  -7.10142e+61   -2.0695e+68  7.21891e+135 -4.77365e+202   1.88704e+68  -1.22185e+67  -4.26079e+67  -1.52123e+68  -1.00519e+67  -3.90345e+67  -4.16274e+66
  -1.40106e+60    1.6894e+63  -6.84142e+61   -2.1331e+68  7.80102e+135 -5.81512e+202   1.94165e+68  -1.44486e+67  -4.38648e+67  -1.54996e+68   1.04669e+67    4.1865e+67  -2.97948e+66
   7.58384e+59   1.68926e+63   4.17685e+61    1.6369e+68   5.2506e+135    4.143e+202   1.46778e+68   1.87323e+67   4.31351e+67   1.01822e+68   1.03029e+67   4.16889e+67   3.57569e+66
   1.13801e+60   1.68719e+63   4.16678e+61   1.66171e+68  5.09129e+135  3.06006e+202   1.50071e+68   1.93048e+67   4.34548e+67   1.03411e+68  -1.03297e+67   4.60039e+67   3.81572e+66
  -2.09433e+60   1.68732e+63  -6.82904e+61  -2.09849e+68  7.06921e+135 -4.21789e+202   1.92269e+68    -1.365e+67   -4.3319e+67   -1.5288e+68  -1.01656e+67   4.60167e+67  -3.26537e+66
   7.96393e+59    1.8017e+63   4.34381e+61   5.74315e+65 -5.22695e+135  8.28416e+202      7.23e+67  -1.95498e+67  -4.41014e+67   6.42256e+67   1.04871e+67  -4.33895e+67   2.90897e+66
   2.94636e+60   1.80285e+63   1.58045e+62    3.7229e+68  1.53018e+136  8.23933e+202   3.51138e+68   1.11624e+67   4.16792e+67   3.19449e+68   1.02292e+67  -4.29887e+67   9.53328e+66
   4.40415e+60   1.80084e+63   1.57748e+62   3.73476e+68  1.57598e+136  1.04387e+203   3.51745e+68    1.1436e+67   4.15651e+67   3.20475e+68  -1.04234e+67  -3.85507e+67   1.03059e+67
   1.18025e+60   1.79968e+63   4.33661e+61    2.6903e+66 -4.94675e+135  8.03779e+202   7.03846e+67  -1.90615e+67  -4.40007e+67   6.57525e+67  -1.01655e+67    -3.906e+67   3.15433e+66
   7.58384e+59   1.68926e+63   4.17685e+61   5.05719e+66 -5.01294e+135  7.66685e+202   7.09825e+67  -1.78753e+67  -4.22825e+67   6.52149e+67   1.04174e+67   4.15243e+67   3.57569e+66
   2.91187e+60   1.69039e+63    1.5196e+62   3.81283e+68  1.79388e+136  1.61673e+203   3.56985e+68   1.52532e+67    4.4539e+67   3.21491e+68    1.0301e+67   4.19204e+67   9.99036e+66
   4.36187e+60   1.68833e+63   1.51636e+62   3.83093e+68  1.78392e+136  1.43268e+203   3.59056e+68   1.56707e+67   4.47772e+67   3.22645e+68  -1.02832e+67   4.63091e+67   1.07462e+67
   1.13801e+60   1.68719e+63   4.16678e+61   7.77682e+66 -5.44478e+135  7.45759e+202   7.41975e+67  -1.72476e+67  -4.18341e+67   6.68586e+67  -1.01668e+67   4.58069e+67   3.81572e+66
  -3.56055e+50   1.92035e+63  -7.39432e+61  -2.23713e+68  9.25263e+135 -9.15292e+202   2.01978e+68  -2.07274e+67   -4.5341e+67  -1.57645e+68   1.00434e+67  -4.47314e+67   8.72148e+65
  -6.34809e+50   1.92018e+63   4.52572e+61   1.57662e+68  3.93361e+135  1.45316e+202    1.4465e+68   1.10661e+67   4.26687e+67   1.03927e+68   1.03039e+67  -4.48931e+67   1.23122e+66
   4.83052e+59   1.91979e+63   4.52102e+61   1.54997e+68  3.74077e+135  1.60043e+202    1.4242e+68   1.04512e+67   4.24376e+67   1.02109e+68    -1.031e+67  -4.45882e+67   2.95841e+66
  -5.88871e+59   1.91996e+63  -7.39765e+61  -2.26297e+68  9.56281e+135 -9.30507e+202   2.04077e+68  -2.13236e+67  -4.55534e+67   -1.5942e+68  -1.05705e+67  -4.41957e+67   2.25671e+66
   -3.4562e+50   1.80347e+63  -7.11867e+61  -2.12765e+68  7.69145e+135 -5.45567e+202   1.93849e+68  -1.45087e+67   -4.3138e+67  -1.55119e+68   1.04064e+67   4.20499e+67   8.62594e+64
  -6.20799e+50   1.80332e+63   4.35011e+61    1.7158e+68  5.90228e+135  4.79023e+202   1.53419e+68   1.88837e+67    4.5557e+67   1.07139e+68   1.03594e+67   4.18882e+67   4.28709e+65
   4.04209e+59   1.80291e+63   4.34843e+61   1.67531e+68  5.47239e+135  3.86772e+202   1.50313e+68   1.79493e+67   4.45538e+67   1.05028e+68  -1.03804e+67   4.21857e+67   2.11751e+66
  -6.74257e+59   1.80307e+63  -7.11901e+61  -2.16735e+68  8.11942e+135 -6.34144e+202   1.97116e+68  -1.54248e+67  -4.41229e+67  -1.57187e+68  -1.03333e+67    4.2573e+67   1.44005e+66
  -6.34809e+50   1.92018e+63   4.52572e+61  -7.74517e+66 -5.68108e+135  1.28798e+203   7.57698e+67  -2.71048e+67  -4.63967e+67   6.57564e+67   1.03039e+67  -4.46965e+67   1.23122e+66
  -9.14231e+50   1.92134e+63   1.64447e+62   3.71697e+68  1.28874e+136  1.13408e+202   3.53936e+68   4.15963e+66   4.11668e+67    3.2637e+68   1.03746e+67  -4.43594e+67   1.26761e+66
   1.55657e+60   1.92095e+63   1.64399e+62   3.70207e+68  1.26328e+136  1.16233e+202   3.52733e+68    3.8158e+66   4.09272e+67   3.25464e+68  -1.02699e+67  -4.43673e+67   3.41338e+66
   4.83052e+59   1.91979e+63   4.52102e+61  -1.13185e+67 -5.57407e+135  1.35821e+203   7.55128e+67  -2.79294e+67  -4.71171e+67    6.3728e+67  -1.03406e+67  -4.46294e+67   2.95841e+66
  -6.20799e+50   1.80332e+63   4.35011e+61   9.41451e+66 -5.28692e+135  7.93114e+202   7.33182e+67   -1.8539e+67  -4.17627e+67   6.97163e+67   1.03594e+67   4.18287e+67   4.28709e+65
  -8.97659e+50   1.80446e+63   1.58192e+62   3.92484e+68  1.91052e+136  1.66016e+203    3.6734e+68   1.46788e+67    4.6638e+67   3.31167e+68   1.03302e+67   4.21658e+67   8.92464e+65
   1.48036e+60   1.80406e+63   1.58157e+62   3.90555e+68  1.86728e+136   1.5268e+203    3.6587e+68   1.42337e+67   4.61496e+67   3.30172e+68   -1.0365e+67   4.24798e+67   2.99055e+66
   4.04209e+59   1.80291e+63   4.34843e+61   5.44859e+66 -5.26695e+135  8.19938e+202    7.2778e+67  -1.94543e+67  -4.27212e+67   6.76241e+67  -1.03357e+67    4.2216e+67   2.11751e+66
  -5.88871e+59   1.91996e+63  -7.39765e+61  -2.16657e+68  7.94948e+135 -6.27457e+202   1.97461e+68  -1.61343e+67  -4.33288e+67  -1.57194e+68   1.03832e+67   -4.4545e+67   2.18741e+66
   4.83052e+59   1.91979e+63   4.52102e+61   1.64131e+68   4.7939e+135  2.54479e+202   1.48813e+68   1.53953e+67   4.45455e+67   1.04191e+68   1.02312e+67  -4.49305e+67   3.70621e+66
   9.11866e+59   1.91861e+63   4.51337e+61   1.59394e+68  4.42444e+135  2.76711e+202   1.44852e+68   1.43021e+67   4.32292e+67   1.01863e+68  -1.04297e+67  -4.38659e+67   4.59797e+66
  -1.23442e+60   1.91878e+63  -7.40083e+61  -2.24008e+68  8.95164e+135 -7.62648e+202   2.03047e+68  -1.78307e+67  -4.52482e+67  -1.60929e+68  -1.02777e+67  -4.35099e+67   2.76533e+66
  -6.74257e+59   1.80307e+63  -7.11901e+61  -2.14024e+68    7.713e+135 -5.23136e+202   1.95175e+68  -1.39855e+67  -4.34973e+67  -1.56541e+68   1.04905e+67   4.22259e+67   8.15427e+65
   4.04209e+59   1.80291e+63   4.34843e+61   1.69427e+68  5.73492e+135  4.76211e+202    1.5156e+68   1.89953e+67   4.49913e+67    1.0544e+68   1.03778e+67   4.18397e+67   2.86339e+66
   7.96393e+59    1.8017e+63   4.34381e+61   1.64954e+68   5.1599e+135  3.22309e+202   1.48492e+68   1.79631e+67   4.37899e+67   1.03201e+68  -1.04388e+67   4.33215e+67   3.73533e+66
  -1.36454e+60   1.80185e+63  -7.11696e+61  -2.21052e+68  8.44332e+135 -6.75095e+202   2.01049e+68  -1.56075e+67  -4.52884e+67  -1.60156e+68  -1.03261e+67   4.36788e+67    1.3805e+66
   4.83052e+59   1.91979e+63   4.52102e+61  -2.18436e+66 -5.58042e+135  1.04941e+203   7.47342e+67  -2.29853e+67  -4.50092e+67   6.58101e+67   1.02006e+67  -4.49717e+67   3.70621e+66
   1.55657e+60   1.92095e+63   1.64399e+62   3.77367e+68  1.46508e+136  5.05866e+202   3.57428e+68   7.76274e+66   4.25795e+67   3.27024e+68   1.03042e+67  -4.47102e+67   6.14251e+66
   3.06927e+60   1.91977e+63   1.64246e+62    3.7229e+68  1.38424e+136  4.50206e+202   3.53211e+68    6.5913e+66   4.15615e+67   3.24138e+68  -1.05399e+67  -4.32348e+67   7.70154e+66
   9.11866e+59   1.91861e+63   4.51337e+61  -5.69782e+66 -5.35105e+135  1.11866e+203   7.33725e+67  -2.37961e+67  -4.56665e+67   6.37648e+67  -1.06435e+67  -4.32902e+67   4.59797e+66
   4.04209e+59   1.80291e+63   4.34843e+61   7.34464e+66 -5.22083e+135  8.06844e+202   7.26276e+67  -1.84083e+67  -4.22837e+67   6.80366e+67   1.04224e+67   4.18701e+67   2.86339e+66
   1.48036e+60   1.80406e+63   1.58157e+62   3.92713e+68  1.93497e+136  1.79394e+203   3.67252e+68   1.54617e+67   4.66476e+67   3.30604e+68   1.02512e+67   4.21362e+67   4.96429e+66
   2.94636e+60   1.80285e+63   1.58045e+62   3.86432e+68  1.79019e+136  1.36664e+203    3.6253e+68   1.40122e+67   4.49427e+67   3.27477e+68  -1.03993e+67   4.34048e+67   6.48867e+66
   7.96393e+59    1.8017e+63   4.34381e+61   2.59165e+66 -5.29624e+135  8.30053e+202   7.28214e+67  -1.95051e+67  -4.36359e+67   6.57327e+67   -1.0228e+67   4.33402e+67   3.73533e+66
  -1.23442e+60   1.91878e+63  -7.40083e+61  -2.13517e+68  7.21575e+135 -3.93714e+202   1.95893e+68  -1.25351e+67  -4.28273e+67  -1.58155e+68   1.07546e+67   -4.4211e+67  -2.58099e+66
   9.11866e+59   1.91861e+63   4.51337e+61   1.65976e+68  5.14969e+135  3.11935e+202   1.49661e+68   1.77738e+67   4.47481e+67   1.03454e+68   1.07282e+67  -4.45712e+67   3.48155e+66
   1.30333e+60   1.91663e+63   4.50988e+61   1.70401e+68  5.91089e+135  5.11431e+202   1.52071e+68   1.87949e+67   4.57324e+67   1.05873e+68  -1.02724e+67  -4.07482e+67   3.79908e+66
  -1.93498e+60    1.9168e+63  -7.38377e+61  -2.11253e+68  7.31301e+135 -4.61008e+202   1.93171e+68  -1.20127e+67  -4.23416e+67  -1.56899e+68   -1.0246e+67  -4.01199e+67  -3.03123e+66
  -1.36454e+60   1.80185e+63  -7.11696e+61  -2.19873e+68  8.33335e+135 -6.47418e+202   2.00027e+68  -1.52023e+67  -4.50162e+67  -1.59654e+68   1.06596e+67   4.29793e+67  -2.07211e+66
   7.96393e+59    1.8017e+63   4.34381e+61   1.66179e+68  5.37011e+135  4.32543e+202   1.49148e+68   1.86673e+67   4.40726e+67   1.03439e+68   1.02757e+67    4.2631e+67   4.39957e+66
   1.18025e+60   1.79968e+63   4.33661e+61   1.68757e+68  5.19839e+135  3.01281e+202   1.52579e+68   1.92622e+67   4.40936e+67   1.05401e+68  -1.04343e+67   4.68791e+67   4.71004e+66
   -2.0576e+60   1.79981e+63  -7.10142e+61  -2.19408e+68  7.94553e+135 -5.62746e+202   2.00485e+68   -1.5095e+67  -4.54827e+67   -1.5883e+68  -1.00504e+67   4.74896e+67  -2.51234e+66
   9.11866e+59   1.91861e+63   4.51337e+61    8.8392e+65 -5.37463e+135  8.80709e+202   7.33172e+67  -2.03244e+67  -4.41477e+67    6.5356e+67   1.05143e+67  -4.39954e+67   3.48155e+66
   3.06927e+60   1.91977e+63   1.64246e+62   3.83158e+68  1.69283e+136  1.10623e+203   3.60391e+68   1.26337e+67   4.40693e+67   3.26455e+68   1.00034e+67  -4.39196e+67    1.0506e+67
   4.51436e+60    1.9178e+63   1.63983e+62   3.84353e+68  1.73045e+136  1.33531e+203   3.61141e+68   1.29096e+67   4.35944e+67   3.27849e+68  -1.02585e+67  -3.94861e+67   1.08933e+67
   1.30333e+60   1.91663e+63   4.50988e+61   2.98789e+66 -5.12885e+135  8.77914e+202   7.16783e+67  -1.98388e+67   -4.4413e+67   6.72397e+67  -9.74753e+66  -3.97521e+67   3.79908e+66
   7.96393e+59    1.8017e+63   4.34381e+61   3.81639e+66 -5.23358e+135  8.54901e+202   7.24441e+67  -1.88009e+67  -4.33533e+67   6.59705e+67   1.04864e+67   4.26497e+67   4.39957e+66
   2.94636e+60   1.80285e+63   1.58045e+62   3.86735e+68  1.80686e+136  1.56918e+203   3.62623e+68   1.44923e+67   4.50127e+67   3.27231e+68    1.0229e+67   4.27172e+67   1.12346e+67
   4.40415e+60   1.80084e+63   1.57748e+62   3.89031e+68  1.80049e+136  1.36503e+203   3.65157e+68    1.5022e+67   4.51548e+67   3.28854e+68  -1.04236e+67   4.71088e+67   1.16133e+67
   1.18025e+60   1.79968e+63   4.33661e+61   6.99985e+66 -5.70135e+135  8.19844e+202   7.58311e+67  -1.80662e+67  -4.30062e+67   6.80723e+67  -1.01661e+67   4.68555e+67   4.71004e+66
  -3.63611e+50   2.04175e+63  -7.65856e+61    -2.358e+68   1.1762e+136 -1.58272e+203   2.09379e+68  -3.26247e+67  -4.71274e+67  -1.56048e+68   9.93001e+66  -4.59376e+67   3.43794e+66
   -6.4827e+50   2.04156e+63   4.72069e+61   1.56586e+68  2.89942e+135 -5.63402e+201   1.47036e+68   2.03842e+66   4.34232e+67   1.11124e+68   8.78911e+66  -4.64391e+67   2.67078e+66
    6.3597e+59   2.04123e+63   4.71072e+61   1.44372e+68  1.75838e+135 -1.02695e+202   1.38148e+68  -7.80098e+65   3.89616e+67    1.0619e+68  -1.12368e+67  -4.58771e+67   5.89566e+66
  -4.05374e+59   2.04138e+63  -7.67141e+61  -2.53403e+68  1.43074e+136 -2.13142e+203   2.23396e+68  -3.66869e+67  -5.28326e+67  -1.63883e+68  -1.00958e+67  -4.64081e+67   6.78512e+66
  -3.56055e+50   1.92035e+63  -7.39432e+61  -2.09392e+68  7.74733e+135 -6.25557e+202   1.89993e+68  -1.74017e+67   -4.2036e+67  -1.49954e+68   1.00424e+67   4.23731e+67    8.6538e+65
  -6.34809e+50   1.92018e+63   4.52572e+61    1.8191e+68  6.54006e+135  5.34682e+202   1.62946e+68   1.66777e+67   4.82644e+67   1.16968e+68   1.03095e+67   4.18717e+67    1.2288e+66
   4.83052e+59   1.91979e+63   4.52102e+61    1.7644e+68  5.87344e+135  3.73313e+202   1.58927e+68   1.54155e+67    4.7386e+67   1.13639e+68  -1.03044e+67   4.32246e+67   4.38038e+66
  -5.88871e+59   1.91996e+63  -7.39765e+61  -2.20128e+68  8.91667e+135 -8.62171e+202   1.98846e+68  -1.98793e+67  -4.41297e+67  -1.56119e+68  -1.05715e+67   4.27171e+67   4.13649e+66
   -6.4827e+50   2.04156e+63   4.72069e+61  -1.84711e+67 -6.80045e+135  2.20979e+203   8.45082e+67  -3.83593e+67   -5.0838e+67   7.07262e+67   8.78911e+66   -4.8555e+67   2.67078e+66
  -9.33428e+50   2.04277e+63    1.7111e+62   3.67988e+68  6.31827e+135 -1.63041e+203     3.593e+68  -1.15128e+67   3.83447e+67   3.41156e+68   9.57245e+66  -4.75719e+67   6.27909e+66
   1.79794e+60   2.04241e+63   1.70875e+62   3.47677e+68  3.28194e+135 -1.98709e+203   3.42925e+68  -1.61997e+67   3.47845e+67   3.29093e+68  -1.27731e+67  -4.43854e+67   1.17245e+67
    6.3597e+59   2.04123e+63   4.71072e+61  -2.16826e+67 -6.33479e+135  2.08968e+203    8.2492e+67  -3.91004e+67  -5.04524e+67   6.78702e+67  -1.35565e+67  -4.48441e+67   5.89566e+66
  -6.34809e+50   1.92018e+63   4.52572e+61   1.65029e+67  -5.9092e+135  9.98908e+202   7.86228e+67  -2.14932e+67   -4.0801e+67   7.87972e+67   1.03095e+67   4.20683e+67    1.2288e+66
  -9.14231e+50   1.92134e+63   1.64447e+62   4.22643e+68  2.32472e+136  2.32017e+203   3.94183e+68   1.59511e+67   5.29237e+67   3.53768e+68   1.03779e+67   4.30514e+67   1.24998e+66
   1.55657e+60   1.92095e+63   1.64399e+62   3.99555e+68  1.83541e+136  1.08746e+203   3.75886e+68    1.0623e+67   4.76999e+67   3.41232e+68  -1.02667e+67   4.36541e+67   6.57159e+66
   4.83052e+59   1.91979e+63   4.52102e+61   1.01246e+67 -5.92427e+135  1.04567e+203   7.76323e+67  -2.29651e+67  -4.21687e+67   7.52584e+67  -1.03351e+67   4.31834e+67   4.38038e+66
  -4.05374e+59   2.04138e+63  -7.67141e+61  -2.23454e+68  9.02422e+135 -9.63566e+202   2.02256e+68  -2.04478e+67  -4.59214e+67  -1.57085e+68   7.57128e+66  -4.67026e+67   1.00957e+67
    6.3597e+59   2.04123e+63   4.71072e+61   1.60868e+68  3.60914e+135 -4.47311e+201   1.49229e+68   8.25578e+66   4.27682e+67   1.09844e+68   1.00866e+67  -4.62325e+67   1.04604e+67
   1.17433e+60   2.04011e+63   4.68352e+61   1.47401e+68  2.66307e+135  4.72706e+201   1.38073e+68   5.14816e+66   4.32807e+67   9.89723e+67  -1.14135e+67  -4.53714e+67   1.28076e+67
   -9.8502e+59   2.04035e+63  -7.69694e+61  -2.40367e+68  1.08636e+136 -9.19595e+202   2.16593e+68  -2.43507e+67  -4.62042e+67  -1.69812e+68  -1.39288e+67   -4.3878e+67   1.11039e+67
  -5.88871e+59   1.91996e+63  -7.39765e+61  -2.10539e+68   7.4137e+135 -4.76347e+202   1.92127e+68  -1.47178e+67  -4.19169e+67  -1.53904e+68   1.03952e+67   4.23676e+67   4.05645e+66
   4.83052e+59   1.91979e+63   4.52102e+61   1.85574e+68  7.12133e+135  7.02434e+202   1.65277e+68   2.03588e+67   4.94938e+67   1.15722e+68    1.0233e+67   4.28823e+67   5.11368e+66
   9.11866e+59   1.91861e+63   4.51337e+61   1.60191e+68  4.42945e+135  1.56256e+202   1.45711e+68   1.45011e+67    4.3413e+67   1.02277e+68  -1.04279e+67    4.4269e+67   7.40756e+66
  -1.23442e+60   1.91878e+63  -7.40083e+61   -2.3929e+68  1.06876e+136 -1.17297e+203   2.15806e+68  -2.13527e+67  -4.87749e+67  -1.69162e+68  -1.02657e+67   4.56731e+67   5.04166e+66
    6.3597e+59   2.04123e+63   4.71072e+61  -5.18693e+66 -6.29693e+135   1.5517e+203   7.95225e+67  -3.00645e+67  -4.66457e+67   7.15233e+67   7.76686e+66  -4.51995e+67   1.04604e+67
   1.79794e+60   2.04241e+63   1.70875e+62   3.88445e+68   1.4882e+136  2.44615e+202   3.68792e+68    5.8693e+66   4.41924e+67   3.38383e+68   9.24167e+66  -4.47523e+67   1.51395e+67
   3.35921e+60   2.04124e+63   1.70509e+62   3.67686e+68  1.16193e+136 -1.93237e+202   3.51531e+68   1.07888e+66   4.15235e+67   3.25084e+68  -1.04297e+67  -4.34145e+67   1.67716e+67
   1.17433e+60   2.04011e+63   4.68352e+61  -2.35237e+67 -5.41393e+135  1.75149e+203   7.72483e+67   -3.4296e+67  -4.87557e+67   5.95281e+67  -1.19045e+67  -4.28531e+67   1.28076e+67
   4.83052e+59   1.91979e+63   4.52102e+61   1.92583e+67  -5.7358e+135  8.63817e+202   7.81453e+67  -1.80218e+67  -4.00609e+67   7.73409e+67   1.02023e+67   4.28411e+67   5.11368e+66
   1.55657e+60   1.92095e+63   1.64399e+62   4.06606e+68   2.0529e+136  1.85789e+203   3.80525e+68   1.45114e+67   4.93271e+67   3.42768e+68   1.03017e+67   4.33113e+67   9.30098e+66
   3.06927e+60   1.91977e+63   1.64246e+62    3.8008e+68  1.51596e+136  5.11306e+202   3.59584e+68   8.38992e+66    4.3359e+67   3.28331e+68  -1.05423e+67   4.43292e+67   1.08959e+67
   9.11866e+59   1.91861e+63   4.51337e+61   -4.9013e+66 -5.53934e+135  1.04493e+203    7.4588e+67  -2.35971e+67  -4.54827e+67   6.41785e+67  -1.06417e+67   4.48447e+67   7.40756e+66
   -9.8502e+59   2.04035e+63  -7.69694e+61  -2.17212e+68  7.17721e+135 -4.67336e+202   2.00009e+68  -1.25019e+67  -4.08607e+67  -1.63849e+68   9.01012e+66  -4.46426e+67   1.70202e+66
   1.17433e+60   2.04011e+63   4.68352e+61   1.78226e+68  6.43504e+135  4.80831e+202   1.59153e+68   2.14746e+67   5.03942e+67   1.06357e+68    9.7144e+66  -4.60756e+67   8.57964e+66
    1.5405e+60    2.0382e+63   4.67154e+61   1.70566e+68  6.09448e+135  5.73482e+202   1.51652e+68   1.97069e+67     4.964e+67   1.01219e+68  -1.08103e+67  -4.14482e+67   8.25683e+66
  -1.68614e+60   2.03847e+63  -7.68777e+61  -2.23514e+68  8.18085e+135 -5.15947e+202   2.04396e+68  -1.39563e+67  -4.13015e+67  -1.68256e+68  -1.15146e+67  -3.94783e+67   1.37771e+66
  -1.23442e+60   1.91878e+63  -7.40083e+61  -2.28812e+68  8.99253e+135 -7.24357e+202   2.08237e+68  -1.60635e+67  -4.63569e+67  -1.66392e+68   1.07595e+67   4.49723e+67  -2.96439e+65
   9.11866e+59   1.91861e+63   4.51337e+61   1.66701e+68  5.27995e+135  4.17657e+202   1.50031e+68   1.79345e+67   4.49153e+67   1.03851e+68   1.07317e+67   4.35636e+67    6.2962e+66
   1.30333e+60   1.91663e+63   4.50988e+61   1.55876e+68  3.87233e+135  1.07306e+202   1.42916e+68   1.54365e+67   4.23805e+67   9.80589e+67  -1.02688e+67   4.80639e+67   5.98073e+66
  -1.93498e+60    1.9168e+63  -7.38377e+61   -2.3831e+68  9.74307e+135 -8.78197e+202   2.16907e+68  -1.82552e+67  -4.85854e+67  -1.71469e+68   -1.0241e+67   4.99972e+67  -6.13378e+65
   1.17433e+60   2.04011e+63   4.68352e+61   7.30141e+66 -5.29645e+135  7.46425e+202   7.31421e+67  -1.79696e+67  -4.16423e+67   6.69132e+67   9.22346e+66  -4.35574e+67   8.57964e+66
   3.35921e+60   2.04124e+63   1.70509e+62   3.76987e+68  1.42201e+136  9.33304e+201    3.5763e+68   5.88911e+66   4.36698e+67   3.27428e+68   1.12531e+67  -4.41373e+67   1.37607e+67
   4.87091e+60   2.03925e+63   1.70254e+62   3.86694e+68  1.69798e+136  8.01286e+202   3.64078e+68   8.12924e+66   4.88331e+67   3.29732e+68  -1.07764e+67  -4.28523e+67   1.57176e+67
    1.5405e+60    2.0382e+63   4.67154e+61   5.84765e+66  -4.7751e+135  7.59065e+202   6.93491e+67   -1.8305e+67  -3.90545e+67   6.32072e+67   -1.2806e+67  -4.04016e+67   8.25683e+66
   9.11866e+59   1.91861e+63   4.51337e+61   1.60862e+66  -5.4294e+135  9.79101e+202    7.3702e+67  -2.01637e+67  -4.39804e+67   6.57527e+67   1.05179e+67   4.41394e+67    6.2962e+66
   3.06927e+60   1.91977e+63   1.64246e+62   3.90993e+68  1.84208e+136  1.62081e+203    3.6668e+68   1.44581e+67   4.58775e+67   3.30657e+68   9.99631e+66   4.36446e+67   1.37151e+67
   4.51436e+60    1.9178e+63   1.63983e+62   3.88755e+68   1.7422e+136  1.14225e+203   3.65661e+68   1.39416e+67   4.46101e+67   3.30203e+68  -1.02656e+67   4.67368e+67   1.56275e+67
   1.30333e+60   1.91663e+63   4.50988e+61  -1.15369e+67 -5.64652e+135  1.12025e+203   7.60238e+67  -2.31972e+67  -4.77648e+67   5.94252e+67  -9.74398e+66     4.906e+67   5.98073e+66
  -3.72178e+50   2.16753e+63  -7.91668e+61  -2.53179e+68  1.33365e+136 -1.96133e+203   2.25307e+68   -3.5587e+67  -5.98907e+67  -1.57701e+68  -8.23905e+65  -6.14157e+67   8.89847e+66
  -6.60506e+50   2.16757e+63   4.98122e+61   1.47613e+68  -2.4099e+135 -6.33652e+202   1.55562e+68  -1.92548e+67   3.25999e+67   1.34268e+68   1.14406e+67  -5.70393e+67   1.37712e+67
   9.71805e+59   2.16716e+63   4.93094e+61   1.51775e+68 -7.94786e+134 -6.88802e+202   1.54371e+68  -1.82944e+67   5.08054e+67   1.19264e+68  -1.52431e+67  -5.55245e+67   2.06739e+67
  -4.15748e+59   2.16757e+63  -7.94915e+61  -2.22622e+68  7.82533e+135  5.71085e+202   2.04292e+68  -2.85353e+67   -3.5594e+67  -1.58493e+68  -2.75076e+67  -5.02524e+67   8.50866e+66
  -3.63611e+50   2.04175e+63  -7.65856e+61  -2.28268e+68  1.14201e+136 -1.49615e+203   2.01708e+68  -3.09261e+67  -4.53891e+67  -1.51953e+68   9.97142e+66   3.83238e+67   3.42671e+66
   -6.4827e+50   2.04156e+63   4.72069e+61   2.38666e+68  1.23519e+136  1.54827e+203    2.1121e+68   2.10206e+67   6.23648e+67    1.5528e+68   8.77288e+66   4.27003e+67    2.6332e+66
    6.3597e+59   2.04123e+63   4.71072e+61   1.82648e+68  5.63415e+135  7.15001e+201   1.66511e+68   8.09336e+66   4.77944e+67    1.2676e+68   -1.1253e+67   4.02799e+67   9.37536e+66
  -4.05374e+59   2.04138e+63  -7.67141e+61  -2.58504e+68  1.51942e+136 -2.48599e+203   2.27223e+68  -3.79038e+67  -5.40099e+67  -1.66591e+68  -1.00544e+67   4.53276e+67   3.04596e+66
  -6.60506e+50   2.16757e+63   4.98122e+61  -2.40774e+67  -1.0304e+136  4.51109e+203   1.04325e+68  -5.88758e+67   -5.9849e+67   9.46474e+67   1.14406e+67  -4.76458e+67   1.37712e+67
  -9.48726e+50   2.16898e+63   1.78303e+62   3.68642e+68 -4.16044e+134 -3.11932e+203   3.69206e+68  -2.38717e+67   3.07786e+67   3.61735e+68   1.51881e+67  -4.37872e+67   5.63792e+66
   1.98367e+60   2.16843e+63   1.78098e+62   3.88837e+68  4.12368e+135 -2.38379e+203   3.83498e+68  -1.92114e+67   4.07019e+67   3.67346e+68  -4.27076e+66  -5.35558e+67   1.01174e+67
   9.71805e+59   2.16716e+63   4.93094e+61  -5.88571e+67 -8.51018e+135  5.40991e+203   1.09427e+68  -6.69018e+67  -6.26121e+67   7.06568e+67  -8.01827e+66  -5.52838e+67   2.06739e+67
   -6.4827e+50   2.04156e+63   4.72069e+61   6.36093e+67 -7.00337e+135  9.61746e+202   1.05117e+68  -1.93771e+67  -3.18964e+67   1.14883e+68   8.77288e+66   4.05844e+67    2.6332e+66
  -9.33428e+50   2.04277e+63    1.7111e+62   4.34351e+68  1.97512e+136  3.80761e+202   4.10986e+68   3.79281e+66   5.36594e+67   3.76899e+68   9.54746e+66    4.4443e+67   6.30115e+66
   1.79794e+60   2.04241e+63   1.70875e+62   4.41031e+68  2.15585e+136  2.37496e+202   4.15872e+68   5.33428e+66   5.63276e+67   3.79369e+68  -1.27981e+67   4.30905e+67   1.06765e+67
    6.3597e+59   2.04123e+63   4.71072e+61   1.65933e+67 -7.07492e+135  1.39702e+203   8.57336e+67  -3.02269e+67  -4.16195e+67   8.84397e+67  -1.35727e+67   4.13129e+67   9.37536e+66
  -4.15748e+59   2.16757e+63  -7.94915e+61  -2.15384e+68  7.30725e+135 -5.81163e+202   1.97694e+68  -2.45498e+67  -3.39237e+67   -1.5691e+68  -3.26807e+66  -5.06564e+67   1.11318e+67
   9.71805e+59   2.16716e+63   4.93094e+61   2.36592e+68  1.13112e+136  1.28471e+203    2.1134e+68   2.77894e+67   7.03785e+67   1.38424e+68  -7.57063e+66  -5.56524e+67   3.28466e+67
   1.45957e+60   2.16646e+63   4.83542e+61   1.28669e+68  6.70195e+134 -3.01679e+202   1.26038e+68    2.8841e+66   3.94115e+67   8.63736e+67  -2.57464e+67  -3.74646e+67   3.20971e+67
  -8.73121e+59   2.16671e+63  -7.99122e+61  -2.57023e+68  1.41726e+136 -1.36107e+203    2.2779e+68  -3.41588e+67  -4.95943e+67   -1.7327e+68  -2.14439e+67  -3.73812e+67   1.32735e+67
  -4.05374e+59   2.04138e+63  -7.67141e+61  -2.28388e+68  9.85381e+135 -1.03017e+203   2.05688e+68  -2.15739e+67    -4.706e+67  -1.59754e+68   7.57427e+66   4.50338e+67   6.37244e+66
    6.3597e+59   2.04123e+63   4.71072e+61   1.98906e+68  7.92174e+135  7.50371e+202   1.77882e+68    1.7001e+67   5.15464e+67   1.30359e+68   1.01265e+67   3.99236e+67   1.39254e+67
   1.17433e+60   2.04011e+63   4.68352e+61   1.24501e+68  6.67255e+134 -3.23913e+202   1.21792e+68   -1.6948e+65    3.7996e+67   8.66742e+67  -1.13736e+67   4.79736e+67   1.31933e+67
   -9.8502e+59   2.04035e+63  -7.69694e+61  -2.38051e+68  1.02017e+136 -1.03184e+203   2.15561e+68  -2.38038e+67  -4.56698e+67  -1.68578e+68  -1.39258e+67   4.82855e+67   8.46439e+66
   9.71805e+59   2.16716e+63   4.93094e+61   2.59598e+67 -8.98892e+135  1.92078e+203   9.82997e+67  -2.08181e+67  -4.30389e+67   8.98168e+67  -3.45777e+65  -5.54116e+67   3.28466e+67
   1.98367e+60   2.16843e+63   1.78098e+62   3.39946e+68 -1.11402e+136 -4.53457e+203   3.55954e+68  -4.46122e+67   2.94194e+67   3.55139e+68   9.78343e+66    -5.379e+67   3.79882e+67
   4.22623e+60   2.16737e+63   1.76879e+62   2.75971e+68 -1.65612e+136  -5.3124e+203   3.04502e+68  -5.93755e+67   2.88852e+67   3.06462e+68  -2.39626e+67  -4.70297e+67   5.21155e+67
   1.45957e+60   2.16646e+63   4.83542e+61  -1.60181e+67 -6.47434e+135  1.88073e+203   8.20422e+67  -3.05053e+67   -3.8497e+67   5.29842e+67  -3.40918e+67  -4.24287e+67   3.20971e+67
    6.3597e+59   2.04123e+63   4.71072e+61   3.28517e+67 -6.57247e+135  1.20704e+203    8.7474e+67  -2.13193e+67  -3.78676e+67   9.20386e+67    7.8068e+66   4.09566e+67   1.39254e+67
   1.79794e+60   2.04241e+63   1.70875e+62   4.82278e+68  3.60666e+136  6.22436e+203   4.43312e+68   2.76587e+67   6.58463e+67   3.88773e+68   9.25329e+66   4.27229e+67    1.3999e+67
   3.35921e+60   2.04124e+63   1.70509e+62   3.81518e+68   1.3511e+136 -4.12824e+202    3.6338e+68   4.40626e+66   4.47153e+67   3.32396e+68  -1.04181e+67   4.61803e+67   2.77978e+67
   1.17433e+60   2.04011e+63   4.68352e+61  -4.64241e+67 -5.14681e+135   1.8905e+203   8.54518e+67  -3.96137e+67  -5.40405e+67     4.723e+67  -1.18645e+67   5.04919e+67   1.31933e+67
  -8.73121e+59   2.16671e+63  -7.99122e+61  -2.17658e+68  7.83807e+135 -6.71019e+202   1.98839e+68  -1.33193e+67  -4.05101e+67  -1.63828e+68   2.03958e+66   -3.8164e+67   7.72208e+66
   1.45957e+60   2.16646e+63   4.83542e+61   1.71176e+68  6.48017e+135  4.76639e+202   1.51067e+68   2.50196e+67   4.92208e+67   9.69358e+67   6.24079e+66  -3.85308e+67   2.05987e+67
   1.72278e+60    2.1646e+63   4.78112e+61   1.35836e+68  3.85314e+135  2.72048e+202   1.20823e+68   1.68641e+67   4.69665e+67   7.20051e+67  -1.17382e+67  -3.23432e+67   1.87394e+67
  -1.54482e+60   2.16501e+63  -8.01386e+61  -2.38905e+68  9.99407e+135 -5.85868e+202   2.16983e+68  -1.82226e+67  -3.95122e+67  -1.81171e+68  -1.59394e+67  -2.94626e+67    7.9803e+66
   -9.8502e+59   2.04035e+63  -7.69694e+61  -2.14909e+68  6.64584e+135 -3.90132e+202   1.98847e+68  -1.19645e+67  -4.03294e+67  -1.62616e+68   9.01844e+66   4.75207e+67  -9.68242e+65
   1.17433e+60   2.04011e+63   4.68352e+61   1.55375e+68  4.08772e+135  2.82646e+202   1.41611e+68   1.61846e+67   4.51208e+67   9.40696e+67   9.71196e+66   4.72708e+67   8.98151e+66
    1.5405e+60    2.0382e+63   4.67154e+61   1.05417e+68 -5.50726e+133 -1.91387e+202   1.05678e+68   4.65592e+66   3.46057e+67   6.61559e+67  -1.08128e+67   5.14327e+67    7.1655e+66
  -1.68614e+60   2.03847e+63  -7.68777e+61  -2.51102e+68  1.03538e+136 -9.26332e+202   2.29561e+68  -2.03165e+67   -4.7668e+67  -1.83117e+68  -1.15063e+67    5.4138e+67  -7.16023e+65
   1.45957e+60   2.16646e+63   4.83542e+61   2.64889e+67 -4.43531e+135  4.67541e+202   7.16726e+67  -8.36977e+66  -2.86877e+67   6.35464e+67  -2.10456e+66   -4.3495e+67   2.05987e+67
   4.22623e+60   2.16737e+63   1.76879e+62   4.82927e+68  4.45786e+136  1.06824e+204   4.34326e+68   5.21329e+67    7.6644e+67    3.5415e+68   3.09615e+66  -4.79316e+67   5.21188e+67
   5.30412e+60   2.16532e+63   1.75621e+62   3.77465e+68  2.35692e+136  3.21641e+203   3.44835e+68   2.77957e+67   5.96055e+67   2.90064e+68  -1.25708e+67  -3.63533e+67   4.42707e+67
   1.72278e+60    2.1646e+63   4.78112e+61  -4.30994e+66 -2.84877e+135  4.83163e+202   5.35476e+67  -1.54772e+67  -2.84965e+67   3.96638e+67  -1.77715e+67  -2.96423e+67   1.87394e+67
   1.17433e+60   2.04011e+63   4.68352e+61  -1.55499e+67 -5.38675e+135  1.24656e+203   7.50237e+67  -2.32596e+67  -4.69156e+67   5.46254e+67   9.22102e+66    4.9789e+67   8.98151e+66
   3.35921e+60   2.04124e+63   1.70509e+62   3.90043e+68  1.61663e+136  7.35897e+202   3.68737e+68   8.79643e+66   4.66827e+67   3.34564e+68   1.12482e+67   4.54581e+67   2.47525e+67
   4.87091e+60   2.03925e+63   1.70254e+62   2.73366e+68 -1.70517e+135 -1.27079e+203   2.76467e+68   -1.8129e+67   2.26805e+67   2.68814e+68  -1.07812e+67   4.59269e+67   1.70869e+67
    1.5405e+60    2.0382e+63   4.67154e+61  -5.93008e+67 -3.62633e+135  1.31169e+203   8.45158e+67   -3.3356e+67  -5.40888e+67   2.81439e+67  -1.28084e+67   5.24793e+67    7.1655e+66
    -3.811e+50   2.29984e+63  -8.27014e+61   2.07895e+67 -1.91008e+136  -6.9386e+203    1.3976e+68   5.26153e+67    9.9324e+67   -1.3115e+68   3.11818e+67  -5.62982e+67  -1.60672e+67
   -6.7152e+50   2.29738e+63   5.25321e+61   5.66218e+68  8.78558e+136  4.07376e+204   4.82439e+68   1.05749e+68   2.25192e+68   2.35277e+68  -3.25572e+67  -1.04294e+68   4.34018e+67
   4.40626e+59   2.29855e+63   5.09856e+61   1.46578e+68 -2.91762e+134 -2.14001e+203    1.4757e+68    8.9088e+66    4.0818e+67   9.68514e+67  -5.74033e+67  -3.25758e+67   3.33944e+67
  -8.51373e+59   2.29873e+63  -8.21269e+61  -1.49551e+68 -5.46342e+134  6.46998e+202   1.51366e+68   1.33061e+67  -2.75194e+67  -1.35337e+68   6.33563e+66  -3.80321e+67  -2.48431e+67
  -3.72178e+50   2.16753e+63  -7.91668e+61  -3.72672e+68  3.48098e+136 -9.62877e+203   3.22606e+68  -6.32575e+67  -8.74661e+67  -2.21949e+68  -9.94426e+65   6.39813e+67   9.01974e+66
  -6.60506e+50   2.16757e+63   4.98122e+61   1.61322e+68  1.60271e+135 -9.92203e+202   1.56275e+68  -1.62813e+67   3.57633e+67    1.4184e+68   1.16265e+67   1.59857e+67   1.36975e+67
   9.71805e+59   2.16716e+63   4.93094e+61   8.54318e+67 -3.75988e+135 -4.26834e+202   1.05159e+68  -3.37943e+67   3.54953e+67   8.37308e+67  -1.50572e+67   4.96046e+67   3.92847e+66
  -4.15748e+59   2.16757e+63  -7.94915e+61  -2.05198e+68  6.31971e+135  4.80119e+202   1.89173e+68  -2.46095e+67   -3.1573e+67  -1.49015e+68  -2.76781e+67   4.54209e+67   4.52799e+65
   -6.7152e+50   2.29738e+63   5.25321e+61   1.17234e+68 -2.79391e+136  2.66863e+203   2.04164e+68   2.13696e+66  -1.65689e+67   1.31665e+68  -3.25572e+67  -1.51855e+68   4.34018e+67
  -9.63811e+50   2.29852e+63   1.90239e+62   3.46669e+68 -1.42478e+137  1.17819e+204   5.12501e+68  -2.28789e+68   3.63777e+67    5.3908e+68  -2.84516e+67   -1.5719e+68   7.00845e+67
   5.50064e+60   2.29953e+63   1.87739e+62   7.04982e+67 -1.61754e+137   4.0297e+204   4.08319e+68   -2.9252e+68  -2.17411e+67    3.8476e+68   -1.2576e+68  -1.08174e+68   1.40292e+68
   4.40626e+59   2.29855e+63   5.09856e+61   3.21014e+65 -3.15249e+136  1.88959e+203   1.77553e+68  -2.48429e+67  -3.79358e+67   6.30997e+67  -1.29865e+68  -1.02596e+68   3.33944e+67
  -6.60506e+50   2.16757e+63   4.98122e+61  -1.03691e+67 -9.30663e+135  3.64824e+203   9.70265e+67  -5.59022e+67  -5.66856e+67   1.02219e+68   1.16265e+67   2.53792e+67   1.36975e+67
  -9.48726e+50   2.16898e+63   1.78303e+62   9.63917e+68  2.11002e+137  1.28836e+205   8.47428e+68   1.14246e+68    1.6815e+68   6.81522e+68   1.53844e+67   2.00442e+67   5.37852e+66
   1.98367e+60   2.16843e+63   1.78098e+62    6.9362e+68  8.47757e+136  2.31282e+204   6.29549e+68   5.18694e+67   1.11036e+68   5.30714e+68  -4.07442e+66   4.42728e+67   7.39143e+67
   9.71805e+59   2.16716e+63   4.93094e+61  -1.25201e+68 -1.77152e+135  4.26236e+203   1.32086e+68  -8.24018e+67  -7.79221e+67   3.51233e+67  -7.83236e+66   4.98453e+67   3.92847e+66
  -8.51373e+59   2.29873e+63  -8.21269e+61  -1.49115e+68 -6.16875e+133  3.44848e+202   1.49322e+68   1.42296e+67  -2.74189e+67  -1.35926e+68   2.33629e+66  -3.79655e+67  -4.17944e+66
   4.40626e+59   2.29855e+63   5.09856e+61   1.42553e+68  2.56678e+135 -2.96638e+202   1.33247e+68   6.70157e+66   3.98892e+67   9.59626e+67   2.64478e+66  -3.35766e+67   3.22045e+67
   9.05986e+59   2.29757e+63   4.94838e+61   7.10949e+67 -1.17086e+135 -4.57495e+202   7.89009e+67  -9.78884e+66   2.38463e+67   5.70375e+67  -2.29562e+67  -1.37394e+67   3.19919e+67
  -1.71726e+60   2.29776e+63  -8.22894e+61  -1.15884e+68 -1.64732e+135  1.03747e+203   1.22786e+68   2.18983e+67  -1.93027e+67  -1.18479e+68  -2.32646e+67  -1.48686e+67  -1.24408e+67
  -4.15748e+59   2.16757e+63  -7.94915e+61  -1.98024e+68  6.02948e+135 -4.82907e+202   1.82165e+68  -2.06611e+67  -2.99175e+67  -1.47445e+68  -3.29975e+66   4.50146e+67   3.00123e+66
   9.71805e+59   2.16716e+63   4.93094e+61   1.70876e+68  4.91859e+135  8.18681e+201    1.5582e+68     1.263e+67   5.52132e+67   1.03033e+68  -7.64799e+66   4.94811e+67   1.61848e+67
   1.45957e+60   2.16646e+63   4.83542e+61   7.99987e+67 -2.87754e+135 -8.16917e+202   9.63189e+67  -8.34167e+66   2.81799e+67   6.01605e+67  -2.58238e+67   5.39797e+67   1.59772e+67
  -8.73121e+59   2.16671e+63  -7.99122e+61  -1.86704e+68  4.29451e+135  4.33538e+202   1.74825e+68  -1.80487e+67  -3.33668e+67  -1.35288e+68  -2.14756e+67   5.26953e+67  -5.06347e+66
   4.40626e+59   2.29855e+63   5.09856e+61  -3.70381e+66 -1.96931e+136  5.58632e+203   1.40381e+68  -2.70501e+67  -3.88646e+67   6.22109e+67  -6.98171e+67  -1.03596e+68   3.22045e+67
   5.50064e+60   2.29953e+63   1.87739e+62   1.22398e+69  3.72995e+137  3.35249e+205   1.06072e+69   3.32554e+68   2.44447e+68    6.4698e+68  -6.29718e+67   -1.0922e+68   2.56341e+68
   4.59802e+60   2.29831e+63   1.80996e+62   5.43345e+68  5.10921e+136  6.90111e+203   4.94097e+68   1.75484e+68   9.67141e+67   2.71147e+68  -3.66645e+67  -1.20199e+67   1.95439e+68
   9.05986e+59   2.29757e+63   4.94838e+61  -4.62722e+67 -3.82488e+135  5.41411e+202   7.72399e+67  -3.68736e+67  -3.93514e+67   2.99528e+67  -4.35098e+67  -8.72807e+66   3.19919e+67
   9.71805e+59   2.16716e+63   4.93094e+61  -3.97565e+67  -5.7662e+135   2.1747e+203   8.57134e+67  -3.59775e+67  -5.82043e+67   5.44252e+67  -4.23136e+65   4.97218e+67   1.61848e+67
   1.98367e+60   2.16843e+63   1.78098e+62   6.39579e+68  5.32357e+136  1.83802e+203   5.96511e+68    2.3687e+67   9.85655e+67   5.17327e+68   9.75374e+66   4.40423e+67   1.01532e+68
   4.22623e+60   2.16737e+63   1.76879e+62  -8.22856e+66  -2.4881e+136   8.5813e+203   1.57952e+68  -1.25807e+68  -3.66994e+67   1.54278e+68  -2.39923e+67   4.56126e+67   4.20799e+67
   1.45957e+60   2.16646e+63   4.83542e+61  -6.46886e+67 -4.19858e+135  8.37363e+202   9.15598e+67   -4.1731e+67  -4.97287e+67   2.67711e+67  -3.41692e+67   4.90155e+67   1.59772e+67
  -1.71726e+60   2.29776e+63  -8.22894e+61  -1.94333e+68  8.31553e+135 -9.54154e+202    1.7161e+68  -1.96196e+67  -3.74064e+67  -1.37307e+68   -2.1286e+66  -1.55731e+67  -1.18784e+66
   9.05986e+59   2.29757e+63   4.94838e+61   1.61376e+68   6.9991e+135   7.8646e+202   1.37996e+68   3.88523e+67   4.46803e+67    7.7843e+67   2.33119e+66  -1.45824e+67    3.1956e+67
   8.76184e+59   2.29569e+63    4.7965e+61    5.4604e+67  2.13937e+134 -1.42273e+202   5.26085e+67   1.42127e+67   2.61371e+67   1.42542e+67  -5.69849e+66   2.85068e+66   2.63077e+67
  -2.16461e+60   2.29604e+63  -8.28403e+61  -2.16758e+68  1.03165e+136 -1.24314e+203   1.91488e+68  -2.47946e+67   -3.6485e+67  -1.55479e+68  -1.01583e+67   2.03185e+66   2.91643e+66
  -8.73121e+59   2.16671e+63  -7.99122e+61  -1.46805e+68 -2.36286e+134  2.07808e+201   1.47607e+68   3.07507e+66  -2.41594e+67   -1.2572e+68    2.0194e+66   5.19121e+67  -1.06664e+67
   1.45957e+60   2.16646e+63   4.83542e+61   1.22362e+68  1.31518e+135 -2.17275e+201   1.16864e+68   1.37113e+67    3.7956e+67   7.06945e+67   6.23356e+66   5.29111e+67   4.40406e+66
   1.72278e+60    2.1646e+63   4.78112e+61   1.79696e+67 -3.61023e+135  3.32725e+202   6.27147e+67  -1.03792e+67   1.97666e+67   8.58215e+66  -1.17454e+67   5.78485e+67  -1.10971e+66
  -1.54482e+60   2.16501e+63  -8.01386e+61  -1.68858e+68  1.36309e+134  4.95059e+202   1.68454e+68  -2.01425e+66  -2.33475e+67  -1.43497e+68  -1.59596e+67   5.70174e+67  -6.65986e+66
   9.05986e+59   2.29757e+63   4.94838e+61   4.40085e+67 -2.00536e+135  1.06319e+201   6.27862e+67   1.17676e+67  -1.85174e+67   5.07583e+67  -1.82225e+67  -9.57098e+66    3.1956e+67
   4.59802e+60   2.29831e+63   1.80996e+62   3.94801e+68   3.6981e+136  1.01307e+204     3.448e+68   8.70998e+67   6.24347e+67   2.45266e+68  -3.17179e+66  -1.31363e+67   7.03576e+67
   4.66523e+60    2.2959e+63   1.78749e+62     3.313e+68  2.91068e+136  7.61294e+203   2.83994e+68   7.24457e+67   6.84047e+67   1.90449e+68  -5.03734e+66  -7.21051e+66   5.09548e+67
   8.76184e+59   2.29569e+63    4.7965e+61  -1.55481e+67 -1.05697e+135  5.35681e+201   3.60377e+67  -1.97621e+66  -1.16371e+67  -1.93479e+66   -2.0088e+67   3.26844e+66   2.63077e+67
   1.45957e+60   2.16646e+63   4.83542e+61  -2.23256e+67 -3.76111e+135  7.42838e+202   6.52651e+67  -1.96781e+67  -3.99526e+67   3.73051e+67  -2.11179e+66   4.79469e+67   4.40406e+66
   4.22623e+60   2.16737e+63   1.76879e+62   2.00933e+68 -4.27897e+135 -1.57068e+202   2.11313e+68  -1.30755e+67   1.15687e+67    2.0244e+68   3.06232e+66   4.47108e+67   4.25938e+67
   5.30412e+60   2.16532e+63   1.75621e+62   9.72324e+67 -8.94819e+135  7.12712e+202   1.35655e+68  -3.70065e+67  -5.06368e+66   1.39303e+68  -1.26047e+67   5.05644e+67   2.36529e+67
   1.72278e+60    2.1646e+63   4.78112e+61  -1.22176e+68  7.34126e+134  1.10059e+203   1.19134e+68  -4.27205e+67  -5.56964e+67  -2.37592e+67  -1.77788e+67   6.05495e+67  -1.10971e+66
  -3.90863e+50   2.43398e+63  -8.17101e+61   8.02217e+66 -3.29963e+136 -1.05957e+204   1.81826e+68   9.62364e+67  -1.28193e+68   3.99788e+67   8.57829e+66   1.19125e+68   7.15374e+67
  -6.83966e+50   2.43736e+63     4.623e+61  -8.08671e+68  8.63112e+136  4.18416e+204   7.53417e+68  -6.30034e+67  -3.16661e+68  -4.29007e+68   4.82061e+67    2.3141e+68  -2.01603e+68
  -2.15339e+60   2.43567e+63   5.32544e+61   4.58138e+68 -8.90783e+135 -9.98617e+203   4.67759e+68   2.29337e+68   2.90953e+67   1.99706e+68   5.80909e+67  -7.14858e+66  -2.52518e+68
  -1.63938e+60   2.43368e+63  -8.42028e+61  -2.09531e+68 -1.20839e+135  9.75549e+203   2.12395e+68   4.60318e+67  -1.24982e+68  -1.30581e+68   1.84631e+67  -4.82987e+67   5.55969e+67
    -3.811e+50   2.29984e+63  -8.27014e+61   5.86248e+68  1.11945e+137  7.00025e+204   4.81395e+68   1.83018e+68   2.29814e+68   1.73415e+68   3.14054e+67  -2.11345e+67  -1.65272e+67
   -6.7152e+50   2.29738e+63   5.25321e+61  -5.63129e+68  6.51575e+136 -5.49555e+203   5.01953e+68  -1.55359e+68  -3.54266e+67  -3.72343e+68  -3.30672e+67   9.11509e+67    4.4523e+67
   4.40626e+59   2.29855e+63   5.09856e+61    2.1893e+68   3.2802e+135 -3.67253e+203   2.11306e+68   2.51158e+67   5.75145e+67   1.36299e+68  -5.79133e+67   7.77581e+67  -5.15009e+66
  -8.51373e+59   2.29873e+63  -8.21269e+61  -7.98514e+67 -4.36931e+135 -1.59641e+201   1.03661e+68   2.93028e+67   -1.1435e+67  -9.77192e+67   6.55922e+66   3.48729e+67  -3.20789e+67
  -6.83966e+50   2.43736e+63     4.623e+61  -1.88654e+69   1.1577e+137   1.6044e+206    1.8556e+69  -3.11743e+68  -8.97052e+68  -6.77746e+68   4.82061e+67  -9.69622e+68  -2.01603e+68
   -9.6264e+50   2.44936e+63   2.36624e+62   4.33152e+69  2.27959e+138 -1.04883e+207   4.05986e+69   1.01002e+69   5.37886e+68   2.78362e+69   3.21417e+68  -7.60585e+68   1.37501e+69
  -2.04149e+59   2.43817e+63   1.88767e+62  -2.98225e+68   -1.658e+138  3.08468e+206   1.32172e+69  -5.83824e+67  -1.64735e+68  -7.51079e+67   2.83932e+68    5.4639e+67   1.26522e+69
  -2.15339e+60   2.43567e+63   5.32544e+61   3.95462e+68  -2.6853e+136 -2.70022e+203   4.28069e+68   2.14873e+68  -4.65338e+66   1.85242e+68   1.07207e+67   3.02406e+67  -2.52518e+68
   -6.7152e+50   2.29738e+63   5.25321e+61  -1.01211e+69  3.21995e+137 -3.27322e+205   8.38081e+68  -2.58971e+68  -2.77188e+68  -4.75955e+68  -3.30672e+67     4.359e+67    4.4523e+67
  -9.63811e+50   2.29852e+63   1.90239e+62   4.64588e+69  5.82567e+138  2.17962e+207    3.9697e+69   7.61214e+68    1.0285e+69   2.85616e+69  -3.00586e+67   2.52627e+68   6.50223e+67
   5.50064e+60   2.29953e+63   1.87739e+62  -1.01251e+69   2.8881e+137 -2.42476e+205   8.58115e+68  -5.44566e+68  -2.71665e+68  -1.96276e+68  -1.27367e+68   3.66401e+67  -4.20942e+67
   4.40626e+59   2.29855e+63   5.09856e+61   7.26726e+67 -1.99643e+136 -1.71279e+204   1.58889e+68  -8.63588e+66  -2.12393e+67   1.02548e+68  -1.30375e+68   7.73826e+66  -5.15009e+66
  -1.63938e+60   2.43368e+63  -8.42028e+61  -2.23292e+68 -1.77211e+135  1.69817e+204   2.27225e+68   3.54012e+67  -1.28158e+68  -1.30535e+68   7.24147e+67  -4.91979e+67   -4.0974e+67
  -2.15339e+60   2.43567e+63   5.32544e+61   8.47627e+66 -2.48417e+136 -1.28074e+204    1.5784e+68  -2.79078e+66  -7.46728e+67   8.59399e+67   1.26388e+68  -8.28687e+66   4.84797e+67
  -2.07266e+60   2.43162e+63   4.98377e+61  -6.67684e+66 -1.10737e+136  6.45222e+202   1.05443e+68  -6.28765e+66  -5.90602e+66   5.51684e+66   9.58056e+67   1.31829e+67   4.11224e+67
  -3.14894e+60   2.43151e+63  -8.33285e+61    1.4389e+68 -2.04962e+135  -1.4404e+203   1.50844e+68   1.20135e+68   2.88401e+67  -5.08584e+66   4.18323e+67   9.07952e+66  -5.40766e+67
  -8.51373e+59   2.29873e+63  -8.21269e+61  -7.93855e+67 -3.54838e+135 -3.11274e+201   9.92493e+67   3.02611e+67  -1.13274e+67  -9.83191e+67   2.20752e+66   3.49455e+67  -1.08628e+67
   4.40626e+59   2.29855e+63   5.09856e+61   2.16359e+68  6.33181e+135  3.67147e+202   2.01195e+68   2.36485e+67   5.69212e+67   1.35789e+68   2.31598e+66   7.67542e+67  -7.62833e+66
   9.05986e+59   2.29757e+63   4.94838e+61  -2.60993e+67 -2.79969e+135  8.60774e+202   5.89988e+67  -3.23033e+67   1.41685e+66   4.78722e+66   -2.3285e+67   4.29493e+67  -1.48062e+67
  -1.71726e+60   2.29776e+63  -8.22894e+61   5.11659e+67 -3.58401e+135 -7.01799e+202   7.87525e+67   6.03883e+67   1.92473e+67  -2.84697e+67  -2.33934e+67   3.70504e+67  -2.36459e+67
  -2.15339e+60   2.43567e+63   5.32544e+61  -5.41998e+67 -1.65531e+136  1.79833e+203   1.39609e+68  -1.72545e+67  -1.08421e+68   7.14761e+67   7.90178e+67   2.91023e+67   4.84797e+67
  -2.04149e+59   2.43817e+63   1.88767e+62  -3.20233e+68  8.05606e+134  1.92829e+204   3.18973e+68  -1.10646e+68  -1.69814e+68  -3.97736e+67   1.51901e+68   5.68395e+67   5.32319e+67
   4.39125e+59   2.43158e+63   1.83133e+62   1.17771e+68  -2.5265e+136 -2.34948e+204   1.97826e+68  -9.56777e+66   2.88106e+67   9.85281e+67   1.41083e+68  -6.88959e+66   8.32668e+67
  -2.07266e+60   2.43162e+63   4.98377e+61   1.28163e+67 -6.43672e+135  5.75357e+201   8.12464e+67  -1.78923e+66   4.59029e+66   1.00153e+67   6.81996e+67   1.06928e+67   4.11224e+67
   4.40626e+59   2.29855e+63   5.09856e+61   7.01016e+67 -8.06205e+135 -4.70626e+203   1.13913e+68  -1.01031e+67  -2.18326e+67   1.02037e+68  -7.01459e+67   6.73443e+66  -7.62833e+66
   5.50064e+60   2.29953e+63   1.87739e+62   1.50702e+68 -6.32063e+135 -7.42758e+203   1.70387e+68   8.59387e+67  -3.23254e+66   6.79958e+67  -6.35837e+67    3.5577e+67   7.97364e+67
   4.59802e+60   2.29831e+63   1.80996e+62   2.99073e+68  1.27479e+136 -3.92984e+203   2.76942e+68   1.20178e+68   4.03437e+67   1.38551e+68  -3.72765e+67    3.2589e+67   1.09039e+68
   9.05986e+59   2.29757e+63   4.94838e+61  -1.43466e+68  1.92953e+135  1.73452e+203   1.36576e+68   -5.9388e+67  -6.17808e+67  -2.22975e+67  -4.38386e+67   4.79607e+67  -1.48062e+67
  -3.14894e+60   2.43151e+63  -8.33285e+61   -5.2675e+67 -2.26406e+135  1.06017e+203   7.09839e+67   1.73829e+67   -1.6521e+67  -5.35369e+67     4.246e+67    9.0586e+66  -6.76981e+66
  -2.07266e+60   2.43162e+63   4.98377e+61  -3.03854e+67 -3.18801e+135  -7.9318e+201   6.41193e+67  -2.19756e+67  -1.13772e+67   2.96747e+66   5.58747e+67   1.45139e+67   -2.5351e+66
  -1.81209e+60   2.42896e+63   4.79468e+61  -2.45193e+67 -2.12008e+135  3.55723e+202   5.21658e+67  -2.06219e+67   7.91272e+66  -1.18101e+67   4.10113e+67   2.03715e+67   3.17379e+66
  -3.66126e+60   2.42932e+63  -8.40661e+61    -2.003e+67 -2.87559e+135  7.75869e+201   5.72433e+67   2.49163e+67   8.94869e+66  -5.38951e+67   2.75966e+67   2.10597e+67  -8.26547e+66
  -1.71726e+60   2.29776e+63  -8.22894e+61  -2.72847e+67  -2.4058e+135 -2.39105e+202   5.61272e+67   1.88647e+67   1.14329e+66  -4.72926e+67  -2.18329e+66   3.63434e+67  -1.24712e+67
   9.05986e+59   2.29757e+63   4.94838e+61   6.48422e+67 -6.10263e+134  -2.7655e+202   6.93886e+67   1.67089e+67   2.24033e+67     2.573e+67   2.24095e+66   4.20985e+67  -1.46169e+67
   8.76184e+59   2.29569e+63    4.7965e+61   3.35077e+67 -1.83488e+135 -1.55981e+202   5.43842e+67   9.47788e+66   2.12687e+67    2.7611e+66  -5.78873e+66   4.47883e+67   -9.0473e+66
  -2.16461e+60   2.29604e+63  -8.28403e+61  -3.24936e+67 -3.55095e+135 -2.43005e+202   6.78733e+67   1.76626e+67   6.03765e+66  -5.61938e+67   -1.0213e+67    4.5027e+67  -1.39304e+67
  -2.07266e+60   2.43162e+63   4.98377e+61  -1.08922e+67 -1.07178e+135 -5.04211e+201   3.45024e+67  -1.74772e+67  -8.80914e+65   7.46589e+66   2.82686e+67   1.20238e+67   -2.5351e+66
   4.39125e+59   2.43158e+63   1.83133e+62   1.54036e+68  3.26318e+135 -1.32347e+203   1.43052e+68   5.98228e+66   3.71794e+67   1.10874e+68   3.43794e+67  -3.33282e+66   2.34884e+67
   9.53445e+59   2.42871e+63   1.79558e+62   3.22342e+66 -2.97062e+135  1.01289e+202   5.45986e+67  -2.88206e+67   1.04742e+67   2.15699e+67   2.94997e+67   1.89039e+67   3.23331e+67
  -1.81209e+60   2.42896e+63   4.79468e+61  -3.70016e+67 -1.04691e+135   3.1164e+202   4.91532e+67  -2.35025e+67   1.19146e+66  -1.46906e+67   2.33889e+67   2.80991e+67   3.17379e+66
   9.05986e+59   2.29757e+63   4.94838e+61  -5.25249e+67 -2.27575e+135  5.68445e+202    7.0955e+67  -1.03758e+67  -4.07943e+67  -1.35475e+66  -1.83127e+67   4.71098e+67  -1.46169e+67
   4.59802e+60   2.29831e+63   1.80996e+62   1.48315e+68  2.93838e+135 -1.05239e+202   1.38054e+68    3.0549e+67   5.55329e+66   1.12213e+68  -3.18523e+66   3.14526e+67  -1.68221e+67
   4.66523e+60    2.2959e+63   1.78749e+62   4.25338e+67 -1.07259e+135 -5.44503e+201   5.36815e+67   6.13799e+66    1.7664e+66   3.46294e+67  -5.05078e+66     3.556e+67  -8.19313e+66
   8.76184e+59   2.29569e+63    4.7965e+61  -3.66444e+67 -2.11009e+135  3.55511e+202   5.87614e+67  -6.71106e+66  -1.65055e+67  -1.34278e+67  -2.01782e+67   4.52061e+67   -9.0473e+66
  -4.41947e+48    2.1537e+60   3.26653e+60   2.50585e+68  1.32378e+136  1.76005e+203    2.2261e+68   4.59374e+67   2.11847e+67   1.83463e+68  -1.36425e+66  -6.83626e+66  -1.11474e+66
  -8.85293e+47   1.20099e+60    7.5735e+59  -3.86737e+67 -1.21692e+135  2.06604e+202   5.20824e+67  -1.33104e+67  -4.55674e+67   2.02041e+67   -9.8123e+65  -2.51576e+67   2.62261e+64
  -1.50455e+59   1.13366e+60   7.59149e+59  -3.51611e+67 -1.28647e+135   1.9931e+202   5.02272e+67  -1.24998e+67  -4.37461e+67   2.10848e+67   3.96952e+66  -2.49632e+67  -2.90369e+66
  -4.07894e+59    2.0601e+60   3.19005e+60   2.44189e+68   1.2443e+136  1.59091e+203   2.17222e+68   4.44614e+67   2.07193e+67   1.79008e+68    3.5865e+66  -7.15361e+66  -9.05794e+66
             0            10           -50   4.08397e+68  4.86203e+136  1.79184e+204   3.43756e+68   9.42704e+67   9.42455e+67   2.19881e+68   2.84814e+63   4.14173e+67   2.32724e+63
             0            15           -50   9.46985e+67   2.1731e+135  1.26961e+202   8.24299e+67   2.18626e+67   2.18535e+67   5.09823e+67   2.04851e+63   2.30959e+67  -5.47523e+61
       6.66667            15           -50   9.49234e+67  2.23573e+135  1.39325e+202   8.23087e+67   2.19146e+67   2.19054e+67   5.11034e+67   2.04851e+63   2.18013e+67  -2.89334e+66
       6.66667            10           -50   3.98837e+68  4.63757e+136  1.66939e+204   3.35701e+68   9.20642e+67   9.20393e+67   2.14734e+68   2.84814e+63   3.96173e+67  -7.84158e+66
  -8.85293e+47   1.20099e+60    7.5735e+59   1.12088e+68   3.3922e+135  3.10279e+202   9.57676e+67   2.14807e+67   3.56118e+67   5.49952e+67   -9.8123e+65  -2.26187e+67   2.62261e+64
   3.12572e+48   1.45437e+60  -1.61981e+60  -1.61342e+68  6.77757e+135 -8.28371e+202   1.38758e+68  -3.43216e+67  -2.74874e+67  -9.95332e+67  -1.29766e+66   -1.7746e+67   1.13367e+66
   9.98728e+58   1.36533e+60  -1.54203e+60   -1.5421e+68  6.15522e+135 -7.10414e+202   1.32762e+68  -3.26758e+67  -2.66767e+67   -9.4858e+67   3.51633e+66  -1.80186e+67   3.07857e+66
  -1.50455e+59   1.13366e+60   7.59149e+59   1.09602e+68  3.19015e+135  2.78226e+202   9.39273e+67   2.09069e+67    3.4203e+67   5.44916e+67   3.83277e+66  -2.24685e+67  -2.90369e+66
             0            15           -50   9.46985e+67   2.1731e+135  1.26961e+202   8.24299e+67   2.18626e+67   2.18535e+67   5.09823e+67   2.04851e+63   2.30959e+67  -5.47523e+61
             0            20           -50  -2.02496e+68  1.15923e+136 -2.01559e+203     1.715e+68  -4.67359e+67  -4.67299e+67   -1.0903e+68   2.70913e+63   2.79686e+67  -2.36677e+63
       6.66667            20           -50  -1.92773e+68  1.05217e+136 -1.74604e+203   1.63217e+68  -4.44923e+67  -4.44862e+67  -1.03795e+68   2.70913e+63   2.62564e+67   1.91821e+66
       6.66667            15           -50   9.49234e+67  2.23573e+135  1.39325e+202   8.23087e+67   2.19146e+67   2.19054e+67   5.11034e+67   2.04851e+63   2.18013e+67  -2.89334e+66
  -4.07894e+59    2.0601e+60   3.19005e+60   2.29893e+68  9.96902e+135  1.07973e+203    2.0708e+68   3.68755e+67   1.74204e+67   1.75598e+68   -6.8288e+65  -7.22476e+66  -1.24467e+67
  -1.50455e+59   1.13366e+60   7.59149e+59  -3.82078e+67  -1.2009e+135   2.2164e+202   5.15823e+67  -1.41386e+67  -4.44492e+67     2.038e+67   9.22598e+65   -2.5014e+67  -2.96299e+66
  -3.33011e+59   8.57287e+59   7.57415e+59  -2.46581e+67 -1.42877e+135  1.88298e+202   4.51308e+67  -1.10118e+67  -3.70856e+67   2.34393e+67   8.08418e+66  -2.45344e+67  -6.51803e+66
  -9.62852e+59   1.67356e+60   2.88351e+60   2.04861e+68  7.24924e+135  6.29778e+202    1.8633e+68   3.10987e+67   1.58803e+67   1.57882e+68    6.4787e+66  -8.89024e+66  -2.32538e+67
       6.66667            10           -50   3.98867e+68  4.63841e+136  1.66988e+204   3.35724e+68     9.208e+67   9.20462e+67   2.14741e+68    1.1761e+64   3.96174e+67   -7.8345e+66
       6.66667            15           -50   9.49297e+67  2.23615e+135  1.39362e+202   8.23135e+67    2.1918e+67   2.19069e+67   5.11049e+67   8.40936e+63   2.18014e+67  -2.89322e+66
       13.3333            15           -50    9.4713e+67   2.3946e+135  1.75286e+202   8.10922e+67   2.18679e+67   2.18568e+67   5.09882e+67   8.40936e+63   1.64866e+67  -6.40383e+66
       13.3333            10           -50    3.6055e+68  3.78551e+136  1.22961e+204   3.03548e+68   8.32376e+67   8.32039e+67   1.94109e+68    1.1761e+64   3.21843e+67  -1.85065e+67
  -1.50455e+59   1.13366e+60   7.59149e+59   1.06555e+68  2.96718e+135  2.47246e+202   9.15791e+67   1.92681e+67   3.34999e+67   5.37868e+67   7.85847e+65  -2.25193e+67  -2.96299e+66
   9.98728e+58   1.36533e+60  -1.54203e+60  -1.45412e+68  5.20994e+135  -5.3861e+202   1.26233e+68   -2.8045e+67  -2.46463e+67  -9.27207e+67  -3.03496e+65  -1.80823e+67   6.30676e+66
   2.88952e+59   1.01421e+60  -1.24424e+60  -1.17061e+68  3.10561e+135 -2.27822e+202   1.02945e+68  -2.15025e+67  -2.09784e+67  -7.45801e+67   6.84334e+66  -1.91598e+67   9.98883e+66
  -3.33011e+59   8.57287e+59   7.57415e+59   9.69926e+67    2.232e+135   1.4453e+202   8.47087e+67   1.70614e+67   2.84186e+67   5.15126e+67   7.93268e+66  -2.21414e+67  -6.51803e+66
       6.66667            15           -50   9.49297e+67  2.23615e+135  1.39362e+202   8.23135e+67    2.1918e+67   2.19069e+67   5.11049e+67   8.40936e+63   2.18014e+67  -2.89322e+66
       6.66667            20           -50  -1.92792e+68  1.05242e+136  -1.7467e+203   1.63231e+68  -4.45019e+67  -4.44904e+67  -1.03799e+68   1.06835e+64   2.62566e+67   1.91147e+66
       13.3333            20           -50  -1.55569e+68  6.89286e+135 -9.32157e+202   1.31564e+68  -3.59121e+67  -3.59006e+67  -8.37566e+67   1.06835e+64   1.95045e+67   5.54751e+66
       13.3333            15           -50    9.4713e+67   2.3946e+135  1.75286e+202   8.10922e+67   2.18679e+67   2.18568e+67   5.09882e+67   8.40936e+63   1.64866e+67  -6.40383e+66
  -9.62852e+59   1.67356e+60   2.88351e+60   1.62241e+68   1.6572e+135  1.66921e+201   1.57051e+68   7.84204e+66   6.04504e+66   1.48354e+68  -3.13539e+66  -9.21071e+66  -1.88612e+67
  -3.33011e+59   8.57287e+59   7.57415e+59   -3.7579e+67 -1.11532e+135  2.63778e+202   5.02743e+67  -1.81173e+67  -4.00674e+67   2.06057e+67  -2.12208e+66  -2.48746e+67  -4.36531e+66
  -6.57037e+59  -1.19356e+59   9.08097e+59  -9.81518e+66 -2.97662e+135  4.10535e+202   5.54343e+67  -1.17103e+67  -3.09863e+67   3.28814e+67   1.11734e+67  -4.11916e+67  -1.06753e+67
  -1.97824e+60   6.27397e+59    2.8937e+60   1.72222e+68  9.90798e+134 -1.38107e+201   1.69321e+68   1.01453e+67   1.10223e+67   1.51054e+68   1.01601e+67  -2.68817e+67  -3.86345e+67
       13.3333            10           -50   3.60639e+68  3.78772e+136  1.23075e+204   3.03617e+68   8.32862e+67   8.32244e+67   1.94128e+68   3.18327e+64    3.2185e+67  -1.85157e+67
       13.3333            15           -50   9.47399e+67  2.39631e+135  1.75443e+202   8.11132e+67   2.18828e+67   2.18631e+67   5.09941e+67   2.97171e+64   1.64873e+67  -6.40832e+66
            20            15           -50   1.13575e+68  3.72834e+135  3.77049e+202   9.57648e+67   2.62293e+67   2.62096e+67   6.11359e+67   2.97171e+64  -2.29381e+66  -1.26394e+67
            20            10           -50   3.61913e+68  3.79409e+136  1.22683e+204   3.05025e+68   8.35802e+67   8.35184e+67   1.94814e+68   3.18327e+64   1.20669e+67  -3.80419e+67
  -3.33011e+59   8.57287e+59   7.57415e+59   8.40716e+67  1.44648e+135  6.11323e+201    7.4977e+67    9.9559e+66   2.54368e+67   4.86789e+67  -2.27357e+66  -2.24816e+67  -4.36531e+66
   2.88952e+59   1.01421e+60  -1.24424e+60  -9.99597e+67  1.79261e+135 -6.48243e+201   9.05502e+67   -1.2278e+67  -1.70319e+67  -7.06498e+67  -3.23244e+66  -1.94957e+67   9.83465e+66
   6.59099e+59  -2.82171e+58  -9.63066e+59  -7.25927e+67  -6.7863e+134  5.26675e+200   7.71254e+67  -5.96249e+66  -1.32468e+67  -5.33834e+67    1.0117e+67  -3.72862e+67   1.70428e+67
  -6.57037e+59  -1.19356e+59   9.08097e+59   9.49212e+67  7.20197e+134 -1.55388e+201   9.10485e+67   1.24596e+67   2.54102e+67   5.70513e+67   1.10759e+67  -3.89909e+67  -1.06753e+67
       13.3333            15           -50   9.47399e+67  2.39631e+135  1.75443e+202   8.11132e+67   2.18828e+67   2.18631e+67   5.09941e+67   2.97171e+64   1.64873e+67  -6.40832e+66
       13.3333            20           -50  -1.55605e+68  6.89671e+135 -9.32957e+202   1.31591e+68  -3.59314e+67  -3.59089e+67  -8.37648e+67    3.1719e+64   1.95052e+67   5.54783e+66
            20            20           -50  -1.20459e+68  4.21901e+135 -4.56783e+202   1.01447e+68  -2.78208e+67  -2.77983e+67  -6.48402e+67    3.1719e+64  -5.41051e+65   1.26659e+67
            20            15           -50   1.13575e+68  3.72834e+135  3.77049e+202   9.57648e+67   2.62293e+67   2.62096e+67   6.11359e+67   2.97171e+64  -2.29381e+66  -1.26394e+67
  -1.08063e+49   5.95303e+60   6.68343e+60   2.62436e+68  1.42383e+136  2.12411e+203    2.3374e+68   3.96502e+67   3.08045e+67   1.91981e+68  -3.31033e+66  -2.22561e+67  -1.66978e+66
  -3.65441e+48   5.17933e+60   1.72677e+60  -1.46798e+66  -1.5319e+135  1.18635e+202    3.9167e+67  -8.31842e+66  -3.00964e+67   3.69468e+67  -2.99992e+66  -1.88136e+67   1.66924e+64
  -2.69972e+59   4.97625e+60    1.7279e+60   1.07137e+66 -1.55124e+135  1.07484e+202   3.94003e+67  -7.73241e+66  -2.87037e+67   3.75075e+67   5.41357e+66  -1.92805e+67   -2.3482e+66
  -7.07473e+59   5.72897e+60   6.57047e+60   2.60317e+68  1.39792e+136   2.0657e+203   2.31918e+68   3.91613e+67   3.11222e+67   1.90034e+68   5.10316e+66  -2.26262e+67  -7.60519e+66
  -4.41947e+48    2.1537e+60   3.26653e+60   2.69361e+68  1.53337e+136   2.1703e+203    2.3921e+68   5.02641e+67   2.55174e+67   1.93579e+68  -1.36302e+66   2.48106e+67  -1.11593e+66
  -8.85293e+47   1.20099e+60    7.5735e+59  -1.21698e+67 -2.12357e+135   1.5497e+202   4.76621e+67  -7.19582e+66  -3.94511e+67   3.44772e+67  -9.79041e+65   2.82531e+67   2.63018e+64
  -1.50455e+59   1.13366e+60   7.59149e+59  -8.96606e+66 -2.06777e+135  1.24672e+202   4.63483e+67   -6.4565e+66  -3.77011e+67   3.51915e+67   3.97171e+66   2.71314e+67  -2.30866e+66
  -4.07894e+59    2.0601e+60   3.19005e+60   2.67965e+68  1.52881e+136  2.17861e+203   2.37734e+68   4.99421e+67   2.62062e+67   1.91817e+68   3.58772e+66   2.37845e+67   -6.9762e+66
  -3.65441e+48   5.17933e+60   1.72677e+60   1.09401e+68   3.0774e+135  2.52624e+202   9.42925e+67   1.72666e+67   2.96021e+67   6.25319e+67  -2.99992e+66   -1.8855e+67   1.66924e+64
   3.96241e+48   5.29258e+60  -3.23203e+60  -1.71869e+68  7.89184e+135 -1.07701e+203    1.4713e+68  -3.48923e+67  -3.53064e+67  -1.01671e+68  -3.15694e+66  -2.15498e+67   1.69681e+66
   1.61356e+59   5.07891e+60  -3.11725e+60  -1.68384e+68  7.53668e+135 -9.97827e+202    1.4428e+68   -3.4088e+67  -3.49095e+67  -9.93867e+67   5.13782e+66  -2.18137e+67   2.91892e+66
  -2.69972e+59   4.97625e+60    1.7279e+60   1.07994e+68  2.93063e+135  2.26624e+202   9.34461e+67   1.69421e+67   2.88702e+67   6.21821e+67   5.29484e+66  -1.93301e+67   -2.3482e+66
  -8.85293e+47   1.20099e+60    7.5735e+59   1.38592e+68  5.00429e+135  5.35297e+202   1.19178e+68   2.75953e+67   4.17281e+67   6.92683e+67  -9.79041e+65    3.0792e+67   2.63018e+64
   3.12572e+48   1.45437e+60  -1.61981e+60  -1.60386e+68  6.21382e+135  -6.5028e+202   1.39678e+68  -3.40988e+67  -2.72669e+67  -9.90208e+67  -1.29648e+66   2.80972e+67   1.13489e+66
   9.98728e+58   1.36533e+60  -1.54203e+60  -1.58352e+68  6.12276e+135 -6.36519e+202   1.37669e+68  -3.36293e+67  -2.76324e+67  -9.70904e+67   3.51752e+66   2.71398e+67   2.34153e+66
  -1.50455e+59   1.13366e+60   7.59149e+59   1.35797e+68  4.79664e+135  4.90057e+202   1.16808e+68   2.69503e+67    4.0248e+67   6.85983e+67   3.83496e+66   2.96261e+67  -2.30866e+66
  -7.07473e+59   5.72897e+60   6.57047e+60     2.401e+68  1.02682e+136  1.17765e+203   2.17669e+68   2.83715e+67   2.64568e+67   1.85272e+68  -3.33307e+66  -2.27668e+67  -1.05415e+67
  -2.69972e+59   4.97625e+60    1.7279e+60  -2.61939e+66  -1.5414e+135  1.38478e+202   3.93479e+67  -9.73166e+66  -2.95555e+67   3.66677e+67  -2.73118e+66  -1.94162e+67  -2.00027e+66
  -5.78745e+59   4.22184e+60   1.75325e+60   5.87478e+66 -1.74017e+135   1.1093e+202   4.21269e+67  -7.77147e+66   -2.6036e+67   3.96822e+67   8.91954e+66  -2.23855e+67  -4.50358e+66
  -1.62208e+60   4.93402e+60   6.26253e+60     2.445e+68  1.07462e+136  1.26477e+203   2.21437e+68   2.93869e+67   2.90315e+67   1.86082e+68   8.31765e+66  -2.44074e+67  -1.76832e+67
  -4.07894e+59    2.0601e+60   3.19005e+60   2.53652e+68  1.25927e+136  1.56697e+203   2.27479e+68   4.23469e+67   2.29031e+67   1.88402e+68  -6.81891e+65   2.37133e+67  -1.03731e+67
  -1.50455e+59   1.13366e+60   7.59149e+59  -1.20179e+67 -2.03252e+135  1.67306e+202   4.66578e+67  -8.09805e+66  -3.84053e+67   3.44855e+67    9.2911e+65   2.70807e+67  -2.36894e+66
  -3.33011e+59   8.57287e+59   7.57415e+59   5.13443e+66 -1.88099e+135  3.52828e+201   4.36733e+67  -4.13982e+66  -3.02104e+67   3.94847e+67   8.09069e+66   2.36825e+67  -4.84057e+66
  -9.62852e+59   1.67356e+60   2.88351e+60   2.66762e+68      1.5e+136   2.1843e+203   2.36985e+68   4.53723e+67   3.01652e+67   1.91225e+68   6.47969e+66    2.1627e+67  -1.74244e+67
  -2.69972e+59   4.97625e+60    1.7279e+60   1.04304e+68  2.66298e+135  1.91882e+202   9.06436e+67   1.49429e+67   2.80185e+67   6.13423e+67  -2.84992e+66  -1.94659e+67  -2.00027e+66
   1.61356e+59   5.07891e+60  -3.11725e+60  -1.55853e+68  6.07715e+135 -6.83226e+202   1.34956e+68  -2.74605e+67  -3.20177e+67  -9.63749e+67  -3.08808e+66  -2.19508e+67   6.55043e+66
   4.49061e+59   4.30852e+60  -2.75902e+60  -1.49721e+68  5.39815e+135 -5.50567e+202   1.30454e+68  -2.60455e+67  -3.12172e+67  -9.24588e+67   8.38265e+66   -2.3802e+67   8.51796e+66
  -5.78745e+59   4.22184e+60   1.75325e+60   1.05733e+68  2.52293e+135  1.53948e+202   9.30406e+67   1.52727e+67   2.77339e+67   6.27264e+67   8.62082e+66  -2.24431e+67  -4.50358e+66
  -1.50455e+59   1.13366e+60   7.59149e+59   1.32745e+68  4.52283e+135  4.54334e+202   1.14448e+68   2.53087e+67   3.95437e+67   6.78922e+67   7.92359e+65   2.95754e+67  -2.36894e+66
   9.98728e+58   1.36533e+60  -1.54203e+60  -1.49543e+68  5.16149e+135 -4.85039e+202   1.31155e+68   -2.8993e+67  -2.55996e+67  -9.49504e+67  -3.01091e+65   2.70762e+67   5.57572e+66
   2.88952e+59   1.01421e+60  -1.24424e+60   -1.5086e+68  5.51868e+135 -5.18546e+202   1.31301e+68  -2.92968e+67  -2.87781e+67  -9.27848e+67   6.84574e+66   2.46882e+67   7.51834e+66
  -3.33011e+59   8.57287e+59   7.57415e+59   1.26785e+68  4.07957e+135  3.37038e+202   1.09521e+68   2.39334e+67   3.52938e+67   6.75579e+67   7.93919e+66   2.60755e+67  -4.84057e+66
  -1.62208e+60   4.93402e+60   6.26253e+60   2.22362e+68  6.98914e+135  4.71434e+202   2.06048e+68   1.73018e+67   2.39227e+67   1.81138e+68  -6.13194e+66   -2.4889e+67  -1.53307e+67
  -5.78745e+59   4.22184e+60   1.75325e+60    3.2801e+66 -1.71988e+135  1.29019e+202    4.1601e+67  -9.23915e+66  -2.66347e+67    3.9154e+67  -5.19547e+66   -2.2856e+67  -3.45979e+66
  -9.16652e+59   2.51269e+60   1.84998e+60   4.60207e+66 -2.21334e+135  1.64795e+202   4.72707e+67  -8.93408e+66  -2.38953e+67   3.74314e+67   1.04206e+67  -3.27851e+67  -3.81003e+66
  -2.77203e+60   3.16158e+60   6.12118e+60   2.11105e+68  5.36337e+135  3.11785e+202   1.97994e+68   1.47039e+67   2.37592e+67   1.72642e+68    9.4841e+66  -3.47139e+67  -1.82017e+67
  -9.62852e+59   1.67356e+60   2.88351e+60   2.24009e+68  7.50627e+135  6.77883e+202   2.06576e+68   2.20428e+67   2.02991e+67   1.81667e+68  -3.14455e+66   2.13061e+67  -1.30182e+67
  -3.33011e+59   8.57287e+59   7.57415e+59  -7.83576e+66 -1.81188e+135  2.01944e+202   4.32814e+67  -1.12723e+67  -3.32035e+67   3.66401e+67  -2.12892e+66   2.33418e+67  -2.68094e+66
  -6.57037e+59  -1.19356e+59   9.08097e+59  -5.65148e+66 -1.38146e+135  7.94219e+201   3.75952e+67  -1.07683e+67  -3.00254e+67   3.51422e+67   1.11665e+67   1.17196e+67  -3.02675e+66
  -1.97824e+60   6.27397e+59    2.8937e+60   2.13773e+68  6.94533e+135  4.22798e+202   1.96859e+68   1.96805e+67    2.0611e+67   1.73481e+68   1.01509e+67   9.78684e+66  -1.58528e+67
  -5.78745e+59   4.22184e+60   1.75325e+60   1.03138e+68  2.35381e+135  1.29779e+202   9.10149e+67   1.38051e+67   2.71351e+67   6.21982e+67  -5.49419e+66  -2.29136e+67  -3.45979e+66
   4.49061e+59   4.30852e+60  -2.75902e+60  -1.30931e+68  3.51269e+135 -2.16895e+202   1.16749e+68  -1.58992e+67  -2.68809e+67  -8.81509e+67  -5.47781e+66   -2.4264e+67   8.18883e+66
   9.33183e+59   2.60062e+60  -2.42962e+60  -1.24218e+68  2.40878e+135 -1.04014e+202   1.14111e+68  -1.43501e+67  -2.52838e+67  -8.45844e+67   1.03304e+67  -3.30075e+67      1.05e+67
  -9.16652e+59   2.51269e+60   1.84998e+60   9.67047e+67  1.34141e+135  1.18063e+201   8.95008e+67   1.23204e+67   2.56984e+67   5.86859e+67   1.03141e+67  -3.29466e+67  -3.81003e+66
  -3.33011e+59   8.57287e+59   7.57415e+59   1.13815e+68  3.04554e+135  2.37377e+202   9.95404e+67   1.68009e+67   3.23007e+67   6.47133e+67  -2.28042e+66   2.57348e+67  -2.68094e+66
   2.88952e+59   1.01421e+60  -1.24424e+60  -1.33726e+68  3.82742e+135 -3.12213e+202   1.18554e+68  -2.00547e+67  -2.48241e+67  -8.88469e+67  -3.24338e+66   2.43518e+67   7.36421e+66
   6.59099e+59  -2.82171e+58  -9.63066e+59  -1.35476e+68  4.38934e+135 -3.14644e+202   1.18171e+68  -2.04586e+67  -2.77583e+67  -8.72589e+67   1.01061e+67   1.38105e+67   9.64609e+66
  -6.57037e+59  -1.19356e+59   9.08097e+59   9.90849e+67  2.38696e+135  9.92344e+201   8.62024e+67   1.34017e+67   2.63711e+67   5.93122e+67   1.10691e+67   1.39203e+67  -3.02675e+66
   -2.0005e+49   1.22334e+61   1.01229e+61   2.43725e+68   1.0664e+136  1.24829e+203   2.20767e+68   2.78518e+67   2.73435e+67    1.8853e+68   -5.2287e+66  -2.17741e+67  -1.45793e+66
  -8.17074e+48    1.1482e+61   2.71025e+60  -4.57972e+66 -1.66039e+135  1.68072e+202   4.10045e+67  -1.13912e+67  -2.99577e+67   3.67692e+67  -5.06299e+66  -2.13458e+67   5.37437e+64
  -3.44994e+59   1.11438e+61   2.71385e+60  -2.88611e+66 -1.70774e+135  1.62104e+202   4.14255e+67  -1.10004e+67  -2.91424e+67   3.72567e+67   6.53141e+66  -2.20884e+67  -1.47511e+66
  -9.47903e+59   1.18842e+61   1.00256e+61   2.46909e+68  1.10725e+136  1.33378e+203   2.23364e+68   2.85865e+67   2.85027e+67    1.8982e+68   6.36571e+66  -2.23285e+67  -6.31818e+66
  -1.08063e+49   5.95303e+60   6.68343e+60   2.65242e+68  1.44883e+136  2.17189e+203   2.36358e+68   4.02946e+67   3.14521e+67   1.93496e+68  -3.31039e+66   2.54557e+67  -1.67142e+66
  -3.65441e+48   5.17933e+60   1.72677e+60   2.80058e+65 -1.86898e+135  1.38693e+202   4.32326e+67  -7.91767e+66   -2.9693e+67   3.78907e+67  -2.99983e+66   2.58841e+67   1.65925e+64
  -2.69972e+59   4.97625e+60    1.7279e+60   3.21156e+66 -1.84459e+135  1.10993e+202   4.30686e+67  -7.24117e+66  -2.82099e+67   3.86626e+67   5.41366e+66   2.54303e+67  -1.49266e+66
  -7.07473e+59   5.72897e+60   6.57047e+60   2.69645e+68  1.52208e+136  2.33784e+203   2.39765e+68   4.13105e+67   3.32747e+67   1.95059e+68    5.1031e+66   2.51878e+67  -6.46936e+66
  -8.17074e+48    1.1482e+61   2.71025e+60   1.04813e+68  2.56649e+135   1.6875e+202   9.17569e+67   1.38533e+67   2.89462e+67   6.20138e+67  -5.06299e+66  -2.15181e+67   5.37437e+64
   4.12735e+48   1.16057e+61  -4.71132e+60  -1.44897e+68  5.18802e+135 -5.25029e+202   1.25726e+68  -2.58843e+67  -2.86792e+67  -9.03331e+67  -5.12792e+66  -2.13168e+67   1.58228e+66
   2.52233e+59   1.12632e+61  -4.60574e+60  -1.46417e+68  5.27706e+135 -5.40202e+202   1.27125e+68  -2.62351e+67  -2.91961e+67  -9.09854e+67    6.3572e+66  -2.19182e+67   3.39285e+66
  -3.44994e+59   1.11438e+61   2.71385e+60   1.04587e+68  2.49775e+135  1.55782e+202   9.18734e+67   1.38011e+67   2.87278e+67   6.20582e+67   6.42213e+66  -2.22391e+67  -1.47511e+66
  -3.65441e+48   5.17933e+60   1.72677e+60   1.11149e+68  2.87935e+135  2.12768e+202   9.73379e+67   1.76674e+67   3.00055e+67   6.34758e+67  -2.99983e+66   2.58426e+67   1.65925e+64
   3.96241e+48   5.29258e+60  -3.23203e+60  -1.55258e+68  6.08487e+135 -6.88419e+202    1.3424e+68  -3.10609e+67  -3.14731e+67  -9.27243e+67  -3.15671e+66    2.6044e+67   1.69826e+66
   1.61356e+59   5.07891e+60  -3.11725e+60   -1.5755e+68  6.31191e+135 -7.11283e+202   1.36051e+68  -3.15897e+67  -3.24092e+67  -9.35507e+67   5.13806e+66      2.57e+67   3.48561e+66
  -2.69972e+59   4.97625e+60    1.7279e+60   1.10135e+68  2.80149e+135  1.89507e+202   9.65823e+67   1.74334e+67   2.93641e+67   6.33371e+67   5.29493e+66   2.53807e+67  -1.49266e+66
  -9.47903e+59   1.18842e+61   1.00256e+61   2.32981e+68  8.58277e+135  7.88599e+202    2.1377e+68   2.11706e+67   2.52886e+67   1.86522e+68  -5.67296e+66  -2.25291e+67  -8.86193e+66
  -3.44994e+59   1.11438e+61   2.71385e+60  -3.95554e+66 -1.70191e+135  1.70826e+202   4.14434e+67  -1.15822e+67  -2.93892e+67   3.70158e+67   -5.2368e+66  -2.22845e+67   -1.3005e+66
  -7.01105e+59   1.00198e+61   2.72925e+60  -1.53874e+66 -1.80874e+135  1.60969e+202   4.25571e+67  -1.10244e+67  -2.77129e+67   3.71986e+67   8.83729e+66  -2.42878e+67  -2.29976e+66
  -2.03587e+60   1.07311e+61   9.76097e+60   2.41601e+68  9.63819e+135  9.85536e+202   2.20755e+68   2.31598e+67   2.83963e+67   1.90045e+68   8.40114e+66  -2.43193e+67  -1.24673e+67
  -7.07473e+59   5.72897e+60   6.57047e+60   2.49402e+68  1.13938e+136  1.43833e+203   2.25405e+68   3.05066e+67   2.86032e+67   1.90292e+68  -3.33434e+66   2.50472e+67  -9.40557e+66
  -2.69972e+59   4.97625e+60    1.7279e+60  -4.86187e+65 -1.82876e+135  1.59893e+202   4.27668e+67  -9.24422e+66  -2.90632e+67   3.78212e+67  -2.73426e+66   2.52945e+67  -1.14348e+66
  -5.78745e+59   4.22184e+60   1.75325e+60   3.37863e+66 -1.79826e+135  9.64454e+201   4.25403e+67  -8.35234e+66   -2.6612e+67    3.8343e+67   8.91646e+66   2.44101e+67  -2.12993e+66
  -1.62208e+60   4.93402e+60   6.26253e+60    2.5939e+68  1.29054e+136  1.63158e+203    2.3319e+68   3.28115e+67   3.24675e+67   1.94111e+68   8.31638e+66   2.43732e+67  -1.29647e+67
  -3.44994e+59   1.11438e+61   2.71385e+60   1.03518e+68   2.4207e+135  1.44936e+202   9.10781e+67   1.32194e+67   2.84811e+67   6.18173e+67  -5.34608e+66  -2.24352e+67   -1.3005e+66
   2.52233e+59   1.12632e+61  -4.60574e+60   -1.3483e+68  4.08698e+135 -3.20261e+202   1.18711e+68  -2.00917e+67  -2.65223e+67  -8.82163e+67  -5.42927e+66  -2.21146e+67   6.28375e+66
   6.20215e+59   1.01336e+61  -4.30928e+60  -1.42761e+68  4.57881e+135  -4.0026e+202   1.25706e+68  -2.19219e+67  -2.85652e+67  -9.22741e+67   8.49562e+66  -2.38987e+67   7.91941e+66
  -7.01105e+59   1.00198e+61   2.72925e+60   1.01608e+68   2.1575e+135  1.03995e+202   9.03698e+67   1.27787e+67   2.78277e+67   6.10017e+67    8.5788e+66  -2.44188e+67  -2.29976e+66
  -2.69972e+59   4.97625e+60    1.7279e+60   1.06437e+68  2.53931e+135  1.72788e+202   9.37523e+67   1.54303e+67   2.85108e+67   6.24958e+67  -2.85299e+66   2.52449e+67  -1.14348e+66
   1.61356e+59   5.07891e+60  -3.11725e+60  -1.45009e+68  4.95462e+135 -4.91457e+202   1.26779e+68  -2.49569e+67  -2.95151e+67  -9.05366e+67  -3.08966e+66   2.55629e+67   7.11956e+66
   4.49061e+59   4.30852e+60  -2.75902e+60  -1.54153e+68  5.73271e+135 -5.32653e+202   1.34277e+68  -2.70671e+67  -3.22397e+67  -9.48458e+67   8.38108e+66   2.48675e+67   8.73424e+66
  -5.78745e+59   4.22184e+60   1.75325e+60   1.03237e+68  2.29619e+135  1.02044e+202   9.14421e+67   1.46919e+67   2.71578e+67   6.13872e+67   8.61775e+66   2.43525e+67  -2.12993e+66
  -2.03587e+60   1.07311e+61   9.76097e+60   2.25635e+68  6.85285e+135  3.87807e+202     2.099e+68   1.45185e+67   2.47118e+67   1.86404e+68  -7.70887e+66  -2.48563e+67  -1.18894e+67
  -7.01105e+59   1.00198e+61   2.72925e+60  -1.38578e+66 -1.80697e+135  1.54695e+202   4.25311e+67  -1.09423e+67  -2.76776e+67   3.72341e+67  -7.11155e+66  -2.48195e+67  -2.29575e+66
  -1.05559e+60   7.83116e+60   2.74472e+60  -6.54078e+66 -1.98124e+135  2.03145e+202   4.49892e+67  -1.21319e+67  -2.73359e+67   3.29271e+67   1.01717e+67  -3.00425e+67  -2.70304e+66
  -3.28908e+60   8.50265e+60   9.54017e+60   2.20322e+68  6.13396e+135  3.51812e+202   2.05932e+68   1.32924e+67    2.5017e+67   1.82013e+68   9.57435e+66  -2.96377e+67  -1.41882e+67
  -1.62208e+60   4.93402e+60   6.26253e+60   2.37283e+68   8.9475e+135  8.84451e+202   2.17613e+68   2.07432e+67   2.73659e+67   1.89174e+68  -6.13999e+66   2.38913e+67  -1.06128e+67
  -5.78745e+59   4.22184e+60   1.75325e+60   8.00291e+65 -1.73439e+135  1.49968e+202   4.16537e+67  -9.81122e+66   -2.7207e+67   3.78185e+67  -5.20296e+66   2.39395e+67  -1.08631e+66
  -9.16652e+59   2.51269e+60   1.84998e+60  -1.28961e+66 -1.42485e+135  8.32981e+201   3.77692e+67  -1.02935e+67  -2.52549e+67   3.42588e+67   1.04131e+67   1.88764e+67  -1.48838e+66
  -2.77203e+60   3.16158e+60   6.12118e+60   2.35037e+68  9.15041e+135  7.61482e+202   2.14691e+68    2.0225e+67    2.9282e+67    1.8553e+68   9.47605e+66   1.92642e+67  -1.28822e+67
  -7.01105e+59   1.00198e+61   2.72925e+60   1.01761e+68   2.1619e+135  9.55941e+201   9.05175e+67   1.28608e+67    2.7863e+67   6.10372e+67  -7.37004e+66  -2.49505e+67  -2.29575e+66
   6.20215e+59   1.01336e+61  -4.30928e+60  -1.26661e+68   2.9976e+135 -1.26562e+202   1.14217e+68  -1.32129e+67  -2.48498e+67  -8.85986e+67  -7.19609e+66  -2.44218e+67   7.40545e+66
   1.15476e+60   7.95666e+60   -4.0527e+60  -1.33894e+68  3.16243e+135 -1.71886e+202   1.21512e+68   -1.4882e+67  -2.60715e+67  -9.29403e+67   9.90057e+66  -2.93492e+67   8.50855e+66
  -1.05559e+60   7.83116e+60   2.74472e+60   9.30834e+67  1.35714e+135  2.24765e+201   8.54832e+67   1.08583e+67   2.63078e+67   5.59173e+67   9.72661e+66  -3.00804e+67  -2.70304e+66
  -5.78745e+59   4.22184e+60   1.75325e+60   1.00659e+68   2.1718e+135  1.22581e+202   8.92208e+67    1.3233e+67   2.65628e+67   6.08627e+67  -5.50168e+66   2.38819e+67  -1.08631e+66
   4.49061e+59   4.30852e+60  -2.75902e+60  -1.35353e+68  3.83318e+135 -3.02112e+202   1.20363e+68  -1.69157e+67  -2.79013e+67  -9.05358e+67  -5.48354e+66   2.44053e+67   8.40513e+66
   9.33183e+59   2.60062e+60  -2.42962e+60  -1.43772e+68  4.61521e+135 -2.96856e+202   1.26709e+68  -1.88586e+67  -2.97961e+67   -9.5117e+67   1.03247e+67   1.94384e+67   9.49409e+66
  -9.16652e+59   2.51269e+60   1.84998e+60    9.0813e+67  1.76769e+135  4.44552e+201   8.04942e+67   1.09609e+67   2.43388e+67   5.55132e+67   1.03066e+67    1.8715e+67  -1.48838e+66
  -3.16905e+49   2.09411e+61   1.36381e+61   2.38602e+68  9.18529e+135  8.90565e+202   2.18508e+68   2.13486e+67   2.69902e+67   1.90263e+68  -6.72354e+66  -2.32668e+67  -1.20334e+66
  -1.42609e+49   2.02112e+61   3.72051e+60  -2.38475e+66 -1.77935e+135  1.78495e+202   4.22497e+67  -1.20682e+67  -2.86222e+67   3.83057e+67  -6.62309e+66  -2.28523e+67  -1.35761e+64
  -3.79408e+59   1.97748e+61   3.71961e+60  -2.12229e+66 -1.80087e+135  1.76979e+202   4.24897e+67  -1.20077e+67  -2.83075e+67   3.81929e+67   7.43982e+66  -2.33469e+67  -7.71378e+65
  -1.11068e+60    2.0498e+61   1.35589e+61   2.41552e+68  9.55056e+135  9.62041e+202     2.209e+68   2.20294e+67   2.79251e+67   1.91598e+68   7.33936e+66  -2.36778e+67  -4.61461e+66
   -2.0005e+49   1.22334e+61   1.01229e+61   2.53186e+68  1.17688e+136  1.48083e+203   2.28767e+68   3.00303e+67   2.95266e+67   1.93629e+68  -5.22962e+66   2.49059e+67  -1.45802e+66
  -8.17074e+48    1.1482e+61   2.71025e+60  -1.24077e+66 -1.89218e+135  1.77669e+202   4.35169e+67  -1.06232e+67  -2.91872e+67   3.85697e+67  -5.06408e+66   2.53204e+67   5.39703e+64
  -3.44994e+59   1.11438e+61   2.71385e+60  -4.17231e+65 -1.88954e+135  1.63127e+202   4.34709e+67  -1.04332e+67  -2.85726e+67   3.85886e+67   6.53032e+66   2.52851e+67   -6.9399e+65
  -9.47903e+59   1.18842e+61   1.00256e+61   2.56662e+68  1.22757e+136  1.55623e+203   2.31516e+68   3.08326e+67   3.07534e+67   1.95076e+68   6.36479e+66   2.49531e+67  -4.82498e+66
  -1.42609e+49   2.02112e+61   3.72051e+60   1.02862e+68  2.29451e+135  1.22895e+202   9.10277e+67   1.22194e+67    2.8049e+67   6.25933e+67  -6.62309e+66  -2.29109e+67  -1.35761e+64
   3.60544e+48   2.03233e+61  -6.20012e+60   -1.3782e+68  4.34619e+135 -3.63537e+202    1.2103e+68   -2.1261e+67   -2.7493e+67  -8.90665e+67  -6.63963e+66  -2.31343e+67   1.18583e+66
   3.47457e+59   1.98858e+61  -6.12207e+60  -1.41268e+68  4.58576e+135 -4.04571e+202   1.23979e+68  -2.20565e+67  -2.83303e+67  -9.08812e+67   7.33855e+66  -2.35547e+67   3.10493e+66
  -3.79408e+59   1.97748e+61   3.71961e+60   1.02163e+68  2.21823e+135  1.11869e+202    9.0659e+67   1.20582e+67   2.78461e+67   6.22587e+67   7.35509e+66  -2.33933e+67  -7.71378e+65
  -8.17074e+48    1.1482e+61   2.71025e+60   1.08152e+68  2.60582e+135  1.68298e+202   9.53471e+67   1.46213e+67   2.97167e+67   6.38142e+67  -5.06408e+66    2.5148e+67   5.39703e+64
   4.12735e+48   1.16057e+61  -4.71132e+60  -1.46088e+68  5.12136e+135  -5.0595e+202    1.2736e+68  -2.61598e+67  -2.89542e+67  -9.09745e+67  -5.12892e+66   2.49246e+67   1.58289e+66
   2.52233e+59   1.12632e+61  -4.60574e+60  -1.49898e+68  5.43158e+135 -5.32429e+202   1.30529e+68  -2.70388e+67  -2.99994e+67  -9.28594e+67    6.3562e+66   2.49722e+67   3.47707e+66
  -3.44994e+59   1.11438e+61   2.71385e+60   1.07056e+68  2.51549e+135  1.47558e+202   9.45807e+67   1.43683e+67   2.92976e+67   6.33901e+67   6.42104e+66   2.51344e+67   -6.9399e+65
  -1.11068e+60    2.0498e+61   1.35589e+61   2.32584e+68  7.94846e+135  6.15815e+202   2.14819e+68   1.72716e+67   2.58556e+67   1.89457e+68  -7.13566e+66  -2.39191e+67  -6.76957e+66
  -3.79408e+59   1.97748e+61   3.71961e+60  -1.90574e+66 -1.80372e+135  1.73786e+202   4.25129e+67  -1.18874e+67  -2.82575e+67   3.82392e+67  -6.88887e+66  -2.35857e+67  -8.80891e+65
  -7.56472e+59   1.83941e+61   3.71141e+60  -2.84086e+66 -1.84229e+135  1.76655e+202   4.30158e+67  -1.21032e+67  -2.78492e+67   3.71115e+67   8.91961e+66  -2.48033e+67  -1.37921e+66
  -2.30978e+60   1.91012e+61   1.33392e+61   2.39875e+68  8.83615e+135  7.82361e+202    2.2069e+68   1.89541e+67   2.81622e+67   1.92759e+68   8.67282e+66  -2.48936e+67  -9.21023e+66
  -9.47903e+59   1.18842e+61   1.00256e+61   2.42737e+68  9.71846e+135  1.03733e+203   2.21817e+68   2.34182e+67     2.754e+67   1.91779e+68   -5.6764e+66   2.47524e+67  -7.36872e+66
  -3.44994e+59   1.11438e+61   2.71385e+60  -1.48375e+66 -1.86729e+135  1.81952e+202   4.32376e+67  -1.10134e+67  -2.88187e+67   3.83484e+67  -5.24019e+66    2.5089e+67  -5.19139e+65
  -7.01105e+59   1.00198e+61   2.72925e+60   -7.7356e+65  -1.8621e+135  1.48008e+202    4.3159e+67  -1.08495e+67  -2.75363e+67   3.76122e+67    8.8339e+66    2.5259e+67  -1.01099e+66
  -2.03587e+60   1.07311e+61   9.76097e+60   2.51567e+68   1.0955e+136  1.15731e+203   2.28759e+68   2.54557e+67   3.06961e+67   1.95415e+68   8.39769e+66   2.51624e+67  -9.77768e+66
  -3.79408e+59   1.97748e+61   3.71961e+60    1.0238e+68  2.22869e+135  1.10236e+202   9.08454e+67   1.21784e+67   2.78961e+67    6.2305e+67  -6.97359e+66  -2.36321e+67  -8.80891e+65
   3.47457e+59   1.98858e+61  -6.12207e+60  -1.31991e+68  3.64915e+135 -2.34215e+202   1.17356e+68  -1.71263e+67  -2.61894e+67  -8.86751e+67  -6.95993e+66   -2.3793e+67   5.08431e+66
   7.86727e+59   1.85061e+61  -5.91531e+60  -1.42748e+68  4.38539e+135 -3.53843e+202   1.26458e+68  -1.96088e+67  -2.86367e+67  -9.45026e+67    8.7388e+66  -2.48188e+67   6.56633e+66
  -7.56472e+59   1.83941e+61   3.71141e+60   9.95302e+67  1.97825e+135  7.92956e+201   8.90393e+67   1.15209e+67   2.72737e+67   6.07356e+67   8.72513e+66   -2.4782e+67  -1.37921e+66
  -3.44994e+59   1.11438e+61   2.71385e+60    1.0599e+68  2.45508e+135  1.50441e+202   9.36947e+67   1.37881e+67   2.90515e+67   6.31499e+67  -5.34948e+66   2.49383e+67  -5.19139e+65
   2.52233e+59   1.12632e+61  -4.60574e+60  -1.38308e+68  4.23103e+135 -3.65563e+202   1.22058e+68  -2.08939e+67   -2.7325e+67  -9.00895e+67  -5.43253e+66   2.47757e+67   6.36834e+66
   6.20215e+59   1.01336e+61  -4.30928e+60   -1.4973e+68  5.10404e+135 -4.12533e+202   1.31586e+68  -2.35296e+67  -3.01733e+67  -9.60269e+67   8.49235e+66    2.5088e+67   7.83111e+66
  -7.01105e+59   1.00198e+61   2.72925e+60   1.02373e+68  2.17222e+135  9.11902e+201   9.11486e+67   1.29536e+67   2.80043e+67   6.14154e+67   8.57541e+66    2.5128e+67  -1.01099e+66
  -2.30978e+60   1.91012e+61   1.33392e+61   2.29911e+68  7.05488e+135  3.78762e+202   2.14019e+68   1.36315e+67   2.58627e+67   1.90417e+68  -8.45546e+66  -2.54646e+67  -9.90381e+66
  -7.56472e+59   1.83941e+61   3.71141e+60  -1.73565e+66 -1.85434e+135  1.60789e+202    4.3097e+67  -1.14715e+67  -2.75941e+67     3.733e+67  -8.07723e+66  -2.53699e+67   -1.9217e+66
  -1.12111e+60   1.58938e+61   3.66699e+60  -6.18452e+66 -1.89471e+135  1.94437e+202   4.39654e+67  -1.24982e+67  -2.76638e+67   3.39774e+67   9.88221e+66  -2.78085e+67  -2.20921e+66
  -3.60831e+60    1.6576e+61    1.3077e+61   2.27417e+68  6.75908e+135  4.00983e+202   2.12037e+68    1.3056e+67   2.62443e+67   1.88117e+68   9.50397e+66  -2.76224e+67  -1.11038e+67
  -2.03587e+60   1.07311e+61   9.76097e+60   2.35601e+68  8.10838e+135  6.67036e+202   2.17714e+68   1.68147e+67   2.70116e+67   1.91774e+68   -7.7137e+66   2.46253e+67  -9.20087e+66
  -7.01105e+59   1.00198e+61   2.72925e+60  -6.16738e+65 -1.80769e+135  1.62039e+202   4.25215e+67  -1.07652e+67  -2.75001e+67   3.76486e+67  -7.11663e+66   2.47273e+67  -1.00805e+66
  -1.05559e+60   7.83116e+60   2.74472e+60  -3.10105e+66 -1.63824e+135  1.21777e+202   4.05938e+67  -1.13385e+67  -2.65422e+67   3.47796e+67   1.01666e+67   2.27306e+67  -1.29183e+66
  -3.28908e+60   8.50265e+60   9.54017e+60   2.35046e+68  8.31685e+135  5.62955e+202   2.16633e+68   1.66867e+67   2.84149e+67   1.89945e+68   9.56952e+66   2.29058e+67  -1.03853e+67
  -7.56472e+59   1.83941e+61   3.71141e+60   1.00635e+68  2.03862e+135  7.50522e+201   8.99381e+67   1.21526e+67   2.75287e+67    6.0954e+67  -8.27171e+66  -2.53485e+67   -1.9217e+66
   7.86727e+59   1.85061e+61  -5.91531e+60  -1.30385e+68  3.13282e+135 -1.25914e+202    1.1776e+68  -1.29223e+67  -2.57836e+67  -9.16789e+67  -8.14522e+66  -2.53816e+67   6.18997e+66
   1.35216e+60   1.60141e+61  -5.73752e+60  -1.38901e+68  3.57994e+135 -2.12081e+202   1.25353e+68  -1.48876e+67  -2.74286e+67  -9.65846e+67   9.74071e+66  -2.77963e+67   6.92704e+66
  -1.12111e+60   1.58938e+61   3.66699e+60   9.41169e+67  1.52901e+135  3.62145e+201   8.56095e+67   1.06483e+67   2.63447e+67   5.71239e+67   9.61421e+66  -2.77017e+67  -2.20921e+66
  -7.01105e+59   1.00198e+61   2.72925e+60    1.0253e+68  2.22954e+135  1.15731e+202   9.10103e+67   1.30379e+67   2.80405e+67   6.14517e+67  -7.37513e+66   2.45964e+67  -1.00805e+66
   6.20215e+59   1.01336e+61  -4.30928e+60  -1.33628e+68  3.49522e+135 -2.36503e+202   1.19838e+68  -1.48194e+67  -2.64575e+67  -9.23509e+67  -7.20073e+66   2.45649e+67   7.31645e+66
   1.15476e+60   7.95666e+60   -4.0527e+60  -1.41606e+68  4.11245e+135 -2.16349e+202   1.26253e+68  -1.66606e+67  -2.78513e+67  -9.70943e+67   9.89592e+66   2.26006e+67   8.04395e+66
  -1.05559e+60   7.83116e+60   2.74472e+60   9.65231e+67  1.94342e+135  6.16747e+201   8.58679e+67   1.16517e+67   2.71016e+67   5.77698e+67   9.72152e+66   2.26927e+67  -1.29183e+66
   -4.5525e+49   3.21545e+61   1.72256e+61   2.36474e+68  8.26355e+135  6.63332e+202   2.18303e+68   1.71929e+67   2.67279e+67   1.92553e+68   -7.7519e+66  -2.43304e+67  -9.95741e+65
  -2.18606e+49   3.14306e+61   4.74704e+60  -1.27814e+66 -1.88446e+135  1.84579e+202   4.34292e+67  -1.23272e+67   -2.8138e+67    3.9187e+67  -7.69299e+66   -2.4216e+67   -1.1994e+65
  -3.91086e+59   3.09304e+61   4.73923e+60  -1.67669e+66 -1.88948e+135  1.85837e+202   4.35004e+67  -1.24192e+67  -2.80829e+67   3.88254e+67   8.15242e+66   -2.4476e+67  -4.44775e+65
  -1.21505e+60   3.16505e+61   1.71609e+61    2.3866e+68  8.53208e+135  7.14792e+202    2.2006e+68   1.76974e+67   2.73794e+67   1.93583e+68   8.09352e+66  -2.45379e+67   -3.3143e+66
  -3.16905e+49   2.09411e+61   1.36381e+61   2.47628e+68  1.02578e+136  1.09894e+203   2.25968e+68   2.34278e+67    2.9073e+67   1.95127e+68  -6.72457e+66   2.49196e+67  -1.20324e+66
  -1.42609e+49   2.02112e+61   3.72051e+60  -3.55034e+65 -1.91032e+135  1.84151e+202   4.37086e+67  -1.16013e+67  -2.81538e+67   3.94001e+67  -6.62416e+66    2.5034e+67  -1.34908e+64
  -3.79408e+59   1.97748e+61   3.71961e+60  -3.94018e+65 -1.91284e+135  1.77659e+202   4.37379e+67  -1.16103e+67  -2.79087e+67   3.91249e+67   7.43874e+66   2.52041e+67  -3.34052e+65
  -1.11068e+60    2.0498e+61   1.35589e+61    2.5014e+68  1.05992e+136  1.13492e+203   2.27971e+68   2.40075e+67   2.99068e+67   1.96225e+68   7.33834e+66   2.51416e+67  -3.49129e+66
  -2.18606e+49   3.14306e+61   4.74704e+60   1.02758e+68  2.18042e+135   9.9488e+201   9.15353e+67    1.1681e+67   2.78813e+67   6.31953e+67  -7.69299e+66   -2.4212e+67   -1.1994e+65
   2.23547e+48   3.15389e+61  -7.73134e+60  -1.34899e+68  3.87334e+135 -2.72854e+202   1.19684e+68   -1.7913e+67  -2.69625e+67  -9.00234e+67  -7.69313e+66  -2.42838e+67   7.67413e+65
   4.29763e+59   3.10387e+61  -7.68151e+60  -1.38345e+68  4.11635e+135 -3.12664e+202   1.22568e+68  -1.87082e+67   -2.7758e+67  -9.18787e+67   8.09242e+66  -2.45087e+67   2.46035e+66
  -3.91086e+59   3.09304e+61   4.73923e+60    1.0188e+68  2.10992e+135  9.12461e+201   9.09379e+67   1.14786e+67   2.76786e+67   6.27232e+67   8.09255e+66  -2.44575e+67  -4.44775e+65
  -1.42609e+49   2.02112e+61   3.72051e+60   1.04891e+68   2.3183e+135  1.23376e+202   9.31876e+67   1.26864e+67   2.85174e+67   6.36877e+67  -6.62416e+66   2.49754e+67  -1.34908e+64
   3.60544e+48   2.03233e+61  -6.20012e+60  -1.43119e+68  4.68615e+135 -4.17003e+202   1.25686e+68  -2.24831e+67  -2.87159e+67  -9.19204e+67  -6.64063e+66   2.49036e+67   1.18587e+66
   3.47457e+59   1.98858e+61  -6.12207e+60  -1.46655e+68  4.95519e+135 -4.35897e+202   1.28656e+68  -2.32989e+67  -2.95733e+67  -9.37824e+67   7.33755e+66   2.51063e+67   2.85654e+66
  -3.79408e+59   1.97748e+61   3.71961e+60   1.03891e+68   2.2366e+135  1.08034e+202    9.2503e+67   1.24555e+67    2.8245e+67   6.31908e+67   7.35402e+66   2.51577e+67  -3.34052e+65
  -1.21505e+60   3.16505e+61   1.71609e+61   2.33174e+68  7.54633e+135  4.99705e+202   2.16388e+68   1.48058e+67   2.61135e+67   1.92255e+68  -8.05339e+66   -2.4807e+67  -5.19559e+66
  -3.91086e+59   3.09304e+61   4.73923e+60  -1.01326e+66 -1.89667e+135  1.77615e+202   4.35626e+67  -1.20499e+67  -2.79298e+67   3.89665e+67  -7.90343e+66  -2.47436e+67  -8.03562e+65
  -7.75136e+59   2.93863e+61   4.70794e+60  -2.73466e+66 -1.89789e+135  1.84698e+202   4.36505e+67  -1.24472e+67  -2.79527e+67   3.76652e+67   9.09187e+66  -2.53065e+67  -1.03639e+66
  -2.48285e+60   3.00967e+61   1.69749e+61   2.38278e+68  8.17335e+135  6.21072e+202   2.20461e+68   1.59835e+67   2.76656e+67   1.94629e+68    8.9419e+66  -2.52475e+67  -6.84179e+66
  -1.11068e+60    2.0498e+61   1.35589e+61   2.41175e+68  8.97243e+135  8.33079e+202   2.21795e+68   1.92514e+67    2.7838e+67   1.94086e+68  -7.13836e+66   2.49003e+67    -5.646e+66
  -3.79408e+59   1.97748e+61   3.71961e+60  -1.75629e+65 -1.89219e+135  1.79958e+202   4.34997e+67   -1.1489e+67  -2.78583e+67   3.91717e+67  -6.89177e+66   2.49653e+67  -4.43641e+65
  -7.56472e+59   1.83941e+61   3.71141e+60  -1.04659e+66  -1.9013e+135  1.65152e+202   4.36164e+67    -1.169e+67  -2.74351e+67   3.80785e+67   8.91671e+66   2.55387e+67  -6.73402e+65
  -2.30978e+60   1.91012e+61   1.33392e+61   2.47039e+68  9.74476e+135  8.77096e+202   2.26459e+68   2.06046e+67   2.98154e+67   1.96619e+68   8.67012e+66   2.55945e+67  -7.27054e+66
  -3.91086e+59   3.09304e+61   4.73923e+60   1.02544e+68  2.14878e+135  9.16538e+201   9.14683e+67   1.18478e+67   2.78317e+67   6.28643e+67   -7.9633e+66  -2.47251e+67  -8.03562e+65
   4.29763e+59   3.10387e+61  -7.68151e+60  -1.31528e+68  3.42903e+135 -1.88995e+202   1.17773e+68  -1.50768e+67  -2.61848e+67  -9.02662e+67  -7.94091e+66  -2.47759e+67   3.65716e+66
   9.26366e+59   2.94961e+61  -7.55513e+60  -1.41182e+68  4.10881e+135 -2.96361e+202   1.25791e+68  -1.73046e+67  -2.83566e+67  -9.55205e+67   8.99474e+66  -2.52722e+67   4.88703e+66
  -7.75136e+59   2.93863e+61   4.70794e+60   9.97878e+67  1.94605e+135  7.10212e+201   8.95073e+67   1.12118e+67   2.72517e+67   6.13242e+67   8.97235e+66  -2.52322e+67  -1.03639e+66
  -3.79408e+59   1.97748e+61   3.71961e+60    1.0411e+68   2.2707e+135  1.17653e+202   9.25642e+67   1.25768e+67   2.82954e+67   6.32375e+67  -6.97649e+66   2.49189e+67  -4.43641e+65
   3.47457e+59   1.98858e+61  -6.12207e+60  -1.37377e+68  4.00789e+135 -3.13788e+202    1.2192e+68  -1.83685e+67  -2.74324e+67  -9.15762e+67  -6.96263e+66    2.4868e+67   4.83563e+66
   7.86727e+59   1.85061e+61  -5.91531e+60  -1.46969e+68  4.70278e+135 -3.44097e+202   1.29989e+68  -2.05821e+67  -2.96108e+67  -9.67765e+67   8.73609e+66   2.55198e+67   6.04931e+66
  -7.56472e+59   1.83941e+61   3.71141e+60   1.01324e+68  2.04535e+135  7.58457e+201   9.06713e+67   1.19341e+67   2.76878e+67   6.17026e+67   8.72223e+66     2.556e+67  -6.73402e+65
  -2.48285e+60   3.00967e+61   1.69749e+61   2.32052e+68  7.04011e+135  3.50774e+202   2.16352e+68   1.27316e+67   2.62289e+67   1.93091e+68  -8.87714e+66  -2.58414e+67  -8.37783e+66
  -7.75136e+59   2.93863e+61   4.70794e+60  -1.53528e+66 -1.91748e+135  1.66395e+202   4.38159e+67  -1.17486e+67  -2.76759e+67   3.78892e+67  -8.65172e+66  -2.58979e+67  -1.82055e+66
  -1.14548e+60   2.66888e+61    4.6252e+60  -4.63502e+66 -1.89167e+135  1.89051e+202   4.37396e+67   -1.2464e+67  -2.78285e+67   3.56574e+67   9.74008e+66  -2.65109e+67  -2.02518e+66
  -3.80957e+60   2.73845e+61   1.66908e+61   2.30674e+68  6.92072e+135  3.94611e+202    2.1515e+68   1.24135e+67   2.64735e+67   1.91787e+68   9.51465e+66   -2.6261e+67  -9.26003e+66
  -2.30978e+60   1.91012e+61   1.33392e+61   2.37079e+68  7.97486e+135  5.98657e+202   2.19617e+68   1.52848e+67   2.75171e+67   1.94278e+68  -8.45888e+66   2.50235e+67  -7.96507e+66
  -7.56472e+59   1.83941e+61   3.71141e+60   6.04956e+64 -1.85423e+135  1.64354e+202   4.30608e+67  -1.10573e+67  -2.71796e+67   3.82974e+67  -8.08079e+66   2.49721e+67  -1.21655e+66
  -1.12111e+60   1.58938e+61   3.66699e+60  -1.69307e+66  -1.7925e+135  1.39291e+202   4.23718e+67  -1.14619e+67  -2.66273e+67   3.63962e+67   9.87865e+66   2.47346e+67  -1.41849e+66
  -3.60831e+60    1.6576e+61    1.3077e+61   2.37025e+68  8.09578e+135  5.06276e+202   2.19283e+68   1.52721e+67   2.84614e+67   1.93291e+68   9.50056e+66   2.49768e+67  -8.83566e+66
  -7.75136e+59   2.93863e+61   4.70794e+60   1.00987e+68  2.00816e+135  6.58641e+201      9.05e+67   1.19104e+67   2.75285e+67   6.15482e+67  -8.77123e+66  -2.58237e+67  -1.82055e+66
   9.26366e+59   2.94961e+61  -7.55513e+60  -1.32419e+68  3.20177e+135 -1.26615e+202   1.19721e+68  -1.25816e+67  -2.63345e+67   -9.3503e+67  -8.70836e+66  -2.58623e+67   4.86226e+66
   1.51066e+60   2.68027e+61  -7.43322e+60  -1.38691e+68  3.60573e+135  -2.0675e+202   1.25018e+68  -1.40291e+67  -2.76251e+67  -9.70372e+67   9.65006e+66  -2.64916e+67   5.37489e+66
  -1.14548e+60   2.66888e+61    4.6252e+60   9.65683e+67  1.71516e+135  5.05365e+201   8.72369e+67   1.08907e+67   2.66656e+67    5.9012e+67   9.58719e+66  -2.63724e+67  -2.02518e+66
  -7.56472e+59   1.83941e+61   3.71141e+60   1.02432e+68  2.16497e+135  1.01156e+202   9.12538e+67   1.25668e+67   2.79432e+67   6.19215e+67  -8.27527e+66   2.49934e+67  -1.21655e+66
   7.86727e+59   1.85061e+61  -5.91531e+60  -1.34607e+68  3.46993e+135 -2.14864e+202   1.21033e+68  -1.38958e+67  -2.67579e+67  -9.39529e+67  -8.14874e+66   2.49569e+67   5.67249e+66
   1.35216e+60   1.60141e+61  -5.73752e+60  -1.40259e+68  3.85634e+135 -1.84835e+202   1.25762e+68  -1.52002e+67   -2.7742e+67  -9.73165e+67   9.73718e+66   2.47253e+67   6.17837e+66
  -1.12111e+60   1.58938e+61   3.66699e+60   9.86084e+67  1.93454e+135  5.60739e+201   8.82557e+67   1.16846e+67   2.73812e+67   5.95427e+67   9.61065e+66   2.48414e+67  -1.41849e+66
  -6.12866e+49   4.59423e+61   2.08827e+61   2.36941e+68  7.81521e+135  5.37397e+202   2.19831e+68   1.47715e+67   2.68347e+67   1.95335e+68   -8.4366e+66  -2.52269e+67  -8.57992e+65
  -3.09332e+49   4.52184e+61   5.78305e+60  -7.22457e+65 -1.96311e+135  1.87675e+202   4.43129e+67  -1.23918e+67  -2.80106e+67   3.96799e+67  -8.40083e+66  -2.52274e+67  -2.18945e+65
   -3.9203e+59   4.46795e+61     5.769e+60  -1.24034e+66 -1.96005e+135  1.90109e+202   4.42899e+67  -1.25113e+67   -2.8042e+67    3.9313e+67   8.67305e+66  -2.53237e+67  -3.38975e+65
  -1.27987e+60   4.54012e+61   2.08277e+61   2.38345e+68   7.9902e+135    5.724e+202   2.20948e+68   1.50956e+67   2.72469e+67   1.96003e+68   8.63728e+66  -2.52944e+67  -2.43717e+66
   -4.5525e+49   3.21545e+61   1.72256e+61   2.45155e+68  9.30876e+135  8.51044e+202   2.25372e+68   1.91939e+67   2.87313e+67    1.9723e+68  -7.75267e+66   2.51777e+67  -9.95585e+65
  -2.18606e+49   3.14306e+61   4.74704e+60    -9.528e+64 -1.94699e+135  1.87086e+202   4.41248e+67   -1.2055e+67   -2.7865e+67   3.98247e+67   -7.6938e+66   2.51772e+67  -1.19956e+65
  -3.91086e+59   3.09304e+61   4.73923e+60  -4.10958e+65 -1.95167e+135  1.84172e+202   4.41796e+67  -1.21278e+67  -2.77908e+67   3.95077e+67   8.15162e+66   2.53991e+67  -2.38386e+65
  -1.21505e+60   3.16505e+61   1.71609e+61   2.46736e+68  9.51294e+135  8.63592e+202    2.2664e+68   1.95587e+67   2.92432e+67   1.97934e+68   8.09275e+66    2.5428e+67   -2.5537e+66
  -3.09332e+49   4.52184e+61   5.78305e+60   1.02992e+68   2.1214e+135  8.53418e+201   9.21193e+67   1.15424e+67   2.78357e+67   6.36141e+67  -8.40083e+66  -2.51846e+67  -2.18945e+65
  -1.51351e+47   4.53242e+61  -9.31434e+60  -1.34615e+68  3.63855e+135 -2.22438e+202   1.20344e+68  -1.56684e+67  -2.69968e+67    -9.195e+67  -8.39912e+66  -2.52344e+67   4.28959e+65
   4.93877e+59   4.47854e+61  -9.28688e+60   -1.3735e+68  3.83506e+135 -2.53421e+202   1.22597e+68  -1.62995e+67  -2.76237e+67  -9.34268e+67   8.63755e+66  -2.53176e+67   1.79024e+66
   -3.9203e+59   4.46795e+61     5.769e+60   1.02202e+68   2.0662e+135  8.03014e+201   9.15366e+67   1.13599e+67   2.76574e+67   6.31842e+67   8.63585e+66  -2.52699e+67  -3.38975e+65
  -2.18606e+49   3.14306e+61   4.74704e+60    1.0394e+68  2.20341e+135  1.01701e+202   9.27373e+67   1.19533e+67   2.81543e+67   6.38329e+67   -7.6938e+66   2.51812e+67  -1.19956e+65
   2.23547e+48   3.15389e+61  -7.73134e+60   -1.4137e+68  4.33623e+135  -3.4123e+202   1.25097e+68  -1.94051e+67  -2.84558e+67  -9.35087e+67   -7.6939e+66   2.51314e+67   7.67235e+65
   4.29763e+59   3.10387e+61  -7.68151e+60  -1.44082e+68  4.53321e+135 -3.52171e+202   1.27383e+68  -2.00311e+67   -2.9082e+67  -9.49691e+67   8.09165e+66   2.53699e+67   2.11036e+66
  -3.91086e+59   3.09304e+61   4.73923e+60   1.03146e+68   2.1374e+135  9.01875e+201   9.22048e+67     1.177e+67   2.79707e+67   6.34054e+67   8.09175e+66   2.54176e+67  -2.38386e+65
  -1.27987e+60   4.54012e+61   2.08277e+61   2.34993e+68  7.37909e+135  4.34061e+202   2.18729e+68   1.33467e+67   2.64733e+67   1.95173e+68  -8.63256e+66  -2.55822e+67  -4.12946e+66
   -3.9203e+59   4.46795e+61     5.769e+60  -5.68416e+65  -1.9701e+135  1.80591e+202   4.43894e+67  -1.21313e+67   -2.7887e+67   3.94499e+67  -8.54428e+66  -2.56106e+67  -8.81163e+65
  -7.76848e+59   4.30363e+61   5.72002e+60   -2.1556e+66 -1.95528e+135   1.8941e+202    4.4271e+67  -1.24976e+67  -2.80358e+67   3.83778e+67   9.26883e+66  -2.57521e+67  -9.95925e+65
  -2.59097e+60   4.37523e+61   2.06647e+61   2.38308e+68  7.79525e+135  5.20871e+202   2.21349e+68   1.41116e+67   2.74557e+67    1.9674e+68   9.18055e+66  -2.56466e+67  -5.30272e+66
  -1.21505e+60   3.16505e+61   1.71609e+61   2.41254e+68  8.52667e+135  6.96276e+202   2.22883e+68   1.66687e+67    2.7978e+67   1.96607e+68  -8.05537e+66   2.51589e+67  -4.43481e+66
  -3.91086e+59   3.09304e+61   4.73923e+60   2.53436e+65 -1.93147e+135    1.808e+202   4.39493e+67   -1.1758e+67  -2.76375e+67    3.9649e+67  -7.90549e+66   2.51315e+67  -5.97319e+65
  -7.75136e+59   2.93863e+61   4.70794e+60  -7.93056e+65 -1.94823e+135  1.72488e+202   4.41459e+67  -1.19995e+67  -2.75046e+67   3.87111e+67   9.08981e+66   2.58049e+67  -7.10551e+65
  -2.48285e+60   3.00967e+61   1.69749e+61   2.45044e+68  9.00359e+135  7.05352e+202   2.25927e+68   1.75433e+67    2.9227e+67   1.98273e+68   8.93992e+66   2.59083e+67  -5.59243e+66
   -3.9203e+59   4.46795e+61     5.769e+60   1.02873e+68  2.10344e+135  7.93616e+201   9.20842e+67   1.17399e+67   2.78125e+67   6.33211e+67  -8.58148e+66  -2.55569e+67  -8.81163e+65
   4.93877e+59   4.47854e+61  -9.28688e+60  -1.32617e+68  3.35114e+135 -1.67099e+202   1.19316e+68  -1.37719e+67  -2.65316e+67  -9.23141e+67  -8.56659e+66  -2.56043e+67   2.42093e+66
   1.03374e+60   4.31431e+61  -9.21982e+60    -1.398e+68  3.86999e+135 -2.47034e+202   1.25196e+68  -1.54294e+67  -2.81525e+67  -9.62184e+67   9.21576e+66  -2.57163e+67   3.39314e+66
  -7.76848e+59   4.30363e+61   5.72002e+60   1.00699e+68  1.95995e+135  6.87503e+201   9.04451e+67   1.12381e+67   2.73474e+67   6.21135e+67   9.20087e+66  -2.56595e+67  -9.95925e+65
  -3.91086e+59   3.09304e+61   4.73923e+60   1.03811e+68  2.20373e+135  1.02148e+202   9.25899e+67   1.21397e+67    2.8124e+67   6.35467e+67  -7.96536e+66     2.515e+67  -5.97319e+65
   4.29763e+59   3.10387e+61  -7.68151e+60  -1.37266e+68  3.84619e+135 -2.69115e+202   1.22457e+68  -1.64001e+67   -2.7509e+67  -9.33568e+67  -7.94293e+66   2.51027e+67   3.30668e+66
   9.26366e+59   2.94961e+61  -7.55513e+60  -1.44289e+68  4.33535e+135  -2.8536e+202   1.28389e+68  -1.80207e+67  -2.90736e+67  -9.71943e+67   8.99272e+66   2.58226e+67   4.26593e+66
  -7.75136e+59   2.93863e+61   4.70794e+60   1.01729e+68   2.0271e+135  6.97209e+201   9.12237e+67   1.16595e+67   2.76998e+67   6.23701e+67   8.97029e+66   2.58792e+67  -7.10551e+65
  -2.59097e+60   4.37523e+61   2.06647e+61   2.34434e+68  7.07442e+135   3.3491e+202   2.18826e+68   1.21628e+67   2.65618e+67    1.9571e+68  -9.14481e+66  -2.62575e+67  -7.37179e+66
  -7.76848e+59   4.30363e+61   5.72002e+60  -1.19418e+66 -1.97951e+135  1.71486e+202   4.45077e+67  -1.19222e+67   -2.7814e+67   3.85419e+67  -9.01285e+66  -2.63615e+67  -1.85618e+66
  -1.15033e+60   4.02205e+61   5.61549e+60  -3.03777e+66 -1.91266e+135  1.86284e+202   4.38394e+67  -1.23476e+67  -2.79144e+67   3.72243e+67   9.66773e+66  -2.57118e+67  -2.01374e+66
  -3.93585e+60    4.0928e+61     2.037e+61    2.3367e+68   7.0592e+135  3.90897e+202   2.18043e+68   1.19865e+67   2.67105e+67   1.94973e+68   9.53577e+66  -2.54911e+67  -8.07056e+66
  -2.48285e+60   3.00967e+61   1.69749e+61   2.38821e+68  7.90623e+135   5.5269e+202   2.21651e+68   1.42931e+67    2.7791e+67   1.96737e+68  -8.87953e+66   2.53144e+67  -7.12916e+66
  -7.75136e+59   2.93863e+61   4.70794e+60   4.07063e+65 -1.90527e+135  1.69611e+202   4.36513e+67  -1.13006e+67  -2.72276e+67   3.89353e+67  -8.65424e+66   2.52135e+67  -1.49508e+66
  -1.14548e+60   2.66888e+61    4.6252e+60  -6.25216e+65 -1.92305e+135   1.5259e+202   4.38571e+67  -1.15388e+67  -2.69031e+67   3.78167e+67   9.73756e+66   2.61188e+67  -1.65054e+66
  -3.80957e+60   2.73845e+61   1.66908e+61   2.38854e+68  7.93041e+135  4.62523e+202   2.21632e+68   1.43007e+67   2.83613e+67   1.96192e+68   9.51226e+66   2.63348e+67   -7.8186e+66
  -7.76848e+59   4.30363e+61   5.72002e+60    1.0166e+68  2.00239e+135  6.01515e+201   9.12821e+67   1.18135e+67   2.75692e+67   6.22776e+67  -9.08082e+66  -2.62689e+67  -1.85618e+66
   1.03374e+60   4.31431e+61  -9.21982e+60  -1.33902e+68  3.24453e+135 -1.27326e+202   1.21182e+68  -1.22745e+67  -2.67912e+67  -9.48359e+67  -9.06115e+66  -2.63255e+67   3.74294e+66
   1.63106e+60   4.03286e+61  -9.13219e+60   -1.3788e+68  3.55932e+135 -1.93153e+202   1.24305e+68  -1.31927e+67  -2.76611e+67  -9.70265e+67   9.60811e+66    -2.569e+67   4.14849e+66
  -1.15033e+60   4.02205e+61   5.61549e+60   9.89174e+67  1.87002e+135  6.30646e+201   8.89642e+67   1.11805e+67   2.69845e+67   6.07524e+67   9.58844e+66  -2.55794e+67  -2.01374e+66
  -7.75136e+59   2.93863e+61   4.70794e+60   1.02929e+68  2.15182e+135  9.52157e+201   9.18839e+67   1.23585e+67   2.79767e+67   6.25943e+67  -8.77375e+66   2.52877e+67  -1.49508e+66
   9.26366e+59   2.94961e+61  -7.55513e+60  -1.35528e+68  3.46965e+135 -1.99289e+202   1.22058e+68  -1.32986e+67  -2.70518e+67  -9.51772e+67  -8.71093e+66   2.52325e+67   4.24111e+66
   1.51066e+60   2.68027e+61  -7.43322e+60  -1.39098e+68  3.66247e+135 -1.64252e+202   1.25243e+68  -1.41226e+67   -2.7719e+67  -9.72567e+67    9.6475e+66   2.61488e+67   4.64126e+66
  -1.14548e+60   2.66888e+61    4.6252e+60   1.00578e+68  1.95254e+135   5.2706e+201   9.03516e+67   1.18158e+67   2.75909e+67   6.11713e+67   9.58467e+66   2.62573e+67  -1.65054e+66
  -7.88607e+49   6.23699e+61   2.46038e+61   2.38507e+68  7.60205e+135  4.63209e+202   2.21999e+68   1.33111e+67   2.70342e+67   1.98162e+68  -8.88905e+66  -2.59442e+67  -7.70109e+65
  -4.14651e+49   6.16417e+61   6.82721e+60  -4.75459e+65 -2.03017e+135  1.90973e+202   4.50599e+67  -1.24101e+67  -2.81156e+67   4.00502e+67  -8.86726e+66  -2.60252e+67  -2.94044e+65
  -3.89106e+59   6.10806e+61    6.8086e+60  -9.05004e+65 -2.02393e+135   1.9394e+202   4.49972e+67  -1.25092e+67  -2.81618e+67    3.9766e+67   9.03758e+66   -2.6021e+67  -3.40319e+65
  -1.32016e+60   6.18074e+61   2.45551e+61   2.39383e+68  7.71447e+135  4.87942e+202   2.22687e+68   1.35132e+67   2.72892e+67    1.9858e+68   9.01579e+66  -2.59228e+67  -1.89259e+66
  -6.12866e+49   4.59423e+61   2.08827e+61   2.44949e+68  8.79685e+135  7.04624e+202   2.26281e+68    1.6618e+67   2.86828e+67   1.99648e+68  -8.43713e+66   2.55367e+67   -8.5788e+65
  -3.09332e+49   4.52184e+61   5.78305e+60   2.94779e+65 -1.98737e+135  1.87175e+202   4.45809e+67  -1.21573e+67  -2.77759e+67   4.02279e+67  -8.40137e+66   2.54557e+67  -2.18999e+65
   -3.9203e+59   4.46795e+61     5.769e+60  -1.23017e+64 -1.99357e+135   1.8508e+202   4.46494e+67  -1.22281e+67  -2.77586e+67   3.99745e+67   8.67251e+66   2.56763e+67  -2.64649e+65
  -1.27987e+60   4.54012e+61   2.08277e+61    2.4593e+68  8.91802e+135  7.06285e+202   2.27076e+68   1.68443e+67   2.89972e+67   2.00088e+68   8.63675e+66   2.57743e+67  -1.96519e+66
  -4.14651e+49   6.16417e+61   6.82721e+60   1.03572e+68  2.10231e+135  7.74949e+201   9.28701e+67   1.16009e+67     2.791e+67   6.40612e+67  -8.86726e+66   -2.5959e+67  -2.94044e+65
  -3.65831e+48   6.17459e+61   -1.0946e+61  -1.35373e+68  3.52047e+135  -1.9177e+202   1.21677e+68  -1.41468e+67  -2.72312e+67  -9.39949e+67  -8.86705e+66  -2.59887e+67    1.8802e+65
   5.40835e+59   6.11849e+61  -1.09341e+61  -1.37301e+68  3.66291e+135 -2.13396e+202   1.23242e+68  -1.45917e+67  -2.76756e+67  -9.50336e+67   9.01643e+66  -2.59791e+67   1.23349e+66
  -3.89106e+59   6.10806e+61    6.8086e+60   1.02972e+68  2.06437e+135  7.54723e+201   9.24061e+67   1.14625e+67    2.7772e+67   6.37376e+67   9.01621e+66  -2.59475e+67  -3.40319e+65
  -3.09332e+49   4.52184e+61   5.78305e+60   1.04009e+68  2.16646e+135   9.1175e+201   9.30134e+67   1.17769e+67   2.80704e+67   6.41621e+67  -8.40137e+66   2.54985e+67  -2.18999e+65
  -1.51351e+47   4.53242e+61  -9.31434e+60  -1.40689e+68  4.09484e+135 -2.85453e+202   1.25294e+68   -1.7069e+67  -2.83985e+67  -9.52218e+67  -8.39966e+66   2.54687e+67   4.28739e+65
   4.93877e+59   4.47854e+61  -9.28688e+60  -1.42579e+68  4.22705e+135 -2.91225e+202   1.26893e+68  -1.75052e+67  -2.88304e+67  -9.62437e+67   8.63702e+66   2.56985e+67   1.46009e+66
   -3.9203e+59   4.46795e+61     5.769e+60    1.0343e+68   2.1159e+135   8.1815e+201   9.26379e+67   1.16431e+67   2.79408e+67   6.38457e+67    8.6353e+66   2.57301e+67  -2.64649e+65
  -1.32016e+60   6.18074e+61   2.45551e+61   2.37302e+68  7.32696e+135  3.94898e+202   2.21326e+68   1.24446e+67    2.6809e+67   1.98048e+68  -9.00891e+66  -2.62232e+67  -3.45588e+66
  -3.89106e+59   6.10806e+61    6.8086e+60   -3.8515e+65 -2.03619e+135  1.84603e+202   4.51258e+67  -1.22072e+67  -2.80418e+67   3.98638e+67  -8.95704e+66   -2.6321e+67  -1.00202e+66
  -7.72456e+59    5.9381e+61   6.74801e+60  -1.53127e+66 -2.01439e+135  1.93951e+202   4.49081e+67  -1.24716e+67  -2.81803e+67   3.91207e+67    9.4159e+66  -2.61859e+67  -1.07477e+66
   -2.6589e+60   6.01045e+61   2.44078e+61   2.39422e+68  7.60379e+135  4.59816e+202   2.22978e+68   1.29339e+67   2.74243e+67   1.99064e+68   9.36403e+66  -2.60434e+67  -4.34012e+66
  -1.27987e+60   4.54012e+61   2.08277e+61   2.42579e+68   8.3206e+135  6.14732e+202   2.24776e+68   1.50964e+67   2.82241e+67   1.99259e+68  -8.63391e+66   2.54865e+67  -3.65735e+66
   -3.9203e+59   4.46795e+61     5.769e+60   6.59985e+65 -1.97371e+135  1.81946e+202   4.44314e+67   -1.1848e+67  -2.76035e+67   4.01115e+67  -8.54568e+66   2.53894e+67  -8.06981e+65
  -7.76848e+59   4.30363e+61   5.72002e+60  -1.68038e+65 -1.99711e+135  1.74882e+202   4.46894e+67  -1.20391e+67  -2.75772e+67   3.94482e+67   9.26742e+66   2.60705e+67  -8.78751e+65
  -2.59097e+60   4.37523e+61   2.06647e+61   2.44974e+68  8.60527e+135  6.04898e+202   2.26731e+68    1.5649e+67    2.8994e+67   2.00331e+68    9.1792e+66   2.62118e+67  -4.52964e+66
  -3.89106e+59   6.10806e+61    6.8086e+60   1.03492e+68  2.08908e+135  7.19558e+201    9.2852e+67   1.17645e+67    2.7892e+67   6.38355e+67  -8.97842e+66  -2.62474e+67  -1.00202e+66
   5.40835e+59   6.11849e+61  -1.09341e+61  -1.34141e+68  3.33144e+135 -1.55126e+202   1.21088e+68  -1.28983e+67  -2.69463e+67  -9.42962e+67  -8.97336e+66   -2.6279e+67     1.487e+66
   1.11214e+60   5.94855e+61  -1.09068e+61   -1.3902e+68  3.69695e+135 -2.09889e+202   1.25018e+68  -1.40242e+67    -2.806e+67  -9.69355e+67   9.38531e+66  -2.61324e+67   2.24202e+66
  -7.72456e+59    5.9381e+61   6.74801e+60   1.01976e+68  2.00008e+135  6.99844e+201   9.16462e+67   1.14147e+67   2.75544e+67    6.3007e+67   9.38025e+66  -2.60887e+67  -1.07477e+66
   -3.9203e+59   4.46795e+61     5.769e+60   1.04102e+68  2.18307e+135  9.45114e+201   9.30276e+67   1.20232e+67    2.8096e+67   6.39827e+67  -8.58289e+66   2.54431e+67  -8.06981e+65
   4.93877e+59   4.47854e+61  -9.28688e+60  -1.37848e+68  3.75563e+135 -2.36576e+202   1.23476e+68  -1.49781e+67  -2.77386e+67  -9.51312e+67  -8.56799e+66   2.54118e+67   2.09035e+66
   1.03374e+60   4.31431e+61  -9.21982e+60  -1.42581e+68  4.07155e+135 -2.43599e+202   1.27506e+68  -1.60704e+67  -2.87941e+67  -9.77164e+67   9.21436e+66   2.61198e+67   2.83517e+66
  -7.76848e+59   4.30363e+61   5.72002e+60   1.02686e+68  2.05125e+135   6.7515e+201   9.21589e+67   1.16966e+67    2.7806e+67   6.31838e+67   9.19946e+66   2.61631e+67  -8.78751e+65
   -2.6589e+60   6.01045e+61   2.44078e+61      2.37e+68  7.14007e+135  3.25991e+202   2.21425e+68   1.17893e+67   2.68654e+67   1.98345e+68  -9.32838e+66  -2.66665e+67  -6.74574e+66
  -7.72456e+59    5.9381e+61   6.74801e+60  -8.65403e+65 -2.04202e+135  1.77003e+202    4.5197e+67  -1.20551e+67  -2.80266e+67   3.92163e+67  -9.25118e+66  -2.68082e+67  -1.94027e+66
   -1.1475e+60   5.65003e+61   6.63238e+60  -1.84026e+66 -1.94554e+135  1.86767e+202   4.41467e+67  -1.22801e+67  -2.80641e+67   3.85039e+67   9.63713e+66  -2.52905e+67  -2.06898e+66
  -4.01613e+60   5.72189e+61   2.41089e+61   2.36563e+68  7.18854e+135  3.89782e+202   2.20847e+68   1.16886e+67   2.69521e+67   1.97923e+68   9.55993e+66  -2.50814e+67  -7.34091e+66
  -2.59097e+60   4.37523e+61   2.06647e+61   2.41103e+68  7.93356e+135  5.29475e+202   2.24047e+68   1.37013e+67   2.81007e+67   1.99301e+68  -9.14647e+66   2.56009e+67  -6.59915e+66
  -7.76848e+59   4.30363e+61   5.72002e+60   7.93514e+65 -1.95667e+135  1.75155e+202   4.42414e+67  -1.14636e+67  -2.73553e+67   3.96123e+67   -9.0146e+66   2.54611e+67  -1.73916e+66
  -1.15033e+60   4.02205e+61   5.61549e+60   2.86736e+65 -2.02989e+135  1.62637e+202   4.50552e+67  -1.15805e+67  -2.71472e+67   3.90145e+67   9.66598e+66   2.71369e+67  -1.86613e+66
  -3.93585e+60    4.0928e+61     2.037e+61   2.41127e+68   7.8845e+135  4.39953e+202   2.24182e+68   1.37068e+67   2.84312e+67   1.98989e+68   9.53411e+66   2.73433e+67  -7.18628e+66
  -7.72456e+59    5.9381e+61   6.74801e+60   1.02642e+68  2.01937e+135  5.73582e+201   9.22821e+67   1.18312e+67   2.77081e+67   6.31026e+67  -9.28682e+66  -2.67109e+67  -1.94027e+66
   1.11214e+60   5.94855e+61  -1.09068e+61  -1.35204e+68  3.27877e+135 -1.27815e+202    1.2248e+68   -1.2013e+67  -2.71793e+67  -9.60112e+67  -9.29048e+66  -2.67549e+67    2.9155e+66
   1.71915e+60   5.66046e+61   -1.0838e+61  -1.37469e+68  3.52031e+135 -1.81189e+202   1.24006e+68  -1.25358e+67  -2.77112e+67  -9.72221e+67   9.59522e+66   -2.5244e+67   3.26192e+66
   -1.1475e+60   5.65003e+61   6.63238e+60   1.01028e+68  1.99723e+135  7.37776e+201   9.06062e+67   1.14588e+67   2.73267e+67   6.22428e+67   9.59887e+66  -2.51714e+67  -2.06898e+66
  -7.76848e+59   4.30363e+61   5.72002e+60   1.03648e+68  2.15838e+135  9.27244e+201   9.26528e+67   1.22721e+67   2.80279e+67    6.3348e+67  -9.08257e+66   2.55537e+67  -1.73916e+66
   1.03374e+60   4.31431e+61  -9.21982e+60  -1.36684e+68  3.49833e+135  -1.9011e+202   1.23224e+68  -1.29164e+67  -2.74333e+67  -9.63342e+67  -9.06295e+66   2.55105e+67   3.18508e+66
   1.63106e+60   4.03286e+61  -9.13219e+60  -1.38733e+68  3.54957e+135 -1.52721e+202   1.25289e+68  -1.33893e+67  -2.78579e+67  -9.74859e+67   9.60631e+66   2.71978e+67   3.52682e+66
  -1.15033e+60   4.02205e+61   5.61549e+60   1.02242e+68  1.97546e+135  5.03233e+201   9.20758e+67   1.19476e+67   2.77517e+67   6.25426e+67   9.58669e+66   2.72693e+67  -1.86613e+66
  -9.82196e+49   8.14943e+61   2.83858e+61   2.40719e+68  7.53045e+135  4.20257e+202   2.24533e+68   1.24192e+67    2.7288e+67   2.01012e+68  -9.19021e+66  -2.65533e+67  -7.13361e+65
  -5.34647e+49   8.07594e+61   7.88066e+60  -3.39887e+65 -2.09279e+135  1.95383e+202   4.57483e+67  -1.24377e+67   -2.8341e+67   4.04388e+67  -9.17673e+66  -2.66817e+67   -3.4435e+65
  -3.85612e+59   8.01868e+61   7.85917e+60  -6.32346e+65 -2.08538e+135  1.98602e+202   4.56703e+67  -1.25052e+67  -2.83762e+67    4.0249e+67   9.28843e+66  -2.66153e+67  -3.80154e+65
   -1.3458e+60   8.09207e+61   2.83413e+61   2.41272e+68  7.60492e+135   4.3908e+202   2.24961e+68   1.25468e+67   2.74479e+67   2.01278e+68   9.27496e+66  -2.64768e+67  -1.56592e+66
  -7.88607e+49   6.23699e+61   2.46038e+61   2.46108e+68   8.5517e+135  6.19483e+202   2.28073e+68   1.50642e+67   2.87883e+67   2.02256e+68   -8.8894e+66   2.59187e+67  -7.70038e+65
  -4.14651e+49   6.16417e+61   6.82721e+60   6.85644e+65 -2.03234e+135  1.87683e+202   4.50867e+67  -1.21421e+67  -2.78477e+67   4.06754e+67  -8.86762e+66   2.57904e+67    -2.941e+65
  -3.89106e+59   6.10806e+61    6.8086e+60   4.65758e+65 -2.03989e+135  1.85333e+202   4.51675e+67  -1.21929e+67  -2.78455e+67   4.05041e+67   9.03723e+66   2.59982e+67  -3.29414e+65
  -1.32016e+60   6.18074e+61   2.45551e+61   2.46722e+68  8.62345e+135  6.15758e+202   2.28579e+68    1.5206e+67    2.8983e+67   2.02533e+68   9.01545e+66   2.61365e+67  -1.61092e+66
  -5.34647e+49   8.07594e+61   7.88066e+60   1.04422e+68  2.10965e+135  7.37004e+201   9.37784e+67   1.17383e+67   2.80695e+67   6.46147e+67  -9.17673e+66  -2.66021e+67   -3.4435e+65
  -8.26004e+48   8.08627e+61  -1.26204e+61  -1.36612e+68  3.47183e+135   -1.731e+202   1.23252e+68  -1.31323e+67   -2.7554e+67  -9.59262e+67  -9.17806e+66  -2.66205e+67   2.82224e+64
   5.73977e+59   8.02899e+61  -1.26186e+61  -1.37885e+68  3.56991e+135 -1.87319e+202   1.24267e+68   -1.3426e+67  -2.78509e+67  -9.66083e+67   9.27557e+66  -2.65517e+67    8.1885e+65
  -3.85612e+59   8.01868e+61   7.85917e+60   1.04015e+68  2.08682e+135  7.41974e+201   9.34464e+67   1.16442e+67   2.79722e+67   6.43983e+67    9.2769e+66  -2.65314e+67  -3.80154e+65
  -4.14651e+49   6.16417e+61   6.82721e+60   1.04733e+68  2.17763e+135  8.74436e+201   9.37624e+67   1.18688e+67   2.81779e+67   6.46864e+67  -8.86762e+66   2.58566e+67    -2.941e+65
  -3.65831e+48   6.17459e+61   -1.0946e+61  -1.40717e+68  3.93875e+135 -2.46076e+202   1.25946e+68  -1.53791e+67  -2.84644e+67  -9.68734e+67  -8.86741e+66   2.58383e+67   1.87835e+65
   5.40835e+59   6.11849e+61  -1.09341e+61   -1.4196e+68  4.02207e+135 -2.48917e+202   1.27006e+68   -1.5666e+67  -2.87508e+67  -9.75434e+67   9.01607e+66   2.60515e+67   9.67631e+65
  -3.89106e+59   6.10806e+61    6.8086e+60   1.04343e+68  2.14018e+135   7.9262e+201   9.35267e+67   1.17787e+67   2.80884e+67   6.44757e+67   9.01585e+66   2.60718e+67  -3.29414e+65
   -1.3458e+60   8.09207e+61   2.83413e+61   2.39951e+68  7.35166e+135  3.72988e+202   2.24109e+68   1.18845e+67    2.7143e+67   2.00923e+68  -9.25984e+66  -2.67857e+67  -3.04266e+66
  -3.85612e+59   8.01868e+61   7.85917e+60  -2.82471e+65  -2.0994e+135  1.89779e+202     4.582e+67  -1.22923e+67  -2.82955e+67   4.03053e+67  -9.22913e+66  -2.69239e+67  -1.11376e+66
  -7.67105e+59   7.84585e+61   7.79181e+60   -1.0052e+66 -2.07389e+135  1.99318e+202   4.55511e+67  -1.24591e+67  -2.83887e+67   3.98425e+67   9.52937e+66  -2.66065e+67  -1.17994e+66
  -2.70274e+60   7.91906e+61   2.82049e+61   2.41307e+68  7.54041e+135  4.24704e+202   2.25141e+68   1.21974e+67   2.75295e+67    2.0158e+68   9.49866e+66  -2.64427e+67  -3.75491e+66
  -1.32016e+60   6.18074e+61   2.45551e+61   2.44642e+68  8.25775e+135  5.67569e+202   2.27139e+68    1.4138e+67    2.8503e+67   2.02001e+68  -9.00982e+66   2.58361e+67  -3.17411e+66
  -3.89106e+59   6.10806e+61    6.8086e+60   9.85654e+65 -2.02045e+135  1.84638e+202   4.49602e+67  -1.18908e+67  -2.77255e+67    4.0602e+67  -8.95798e+66   2.56983e+67  -9.91221e+65
  -7.72456e+59    5.9381e+61   6.74801e+60   4.46495e+65 -2.04885e+135  1.76842e+202   4.52664e+67  -1.20153e+67  -2.77239e+67   4.01856e+67   9.41496e+66   2.63677e+67   -1.0565e+66
   -2.6589e+60   6.01045e+61   2.44078e+61   2.46153e+68  8.42295e+135  5.47589e+202   2.28404e+68   1.44867e+67   2.89777e+67   2.02689e+68   9.36312e+66   2.65309e+67  -3.87661e+66
  -3.85612e+59   8.01868e+61   7.85917e+60   1.04365e+68  2.09799e+135  6.80647e+201   9.37762e+67    1.1857e+67   2.80529e+67   6.44546e+67  -9.24066e+66    -2.684e+67  -1.11376e+66
   5.73977e+59   8.02899e+61  -1.26186e+61  -1.35835e+68  3.34632e+135 -1.48965e+202   1.22901e+68  -1.23223e+67  -2.73777e+67  -9.61347e+67  -9.24176e+66  -2.68603e+67   8.35613e+65
    1.1676e+60   7.85616e+61  -1.26162e+61  -1.38953e+68  3.59391e+135 -1.84757e+202   1.25356e+68   -1.3042e+67     -2.81e+67  -9.78113e+67    9.5105e+66  -2.65376e+67   1.42345e+66
  -7.67105e+59   7.84585e+61   7.79181e+60   1.03394e+68  2.05189e+135  7.29268e+201   9.29432e+67   1.16331e+67   2.78263e+67   6.39346e+67   9.51159e+66  -2.65099e+67  -1.17994e+66
  -3.89106e+59   6.10806e+61    6.8086e+60   1.04863e+68  2.19659e+135  9.20598e+201   9.38062e+67   1.20808e+67   2.82083e+67   6.45736e+67  -8.97935e+66   2.57718e+67  -9.91221e+65
   5.40835e+59   6.11849e+61  -1.09341e+61  -1.38801e+68  3.71175e+135 -2.13644e+202   1.24716e+68  -1.39732e+67  -2.80218e+67  -9.68062e+67  -8.97431e+66   2.57517e+67   1.22082e+66
   1.11214e+60   5.94855e+61  -1.09068e+61  -1.41829e+68  3.90166e+135 -2.15555e+202   1.27333e+68  -1.46718e+67  -2.87082e+67  -9.84487e+67   9.38436e+66   2.64375e+67    1.8006e+66
  -7.72456e+59    5.9381e+61   6.74801e+60   1.03954e+68  2.09834e+135  6.79837e+201   9.33169e+67    1.1871e+67   2.80108e+67   6.40719e+67   9.37931e+66    2.6465e+67   -1.0565e+66
  -2.70274e+60   7.91906e+61   2.82049e+61   2.39794e+68  7.23937e+135  3.23174e+202   2.24191e+68   1.15575e+67   2.71804e+67   2.01056e+68  -9.46033e+66  -2.70747e+67  -6.38129e+66
  -7.67105e+59   7.84585e+61   7.79181e+60  -5.85123e+65 -2.10411e+135  1.83148e+202   4.58743e+67  -1.21761e+67  -2.82917e+67   3.98827e+67  -9.41308e+66   -2.7238e+67  -2.02837e+66
   -1.1428e+60   7.55482e+61   7.67133e+60  -1.03349e+66 -1.98492e+135  1.89826e+202   4.45644e+67  -1.22796e+67   -2.8282e+67    3.9528e+67   9.63098e+66  -2.51307e+67  -2.14129e+66
  -4.06872e+60   7.62773e+61   2.79048e+61   2.39496e+68   7.3246e+135  3.92212e+202   2.23682e+68   1.14888e+67   2.72249e+67   2.00783e+68   9.58372e+66   -2.4931e+67  -6.91443e+66
   -2.6589e+60   6.01045e+61   2.44078e+61   2.43732e+68  8.01611e+135  5.19648e+202   2.26692e+68   1.33428e+67    2.8419e+67   2.01971e+68  -9.32951e+66   2.59078e+67  -6.28249e+66
  -7.72456e+59    5.9381e+61   6.74801e+60   1.11225e+66 -2.01013e+135  1.81384e+202   4.48483e+67  -1.15988e+67  -2.75703e+67   4.02813e+67  -9.25237e+66   2.57455e+67  -1.92205e+66
   -1.1475e+60   5.65003e+61   6.63238e+60   9.16553e+65 -2.12081e+135  1.71678e+202   4.60614e+67  -1.16439e+67  -2.74279e+67   3.99884e+67   9.63594e+66   2.79423e+67  -2.03342e+66
  -4.01613e+60   5.72189e+61   2.41089e+61   2.43685e+68  7.91082e+135  4.29365e+202   2.26874e+68   1.33319e+67   2.85956e+67   2.01758e+68    9.5588e+66   2.81405e+67  -6.80834e+66
  -7.67105e+59   7.84585e+61   7.79181e+60   1.03814e+68  2.05174e+135  5.66541e+201    9.3411e+67    1.1916e+67   2.79232e+67   6.39748e+67  -9.43086e+66  -2.71413e+67  -2.02837e+66
    1.1676e+60   7.85616e+61  -1.26162e+61  -1.36565e+68  3.31893e+135 -1.28904e+202   1.23818e+68  -1.18168e+67  -2.75488e+67   -9.7199e+67  -9.44434e+66  -2.71694e+67   2.35136e+66
   1.78222e+60   7.56505e+61  -1.25566e+61  -1.37709e+68  3.51306e+135 -1.73765e+202   1.24301e+68  -1.20809e+67  -2.78452e+67  -9.77827e+67   9.60012e+66  -2.50634e+67   2.66171e+66
   -1.1428e+60   7.55482e+61   7.67133e+60   1.02892e+68  2.10191e+135  8.27818e+201   9.21137e+67   1.17033e+67   2.76781e+67   6.35109e+67    9.6136e+66  -2.50233e+67  -2.14129e+66
  -7.72456e+59    5.9381e+61   6.74801e+60    1.0462e+68  2.18397e+135  9.28347e+201   9.36017e+67   1.22875e+67   2.81645e+67   6.41676e+67  -9.28801e+66   2.58427e+67  -1.92205e+66
   1.11214e+60   5.94855e+61  -1.09068e+61  -1.38014e+68   3.5422e+135 -1.85212e+202   1.24522e+68  -1.26615e+67  -2.78279e+67  -9.75248e+67   -9.2917e+66   2.58149e+67   2.47424e+66
   1.71915e+60   5.66046e+61   -1.0838e+61  -1.39068e+68   3.4973e+135 -1.46689e+202   1.25868e+68  -1.29047e+67  -2.80802e+67  -9.80833e+67     9.594e+66    2.8022e+67   2.78033e+66
   -1.1475e+60   5.65003e+61   6.63238e+60   1.03785e+68  2.00728e+135   4.9478e+201   9.36165e+67   1.20949e+67   2.79629e+67   6.37272e+67   9.59768e+66   2.80615e+67  -2.03342e+66
  -1.19188e+50   1.03367e+62   3.22272e+61   2.43342e+68  7.54625e+135  3.96486e+202   2.27308e+68   1.18632e+67   2.75768e+67   2.03902e+68  -9.39365e+66   -2.7094e+67  -6.76099e+65
  -6.67994e+49   1.02624e+62   8.94524e+60  -2.44658e+65 -2.15493e+135  2.01268e+202   4.64218e+67  -1.24983e+67  -2.86355e+67   4.08891e+67  -9.38497e+66  -2.72522e+67   -3.7546e+65
    -3.828e+59   1.02047e+62   8.92214e+60  -4.20311e+65 -2.14697e+135  2.04639e+202   4.63373e+67  -1.25388e+67  -2.86555e+67    4.0774e+67   9.46152e+66  -2.71462e+67  -4.25059e+65
  -1.36282e+60   1.02789e+62   3.21856e+61   2.43699e+68  7.59783e+135  4.11927e+202   2.27577e+68   1.19456e+67   2.76796e+67   2.04073e+68   9.45284e+66  -2.69823e+67  -1.37244e+66
  -9.82196e+49   8.14943e+61   2.83858e+61   2.48142e+68   8.4754e+135  5.72535e+202   2.30432e+68   1.41315e+67   2.90009e+67   2.05009e+68  -9.19043e+66   2.63062e+67  -7.13316e+65
  -5.34647e+49   8.07594e+61   7.88066e+60   1.05237e+66  -2.0817e+135  1.89673e+202   4.56377e+67  -1.21163e+67  -2.80197e+67   4.11884e+67  -9.17697e+66    2.6148e+67  -3.44395e+65
  -3.85612e+59   8.01868e+61   7.85917e+60   9.18357e+65 -2.09027e+135  1.86808e+202   4.57287e+67  -1.21472e+67  -2.80184e+67    4.1084e+67    9.2882e+66   2.63444e+67  -3.93305e+65
   -1.3458e+60   8.09207e+61   2.83413e+61   2.48533e+68  8.51744e+135  5.65971e+202   2.30762e+68   1.42218e+67   2.91235e+67   2.05188e+68   9.27474e+66   2.65082e+67  -1.39998e+66
  -6.67994e+49   1.02624e+62   8.94524e+60    1.0549e+68  2.13532e+135  7.26112e+201   9.48307e+67    1.1902e+67   2.82987e+67   6.52894e+67  -9.38497e+66  -2.71653e+67   -3.7546e+65
  -1.40271e+49   1.02727e+62  -1.43322e+61  -1.38083e+68  3.46649e+135 -1.62189e+202   1.24901e+68  -1.24668e+67  -2.79105e+67  -9.77055e+67  -9.38705e+66  -2.71739e+67  -7.29631e+64
   5.96897e+59   1.02149e+62  -1.43367e+61  -1.38887e+68  3.53257e+135 -1.71151e+202   1.25527e+68  -1.26524e+67   -2.8101e+67  -9.81336e+67   9.45328e+66  -2.70667e+67   5.29469e+65
    -3.828e+59   1.02047e+62   8.92214e+60   1.05232e+68  2.12389e+135   7.5029e+201   9.46037e+67   1.18424e+67   2.82341e+67   6.51553e+67   9.45536e+66  -2.70572e+67  -4.25059e+65
  -5.34647e+49   8.07594e+61   7.88066e+60   1.05815e+68  2.21417e+135  8.74156e+201   9.47765e+67   1.20596e+67   2.83908e+67   6.53643e+67  -9.17697e+66   2.62275e+67  -3.44395e+65
  -8.26004e+48   8.08627e+61  -1.26204e+61   -1.4129e+68  3.85308e+135 -2.20097e+202   1.26924e+68   -1.4211e+67  -2.86334e+67  -9.84456e+67   -9.1783e+66    2.6219e+67   2.80869e+64
   5.73977e+59   8.02899e+61  -1.26186e+61  -1.42078e+68  3.90255e+135 -2.21404e+202   1.27607e+68  -1.43928e+67  -2.88184e+67  -9.88665e+67   9.27533e+66   2.64187e+67   6.22151e+65
  -3.85612e+59   8.01868e+61   7.85917e+60   1.05565e+68  2.18635e+135  7.98671e+201   9.46451e+67   1.20021e+67     2.833e+67   6.52333e+67   9.27666e+66   2.64282e+67  -3.93305e+65
  -1.36282e+60   1.02789e+62   3.21856e+61   2.42844e+68  7.42756e+135  3.62264e+202   2.27037e+68    1.1533e+67   2.74825e+67   2.03829e+68  -9.43165e+66   -2.7297e+67  -2.79387e+66
    -3.828e+59   1.02047e+62   8.92214e+60  -2.04879e+65 -2.16233e+135  1.96228e+202   4.65013e+67   -1.2397e+67  -2.86058e+67   4.07979e+67  -9.41252e+66  -2.74608e+67  -1.19987e+66
  -7.62768e+59   1.00308e+62    8.8513e+60  -6.18552e+65 -2.13394e+135  2.05904e+202   4.61987e+67  -1.24924e+67   -2.8656e+67   4.05299e+67   9.61573e+66  -2.70202e+67  -1.27346e+66
  -2.73225e+60   1.01049e+62   3.20567e+61   2.43703e+68  7.56001e+135  4.06031e+202   2.27665e+68   1.17312e+67   2.77259e+67   2.04246e+68    9.5966e+66  -2.68426e+67  -3.40519e+66
   -1.3458e+60   8.09207e+61   2.83413e+61   2.47213e+68  8.29093e+135   5.4329e+202   2.29833e+68   1.35599e+67   2.88188e+67   2.04834e+68  -9.26043e+66   2.61993e+67  -2.87665e+66
  -3.85612e+59   8.01868e+61   7.85917e+60   1.26815e+66 -2.07124e+135  1.88792e+202   4.55286e+67  -1.19344e+67  -2.79376e+67   4.11402e+67  -9.22975e+66   2.60357e+67  -1.12698e+66
  -7.67105e+59   7.84585e+61   7.79181e+60   9.54479e+65 -2.10313e+135  1.79924e+202   4.58699e+67  -1.20068e+67  -2.79364e+67   4.08977e+67   9.52875e+66   2.66972e+67  -1.19954e+66
  -2.70274e+60   7.91906e+61   2.82049e+61   2.48154e+68   8.3797e+135  5.17244e+202   2.30652e+68   1.37771e+67   2.91095e+67   2.05267e+68   9.49806e+66   2.68744e+67  -3.47948e+66
    -3.828e+59   1.02047e+62   8.92214e+60   1.05447e+68  2.12424e+135  6.67295e+201   9.48414e+67   1.19843e+67   2.82839e+67   6.51791e+67  -9.41867e+66  -2.73717e+67  -1.19987e+66
   5.96897e+59   1.02149e+62  -1.43367e+61  -1.37584e+68  3.38214e+135 -1.46371e+202   1.24688e+68  -1.19465e+67  -2.78003e+67  -9.78371e+67  -9.42239e+66  -2.73813e+67   4.04542e+65
   1.20625e+60    1.0041e+62  -1.43492e+61   -1.3949e+68  3.54823e+135 -1.69145e+202   1.26131e+68  -1.23863e+67  -2.82489e+67  -9.88545e+67   9.60292e+66  -2.69379e+67   8.71956e+65
  -7.62768e+59   1.00308e+62    8.8513e+60   1.04858e+68  2.10853e+135  7.66464e+201   9.42691e+67   1.18483e+67    2.8139e+67   6.48706e+67   9.60664e+66  -2.69252e+67  -1.27346e+66
  -3.85612e+59   8.01868e+61   7.85917e+60   1.05915e+68  2.23056e+135  9.25648e+201   9.48022e+67   1.22149e+67   2.84107e+67   6.52895e+67  -9.24128e+66   2.61196e+67  -1.12698e+66
   5.73977e+59   8.02899e+61  -1.26186e+61  -1.40028e+68  3.70573e+135 -1.98963e+202   1.26104e+68  -1.32896e+67  -2.83454e+67  -9.83932e+67  -9.24238e+66   2.61101e+67   6.38695e+65
    1.1676e+60   7.85616e+61  -1.26162e+61  -1.41888e+68  3.80965e+135 -1.98152e+202   1.27759e+68  -1.37187e+67  -2.87772e+67  -9.93918e+67   9.50987e+66   2.67813e+67   1.09962e+66
  -7.67105e+59   7.84585e+61   7.79181e+60   1.05354e+68  2.15519e+135  7.00348e+201   9.45738e+67   1.20853e+67   2.82785e+67   6.49898e+67   9.51097e+66   2.67939e+67  -1.19954e+66
  -2.73225e+60   1.01049e+62   3.20567e+61   2.42774e+68  7.36439e+135  3.24711e+202     2.271e+68   1.14159e+67   2.75114e+67   2.03846e+68  -9.55874e+66  -2.74811e+67  -6.18708e+66
  -7.62768e+59   1.00308e+62    8.8513e+60  -3.67592e+65 -2.16613e+135  1.90093e+202   4.65431e+67  -1.23018e+67  -2.85981e+67   4.05323e+67   -9.5266e+66  -2.76583e+67  -2.10433e+66
  -1.13865e+60    9.7391e+61    8.7292e+60  -5.37281e+65 -2.02901e+135  1.94956e+202   4.50477e+67  -1.23409e+67  -2.85613e+67   4.03649e+67   9.63946e+66  -2.51528e+67  -2.20984e+66
  -4.10478e+60   9.81303e+61   3.17566e+61   2.42496e+68  7.46836e+135  3.97299e+202   2.26574e+68   1.13518e+67   2.75233e+67   2.03621e+68   9.60732e+66  -2.49575e+67  -6.68453e+66
  -2.70274e+60   7.91906e+61   2.82049e+61   2.46641e+68  8.14075e+135  5.19464e+202   2.29546e+68   1.31376e+67   2.87606e+67   2.04743e+68  -9.46109e+66   2.62425e+67    -6.106e+66
  -7.67105e+59   7.84585e+61   7.79181e+60   1.37438e+66 -2.06549e+135   1.8821e+202   4.54685e+67  -1.17239e+67  -2.78395e+67   4.09378e+67  -9.41387e+66   2.60658e+67  -2.04798e+66
   -1.1428e+60   7.55482e+61   7.67133e+60   1.33156e+66 -2.20121e+135  1.80455e+202   4.69359e+67  -1.17338e+67  -2.77362e+67   4.08015e+67   9.63018e+66   2.86155e+67  -2.15203e+66
  -4.06872e+60   7.62773e+61   2.79048e+61   2.46492e+68  7.99183e+135  4.27387e+202    2.2971e+68   1.31031e+67   2.88393e+67    2.0455e+68   9.58296e+66   2.88101e+67  -6.59654e+66
  -7.62768e+59   1.00308e+62    8.8513e+60   1.05109e+68   2.0946e+135  5.74562e+201   9.46219e+67    1.2039e+67    2.8197e+67    6.4873e+67  -9.53569e+66  -2.75633e+67  -2.10433e+66
   1.20625e+60    1.0041e+62  -1.43492e+61  -1.38038e+68  3.36812e+135 -1.30726e+202   1.25246e+68  -1.16791e+67   -2.7914e+67  -9.84454e+67  -9.55122e+66  -2.75764e+67   1.99082e+66
   1.82703e+60   9.74925e+61  -1.42931e+61  -1.38508e+68  3.53594e+135  -1.7054e+202   1.25094e+68  -1.17873e+67   -2.8059e+67  -9.86613e+67   9.61549e+66   -2.5069e+67   2.27749e+66
  -1.13865e+60    9.7391e+61    8.7292e+60   1.04573e+68  2.19047e+135  9.04397e+201   9.35147e+67   1.19152e+67   2.80364e+67   6.46211e+67   9.63102e+66  -2.50535e+67  -2.20984e+66
  -7.67105e+59   7.84585e+61   7.79181e+60   1.05774e+68  2.22289e+135  9.46364e+201   9.46846e+67   1.23682e+67   2.83754e+67     6.503e+67  -9.43165e+66   2.61624e+67  -2.04798e+66
    1.1676e+60   7.85616e+61  -1.26162e+61    -1.395e+68  3.59789e+135 -1.83658e+202   1.25946e+68  -1.24942e+67  -2.82262e+67  -9.87797e+67  -9.44515e+66   2.61494e+67   2.02768e+66
   1.78222e+60   7.56505e+61  -1.25566e+61   -1.3995e+68  3.49037e+135 -1.44415e+202   1.26869e+68   -1.2598e+67  -2.83625e+67  -9.89897e+67   9.59931e+66   2.87075e+67   2.31037e+66
   -1.1428e+60   7.55482e+61   7.67133e+60   1.05257e+68  2.04569e+135  4.98592e+201   9.50444e+67   1.22491e+67   2.82239e+67   6.47844e+67   9.61281e+66   2.87229e+67  -2.15203e+66
  -1.41767e+50   1.28038e+62   3.61278e+61   2.46256e+68  7.61936e+135  3.84951e+202   2.30267e+68   1.15109e+67   2.78944e+67   2.06851e+68  -9.53418e+66  -2.75941e+67   -6.5203e+65
  -8.15331e+49   1.27285e+62   1.00227e+61  -1.63131e+65 -2.21832e+135  2.08596e+202   4.70993e+67  -1.25952e+67  -2.89717e+67   4.14037e+67  -9.52811e+66  -2.77716e+67  -3.93946e+65
   -3.8092e+59   1.26707e+62   9.99882e+60  -2.59132e+65 -2.20989e+135  2.12089e+202   4.70102e+67  -1.26173e+67  -2.89797e+67   4.13379e+67   9.58314e+66  -2.76398e+67  -4.62435e+65
   -1.3747e+60   1.27459e+62   3.60883e+61   2.46487e+68  7.65639e+135  3.98374e+202   2.30433e+68   1.15642e+67   2.79618e+67   2.06961e+68   9.57707e+66  -2.74592e+67  -1.25828e+66
  -1.19188e+50   1.03367e+62   3.22272e+61    2.5074e+68  8.50482e+135  5.49222e+202   2.33165e+68   1.35703e+67   2.92841e+67   2.07886e+68  -9.39379e+66   2.66966e+67  -6.76069e+65
  -6.67994e+49   1.02624e+62   8.94524e+60   1.36688e+66  -2.1353e+135  1.93524e+202   4.62296e+67  -1.21263e+67  -2.82636e+67   4.17568e+67  -9.38512e+66   2.65191e+67   -3.7549e+65
    -3.828e+59   1.02047e+62   8.92214e+60   1.29358e+66 -2.14454e+135  1.90199e+202   4.63272e+67  -1.21432e+67    -2.826e+67   4.16968e+67   9.46136e+66   2.67079e+67  -4.43015e+65
  -1.36282e+60   1.02789e+62   3.21856e+61   2.50989e+68  8.52804e+135  5.40955e+202   2.33383e+68   1.36278e+67   2.93621e+67   2.07999e+68   9.45269e+66   2.68884e+67  -1.27378e+66
  -8.15331e+49   1.27285e+62   1.00227e+61   1.06723e+68  2.17381e+135  7.33577e+201       9.6e+67   1.20709e+67   2.85824e+67   6.60697e+67  -9.52811e+66  -2.76806e+67  -3.93946e+65
  -2.09007e+49   1.27388e+62  -1.60777e+61   -1.3969e+68  3.49015e+135 -1.56563e+202   1.26583e+68  -1.20399e+67  -2.82821e+67   -9.9368e+67  -9.53029e+66   -2.7681e+67  -1.35053e+65
   6.12677e+59    1.2681e+62  -1.60859e+61  -1.40183e+68  3.53485e+135 -1.62021e+202   1.26951e+68  -1.21538e+67  -2.84011e+67  -9.96286e+67   9.57734e+66  -2.75484e+67   3.36708e+65
   -3.8092e+59   1.26707e+62   9.99882e+60   1.06565e+68  2.17013e+135  7.71493e+201    9.5843e+67   1.20343e+67   2.85408e+67   6.59895e+67   9.57952e+66  -2.75479e+67  -4.62435e+65
  -6.67994e+49   1.02624e+62   8.94524e+60   1.07102e+68  2.26458e+135  8.94871e+201   9.59489e+67    1.2274e+67   2.86706e+67   6.61571e+67  -9.38512e+66    2.6606e+67   -3.7549e+65
  -1.40271e+49   1.02727e+62  -1.43322e+61  -1.42279e+68  3.82189e+135  -2.0429e+202   1.28146e+68  -1.34347e+67  -2.88788e+67  -9.99655e+67   -9.3872e+66   2.66056e+67  -7.30547e+64
   5.96897e+59   1.02149e+62  -1.43367e+61  -1.42765e+68  3.84898e+135 -2.04814e+202    1.2858e+68  -1.35469e+67  -2.89959e+67  -1.00222e+68   9.45313e+66   2.67964e+67   3.92061e+65
    -3.828e+59   1.02047e+62   8.92214e+60   1.06946e+68  2.24316e+135  8.22643e+201   9.58866e+67    1.2238e+67   2.86297e+67    6.6078e+67   9.45521e+66   2.67969e+67  -4.43015e+65
   -1.3747e+60   1.27459e+62   3.60883e+61   2.45931e+68   7.5394e+135  3.59013e+202   2.30092e+68   1.13108e+67   2.78333e+67   2.06786e+68  -9.55273e+66   -2.7778e+67  -2.64833e+66
   -3.8092e+59   1.26707e+62   9.99882e+60  -1.32871e+65 -2.22625e+135  2.03875e+202   4.71833e+67  -1.25227e+67  -2.89505e+67   4.13404e+67   -9.5395e+66  -2.79585e+67  -1.26099e+66
  -7.59855e+59   1.24969e+62   9.92643e+60  -3.55254e+65 -2.19506e+135  2.13725e+202   4.68528e+67   -1.2574e+67   -2.8971e+67   4.11898e+67   9.68268e+66  -2.74325e+67  -1.34524e+66
  -2.75319e+60    1.2572e+62   3.59645e+61   2.46451e+68  7.63417e+135  3.97846e+202   2.30443e+68   1.14308e+67   2.79842e+67   2.07036e+68   9.66945e+66  -2.72451e+67  -3.20109e+66
  -1.36282e+60   1.02789e+62   3.21856e+61   2.50135e+68  8.38779e+135  5.33989e+202   2.32766e+68   1.32154e+67   2.91651e+67   2.07755e+68  -9.43204e+66   2.65737e+67  -2.69516e+66
    -3.828e+59   1.02047e+62   8.92214e+60    1.5089e+66 -2.12579e+135  1.94358e+202   4.61309e+67  -1.20014e+67  -2.82103e+67   4.17206e+67  -9.41292e+66   2.63933e+67  -1.21787e+66
  -7.62768e+59   1.00308e+62    8.8513e+60   1.33781e+66    -2.16e+135  1.84615e+202   4.64951e+67  -1.20409e+67  -2.82045e+67   4.15833e+67   9.61532e+66   2.70542e+67  -1.30092e+66
  -2.73225e+60   1.01049e+62   3.20567e+61   2.50697e+68  8.42577e+135  5.03835e+202   2.33287e+68   1.33449e+67   2.93398e+67   2.08012e+68   9.59621e+66   2.72414e+67  -3.24014e+66
   -3.8092e+59   1.26707e+62   9.99882e+60   1.06691e+68  2.16311e+135  6.72293e+201   9.60199e+67   1.21289e+67   2.85699e+67    6.5992e+67  -9.54312e+66  -2.78666e+67  -1.26099e+66
   6.12677e+59    1.2681e+62  -1.60859e+61  -1.39365e+68   3.4323e+135 -1.46182e+202   1.26453e+68  -1.17064e+67  -2.82123e+67  -9.94468e+67  -9.54717e+66  -2.78671e+67   1.30726e+65
   1.23319e+60   1.25071e+62  -1.61067e+61  -1.40486e+68  3.54566e+135 -1.60522e+202   1.27242e+68  -1.19649e+67  -2.84803e+67  -1.00041e+68   9.67297e+66  -2.73394e+67   5.15867e+65
  -7.59855e+59   1.24969e+62   9.92643e+60   1.06338e+68  2.16734e+135  8.07286e+201   9.56051e+67   1.20474e+67   2.84789e+67   6.58112e+67   9.67702e+66  -2.73385e+67  -1.34524e+66
    -3.828e+59   1.02047e+62   8.92214e+60   1.07161e+68  2.27762e+135  9.48755e+201   9.59472e+67   1.23798e+67   2.86793e+67   6.61019e+67  -9.41908e+66   2.64823e+67  -1.21787e+66
   5.96897e+59   1.02149e+62  -1.43367e+61  -1.41463e+68  3.72893e+135 -1.90747e+202   1.27604e+68  -1.28413e+67  -2.86954e+67   -9.9926e+67   -9.4228e+66   2.64818e+67   2.66993e+65
   1.20625e+60    1.0041e+62  -1.43492e+61  -1.42566e+68  3.77654e+135 -1.88485e+202   1.28641e+68  -1.30959e+67  -2.89588e+67  -1.00511e+68   9.60251e+66   2.71483e+67    6.4671e+65
  -7.62768e+59   1.00308e+62    8.8513e+60   1.06814e+68  2.21626e+135  7.30637e+201   9.58804e+67   1.22998e+67   2.85905e+67    6.5924e+67   9.60624e+66   2.71492e+67  -1.30092e+66
  -2.75319e+60    1.2572e+62   3.59645e+61   2.45905e+68  7.50877e+135  3.29316e+202   2.30132e+68   1.13304e+67   2.78583e+67   2.06716e+68   -9.6346e+66  -2.78886e+67  -6.10233e+66
  -7.59855e+59   1.24969e+62   9.92643e+60  -2.05946e+65 -2.22873e+135  1.97888e+202   4.72099e+67  -1.24388e+67  -2.89366e+67   4.11694e+67  -9.60929e+66  -2.80756e+67  -2.16562e+66
  -1.13574e+60    1.2206e+62   9.80418e+60  -2.52141e+65 -2.07722e+135   2.0171e+202   4.55773e+67  -1.24495e+67  -2.88882e+67   4.10855e+67   9.65654e+66     -2.53e+67  -2.26877e+66
   -4.1309e+60    1.2281e+62   3.56646e+61   2.45584e+68  7.62048e+135  4.04424e+202   2.29545e+68   1.12562e+67   2.78431e+67   2.06484e+68   9.63123e+66  -2.51049e+67  -6.58047e+66
  -2.73225e+60   1.01049e+62   3.20567e+61   2.49767e+68  8.29606e+135  5.26022e+202   2.32568e+68   1.30298e+67   2.91253e+67   2.07612e+68  -9.55924e+66   2.66029e+67  -6.02211e+66
  -7.62768e+59   1.00308e+62    8.8513e+60   1.58861e+66 -2.12287e+135  1.95664e+202    4.6102e+67  -1.18503e+67  -2.81467e+67   4.15856e+67  -9.52712e+66   2.64161e+67  -2.13177e+66
  -1.13865e+60    9.7391e+61    8.7292e+60    1.6009e+66 -2.27555e+135  1.89374e+202   4.77296e+67  -1.18475e+67  -2.80679e+67   4.15163e+67   9.63893e+66   2.92071e+67  -2.23347e+66
  -4.10478e+60   9.81303e+61   3.17566e+61   2.49508e+68  8.11281e+135  4.31386e+202   2.32683e+68     1.297e+67   2.91415e+67   2.07397e+68   9.60681e+66   2.94019e+67  -6.49352e+66
  -7.59855e+59   1.24969e+62   9.92643e+60   1.06487e+68  2.14469e+135  5.93381e+201   9.58893e+67   1.21826e+67   2.85134e+67   6.57908e+67  -9.61495e+66  -2.79815e+67  -2.16562e+66
   1.23319e+60   1.25071e+62  -1.61067e+61  -1.39631e+68  3.42639e+135 -1.33271e+202   1.26769e+68  -1.15883e+67   -2.8283e+67  -9.97596e+67   -9.6289e+66  -2.79828e+67   1.77549e+66
   1.85913e+60   1.22162e+62  -1.60513e+61   -1.3972e+68  3.58215e+135  -1.7056e+202   1.26252e+68  -1.16089e+67  -2.83361e+67   -9.9775e+67   9.63685e+66  -2.52042e+67    2.0466e+66
  -1.13574e+60    1.2206e+62   9.80418e+60   1.06143e+68  2.26885e+135  9.71838e+201   9.48552e+67   1.21033e+67   2.84015e+67   6.56383e+67    9.6508e+66  -2.52048e+67  -2.26877e+66
  -7.62768e+59   1.00308e+62    8.8513e+60   1.07065e+68  2.27164e+135  9.76407e+201   9.58713e+67   1.24904e+67   2.86484e+67   6.59264e+67  -9.53621e+66   2.65111e+67  -2.13177e+66
   1.20625e+60    1.0041e+62  -1.43492e+61  -1.41116e+68  3.66302e+135 -1.84643e+202   1.27478e+68  -1.23891e+67  -2.86241e+67  -1.00102e+68  -9.55176e+66   2.65098e+67   1.76569e+66
   1.82703e+60   9.74925e+61  -1.42931e+61  -1.41219e+68  3.51531e+135 -1.44674e+202   1.28169e+68  -1.24129e+67  -2.86846e+67  -1.00121e+68   9.61495e+66   2.93071e+67   2.03298e+66
  -1.13865e+60    9.7391e+61    8.7292e+60   1.06711e+68  2.09004e+135  5.12396e+201   9.64219e+67   1.24087e+67   2.85299e+67   6.57724e+67    9.6305e+66   2.93065e+67  -2.23347e+66
  -1.65964e+50   1.55551e+62   4.00881e+61   2.49391e+68  7.73156e+135  3.81414e+202   2.33376e+68   1.12844e+67    2.8236e+67   2.09871e+68  -9.63428e+66  -2.80717e+67  -6.37659e+65
  -9.76227e+49   1.54789e+62   1.11145e+61  -8.83376e+64 -2.28369e+135  2.17209e+202   4.77881e+67  -1.27231e+67  -2.93362e+67    4.1971e+67  -9.62954e+66  -2.82626e+67  -4.05162e+65
  -3.79821e+59   1.54213e+62   1.10903e+61   -1.3784e+65 -2.27475e+135  2.20821e+202   4.76945e+67  -1.27345e+67  -2.93368e+67   4.19334e+67   9.67132e+66  -2.81136e+67  -4.89898e+65
  -1.38347e+60   1.54975e+62     4.005e+61   2.49536e+68   7.7587e+135  3.93567e+202   2.33472e+68   1.13177e+67   2.82802e+67   2.09938e+68   9.66658e+66  -2.79211e+67  -1.19171e+66
  -1.41767e+50   1.28038e+62   3.61278e+61   2.53719e+68  8.60226e+135  5.40856e+202   2.36159e+68   1.32329e+67   2.96166e+67    2.1087e+68  -9.53427e+66   2.70922e+67  -6.52007e+65
  -8.15331e+49   1.27285e+62   1.00227e+61   1.62475e+66 -2.19277e+135  1.99164e+202   4.68552e+67  -1.21825e+67  -2.85591e+67   4.23663e+67  -9.52821e+66   2.69012e+67  -3.93963e+65
   -3.8092e+59   1.26707e+62   9.99882e+60     1.587e+66  -2.2024e+135  1.95509e+202   4.69565e+67  -1.21912e+67  -2.85536e+67   4.23319e+67   9.58304e+66   2.70857e+67  -4.77488e+65
   -1.3747e+60   1.27459e+62   3.60883e+61   2.53872e+68  8.61285e+135  5.31405e+202   2.36301e+68   1.32683e+67   2.96661e+67   2.10938e+68   9.57698e+66   2.72781e+67  -1.19814e+66
  -9.76227e+49   1.54789e+62   1.11145e+61    1.0808e+68  2.22153e+135  7.53874e+201   9.72615e+67   1.22389e+67   2.89084e+67    6.6933e+67  -9.62954e+66   -2.8169e+67  -4.05162e+65
  -2.88665e+49   1.54892e+62  -1.78543e+61  -1.41397e+68  3.53398e+135 -1.54585e+202   1.28293e+68  -1.17727e+67  -2.86633e+67  -1.00961e+68  -9.63146e+66  -2.81626e+67  -1.72426e+65
   6.23683e+59   1.54316e+62  -1.78646e+61  -1.41694e+68  3.56514e+135 -1.57806e+202     1.285e+68  -1.18413e+67  -2.87363e+67  -1.01117e+68   9.66671e+66   -2.8013e+67   2.13047e+65
  -3.79821e+59   1.54213e+62   1.10903e+61   1.07981e+68  2.22272e+135  8.01264e+201   9.71451e+67    1.2216e+67   2.88811e+67   6.68839e+67   9.66863e+66  -2.80196e+67  -4.89898e+65
  -8.15331e+49   1.27285e+62   1.00227e+61   1.08511e+68  2.32285e+135  9.28032e+201   9.72202e+67   1.24835e+67    2.8995e+67   6.70324e+67  -9.52821e+66   2.69922e+67  -3.93963e+65
  -2.09007e+49   1.27388e+62  -1.60777e+61  -1.43586e+68  3.83155e+135 -1.95929e+202   1.29559e+68  -1.29387e+67  -2.91812e+67  -1.01466e+68  -9.53039e+66   2.69986e+67  -1.35111e+65
   6.12677e+59    1.2681e+62  -1.60859e+61  -1.43882e+68  3.84435e+135 -1.96054e+202   1.29837e+68  -1.30069e+67  -2.92545e+67   -1.0162e+68   9.57724e+66   2.71842e+67   2.44854e+65
   -3.8092e+59   1.26707e+62   9.99882e+60   1.08411e+68  2.30526e+135  8.57141e+201   9.71988e+67   1.24604e+67   2.89668e+67   6.69835e+67   9.57942e+66   2.71776e+67  -4.77488e+65
  -1.38347e+60   1.54975e+62     4.005e+61   2.49175e+68  7.67712e+135  3.60813e+202   2.33262e+68   1.11693e+67   2.81969e+67   2.09809e+68  -9.64102e+66  -2.82429e+67  -2.56901e+66
  -3.79821e+59   1.54213e+62   1.10903e+61  -6.32991e+64 -2.29185e+135  2.12602e+202   4.78733e+67  -1.26672e+67  -2.93196e+67   4.19235e+67  -9.63051e+66  -2.84352e+67  -1.30355e+66
  -7.58147e+59   1.52483e+62   1.10174e+61  -1.83074e+65 -2.25783e+135  2.22673e+202   4.75169e+67  -1.26949e+67   -2.9323e+67   4.18349e+67   9.73646e+66   -2.7848e+67  -1.39726e+66
  -2.76887e+60   1.53245e+62   3.99295e+61   2.49455e+68  7.74552e+135  3.96514e+202   2.33414e+68   1.12339e+67   2.82857e+67   2.09935e+68   9.72595e+66  -2.76525e+67  -3.08818e+66
   -1.3747e+60   1.27459e+62   3.60883e+61   2.53316e+68  8.52822e+135  5.34661e+202   2.35883e+68    1.3015e+67   2.95377e+67   2.10763e+68  -9.55299e+66   2.69593e+67  -2.58815e+66
   -3.8092e+59   1.26707e+62   9.99882e+60   1.71317e+66 -2.18373e+135  2.01198e+202   4.67617e+67  -1.20966e+67  -2.85245e+67   4.23343e+67  -9.53977e+66    2.6767e+67  -1.27607e+66
  -7.59855e+59   1.24969e+62   9.92643e+60   1.61792e+66 -2.21954e+135  1.90869e+202   4.71398e+67  -1.21186e+67  -2.85157e+67   4.22522e+67   9.68242e+66   2.74336e+67  -1.36844e+66
  -2.75319e+60    1.2572e+62   3.59645e+61   2.53615e+68  8.53096e+135   5.0133e+202   2.36198e+68   1.30839e+67   2.96374e+67   2.10893e+68    9.6692e+66   2.76291e+67   -3.0999e+66
  -3.79821e+59   1.54213e+62   1.10903e+61   1.08056e+68  2.21121e+135  6.90493e+201   9.72872e+67   1.22833e+67   2.88983e+67    6.6874e+67   -9.6332e+66  -2.83413e+67  -1.30355e+66
   6.23683e+59   1.54316e+62  -1.78646e+61  -1.41182e+68  3.49296e+135 -1.47686e+202   1.28216e+68  -1.15569e+67   -2.8618e+67  -1.01007e+68  -9.63648e+66  -2.83347e+67  -3.69223e+64
   1.25233e+60   1.52586e+62  -1.78899e+61  -1.41816e+68  3.57396e+135 -1.56802e+202     1.286e+68  -1.17033e+67   -2.8772e+67  -1.01341e+68    9.7283e+66  -2.77462e+67   2.94641e+65
  -7.58147e+59   1.52483e+62   1.10174e+61   1.07833e+68  2.22781e+135  8.50477e+201   9.69541e+67   1.22319e+67   2.88393e+67   6.67616e+67   9.73158e+66  -2.77538e+67  -1.39726e+66
   -3.8092e+59   1.26707e+62   9.99882e+60   1.08537e+68  2.33327e+135  9.83479e+201   9.71956e+67    1.2555e+67   2.89959e+67    6.6986e+67  -9.54339e+66   2.68589e+67  -1.27607e+66
   6.12677e+59    1.2681e+62  -1.60859e+61  -1.43064e+68  3.77457e+135 -1.87392e+202     1.292e+68  -1.25597e+67  -2.90658e+67  -1.01438e+68  -9.54744e+66   2.68655e+67    3.8784e+64
   1.23319e+60   1.25071e+62  -1.61067e+61  -1.43696e+68  3.78623e+135 -1.84304e+202   1.29855e+68  -1.27055e+67  -2.92211e+67  -1.01769e+68    9.6727e+66   2.75352e+67    3.6561e+65
  -7.59855e+59   1.24969e+62   9.92643e+60   1.08311e+68  2.27952e+135  7.67263e+201   9.72198e+67   1.25028e+67   2.89343e+67   6.68736e+67   9.67676e+66   2.75277e+67  -1.36844e+66
  -2.76887e+60   1.53245e+62   3.99295e+61   2.49167e+68  7.66792e+135  3.36071e+202   2.33273e+68   1.12791e+67   2.82193e+67   2.09669e+68  -9.69512e+66  -2.82999e+67  -6.08856e+66
  -7.58147e+59   1.52483e+62   1.10174e+61  -8.74528e+64 -2.29265e+135  2.06529e+202   4.78817e+67  -1.25888e+67   -2.9301e+67   4.18023e+67  -9.67239e+66   -2.8495e+67  -2.21517e+66
  -1.13396e+60   1.49592e+62   1.08954e+61  -9.51728e+64 -2.12942e+135  2.09753e+202   4.61457e+67  -1.25906e+67  -2.92505e+67   4.17459e+67   9.67858e+66  -2.55334e+67  -2.31861e+66
  -4.15094e+60   1.50352e+62   3.96295e+61   2.48776e+68  7.78155e+135  4.13199e+202   2.32611e+68   1.11889e+67   2.81813e+67   2.09406e+68   9.65586e+66  -2.53353e+67  -6.55757e+66
  -2.75319e+60    1.2572e+62   3.59645e+61   2.53069e+68  8.47451e+135  5.37404e+202   2.35732e+68   1.29837e+67   2.95116e+67   2.10574e+68  -9.63493e+66   2.69856e+67  -6.00119e+66
  -7.59855e+59   1.24969e+62   9.92643e+60   1.76711e+66 -2.18246e+135  2.03784e+202   4.67503e+67  -1.19835e+67  -2.84812e+67   4.22318e+67  -9.60963e+66   2.67905e+67  -2.18881e+66
  -1.13574e+60    1.2206e+62   9.80418e+60    1.7839e+66 -2.34714e+135  1.98626e+202   4.84801e+67  -1.19796e+67  -2.84184e+67   4.21819e+67    9.6562e+66   2.97494e+67  -2.29076e+66
   -4.1309e+60    1.2281e+62   3.56646e+61   2.52708e+68  8.26401e+135  4.39671e+202   2.35791e+68   1.29004e+67   2.94873e+67   2.10321e+68    9.6309e+66   2.99474e+67   -6.4635e+66
  -7.58147e+59   1.52483e+62   1.10174e+61   1.07928e+68  2.20013e+135  6.20136e+201    9.7203e+67    1.2338e+67   2.88614e+67    6.6729e+67  -9.67727e+66  -2.84008e+67  -2.21517e+66
   1.25233e+60   1.52586e+62  -1.78899e+61   -1.4133e+68  3.49271e+135 -1.36461e+202   1.28381e+68  -1.15327e+67  -2.86599e+67  -1.01138e+68  -9.68848e+66  -2.83935e+67   1.65875e+66
   1.88271e+60   1.49695e+62  -1.78338e+61  -1.41217e+68  3.64495e+135 -1.72886e+202   1.27661e+68  -1.15066e+67  -2.86596e+67  -1.01051e+68   9.66152e+66  -2.54289e+67   1.91998e+66
  -1.13396e+60   1.49592e+62   1.08954e+61   1.07667e+68   2.3419e+135  1.03426e+202   9.61785e+67   1.22777e+67   2.87753e+67   6.66141e+67   9.67273e+66  -2.54394e+67  -2.31861e+66
  -7.59855e+59   1.24969e+62   9.92643e+60    1.0846e+68  2.32762e+135  1.01528e+202   9.71387e+67   1.26379e+67   2.89687e+67   6.68532e+67  -9.61529e+66   2.68846e+67  -2.18881e+66
   1.23319e+60   1.25071e+62  -1.61067e+61  -1.42841e+68  3.73617e+135 -1.87555e+202   1.29103e+68  -1.23292e+67  -2.90239e+67  -1.01488e+68  -9.62924e+66   2.68918e+67   1.62532e+66
   1.85913e+60   1.22162e+62  -1.60513e+61  -1.42753e+68  3.56239e+135 -1.46689e+202   1.29677e+68  -1.23088e+67  -2.90361e+67  -1.01408e+68   9.63651e+66    2.9855e+67   1.88283e+66
  -1.13574e+60    1.2206e+62   9.80418e+60   1.08179e+68  2.13971e+135  5.33987e+201   9.77907e+67   1.25731e+67   2.88714e+67   6.67346e+67   9.65046e+66   2.98446e+67  -2.29076e+66
  -1.91776e+50   1.85955e+62   4.41091e+61   2.52702e+68  7.87164e+135  3.83257e+202   2.36615e+68   1.11374e+67   2.85977e+67   2.12967e+68  -9.70847e+66  -2.85391e+67   -6.3075e+65
  -1.14973e+50   1.85182e+62   1.22216e+61  -1.94425e+64 -2.35139e+135  2.26932e+202   4.84912e+67  -1.28748e+67  -2.97227e+67    4.2578e+67  -9.70434e+66  -2.87403e+67  -4.12753e+65
  -3.79257e+59    1.8461e+62   1.21973e+61  -4.56754e+64 -2.34188e+135  2.30668e+202    4.8393e+67  -1.28809e+67  -2.97194e+67   4.25545e+67     9.738e+66  -2.85792e+67  -5.09156e+65
  -1.39026e+60   1.85383e+62   4.40719e+61   2.52784e+68  7.89171e+135  3.94586e+202    2.3666e+68   1.11563e+67    2.8626e+67   2.13002e+68   9.73386e+66  -2.83774e+67  -1.15453e+66
  -1.65964e+50   1.55551e+62   4.00881e+61    2.5697e+68  8.74543e+135  5.42264e+202    2.3935e+68   1.30333e+67    2.9985e+67   2.13952e+68  -9.63435e+66   2.74952e+67  -6.37641e+65
  -9.76227e+49   1.54789e+62   1.11145e+61   1.83302e+66 -2.25371e+135  2.06359e+202   4.75086e+67  -1.22796e+67  -2.88928e+67   4.30055e+67  -9.62961e+66    2.7294e+67  -4.05171e+65
  -3.79821e+59   1.54213e+62   1.10903e+61   1.81259e+66 -2.26357e+135  2.02482e+202   4.76116e+67  -1.22844e+67  -2.88867e+67   4.29836e+67   9.67125e+66   2.74766e+67  -5.00176e+65
  -1.38347e+60   1.54975e+62     4.005e+61   2.57056e+68  8.74714e+135  5.31877e+202   2.39439e+68   1.30532e+67   3.00158e+67   2.13988e+68   9.66651e+66   2.76785e+67  -1.15383e+66
  -1.14973e+50   1.85182e+62   1.22216e+61   1.09532e+68  2.27617e+135  7.83496e+201   9.85961e+67   1.24064e+67   2.92668e+67   6.78592e+67  -9.70434e+66  -2.86444e+67  -4.12753e+65
  -3.78471e+49   1.85286e+62  -1.96608e+61  -1.43189e+68  3.59229e+135 -1.55139e+202   1.30041e+68  -1.16102e+67  -2.90535e+67  -1.02525e+68  -9.70587e+66  -2.86327e+67  -1.94785e+65
   6.31612e+59   1.84714e+62  -1.96723e+61  -1.43367e+68  3.61526e+135 -1.56979e+202   1.30149e+68  -1.16513e+67  -2.90981e+67  -1.02618e+68   9.73391e+66  -2.84712e+67   1.36289e+65
  -3.79257e+59    1.8461e+62   1.21973e+61   1.09465e+68  2.28023e+135  8.37392e+201      9.85e+67   1.23907e+67   2.92477e+67   6.78261e+67   9.73545e+66  -2.84833e+67  -5.09156e+65
  -9.76227e+49   1.54789e+62   1.11145e+61   1.10002e+68  2.38622e+135  9.69431e+201   9.85603e+67   1.26823e+67   2.93518e+67   6.79675e+67  -9.62961e+66   2.73877e+67  -4.05171e+65
  -2.88665e+49   1.54892e+62  -1.78543e+61  -1.45136e+68   3.8711e+135 -1.92868e+202   1.31123e+68  -1.26353e+67  -2.95261e+67  -1.02974e+68  -9.63152e+66   2.73993e+67  -1.72462e+65
   6.23683e+59   1.54316e+62  -1.78646e+61  -1.45315e+68  3.87498e+135 -1.92783e+202   1.31306e+68  -1.26766e+67  -2.95718e+67  -1.03066e+68   9.66665e+66   2.75827e+67   1.53813e+65
  -3.79821e+59   1.54213e+62   1.10903e+61   1.09931e+68   2.3707e+135  8.98584e+201   9.85608e+67   1.26661e+67   2.93312e+67   6.79341e+67   9.66856e+66   2.75706e+67  -5.00176e+65
  -1.39026e+60   1.85383e+62   4.40719e+61   2.52555e+68  7.83422e+135  3.66103e+202   2.36537e+68   1.10791e+67   2.85732e+67   2.12903e+68  -9.70806e+66  -2.87014e+67  -2.53354e+66
  -3.79257e+59    1.8461e+62   1.21973e+61   2.66637e+63 -2.35954e+135  2.22296e+202   4.85751e+67  -1.28273e+67  -2.97082e+67   4.25382e+67  -9.69861e+66  -2.89032e+67  -1.33444e+66
  -7.57266e+59   1.82893e+62   1.21243e+61  -7.08123e+64 -2.32273e+135  2.32619e+202   4.81948e+67  -1.28443e+67  -2.97037e+67   4.24772e+67   9.78153e+66  -2.82701e+67  -1.43525e+66
  -2.78123e+60   1.83665e+62   4.39535e+61   2.52661e+68  7.88373e+135  3.99849e+202   2.36546e+68   1.11034e+67    2.8619e+67   2.12938e+68   9.77208e+66  -2.80671e+67  -3.03397e+66
  -1.38347e+60   1.54975e+62     4.005e+61   2.56696e+68  8.69969e+135  5.42154e+202   2.39151e+68   1.29049e+67   2.99326e+67   2.13858e+68  -9.64119e+66   2.73567e+67  -2.53109e+66
  -3.79821e+59   1.54213e+62   1.10903e+61   1.88707e+66 -2.24481e+135  2.09169e+202    4.7417e+67  -1.22171e+67  -2.88695e+67   4.29737e+67  -9.63069e+66   2.71549e+67  -1.31384e+66
  -7.58147e+59   1.52483e+62   1.10174e+61   1.82455e+66 -2.28188e+135  1.98476e+202   4.78038e+67  -1.22315e+67  -2.88597e+67   4.29159e+67   9.73629e+66   2.78319e+67  -1.41318e+66
  -2.76887e+60   1.53245e+62   3.99295e+61    2.5681e+68  8.67718e+135  5.06114e+202    2.3932e+68   1.29312e+67    2.9983e+67   2.13896e+68   9.72578e+66   2.80349e+67  -3.02427e+66
  -3.79257e+59    1.8461e+62   1.21973e+61   1.09513e+68  2.26623e+135  7.18319e+201   9.86247e+67   1.24443e+67   2.92588e+67   6.78098e+67  -9.70117e+66  -2.88073e+67  -1.33444e+66
   6.31612e+59   1.84714e+62  -1.96723e+61  -1.43042e+68  3.56185e+135 -1.50423e+202   1.29997e+68  -1.14673e+67  -2.90231e+67  -1.02552e+68  -9.70334e+66  -2.87952e+67  -1.35632e+65
   1.26643e+60   1.82996e+62  -1.96998e+61  -1.43385e+68  3.62388e+135  -1.5644e+202   1.30136e+68  -1.15465e+67  -2.91072e+67  -1.02732e+68   9.77414e+66  -2.81612e+67   1.62675e+65
  -7.57266e+59   1.82893e+62   1.21243e+61   1.09354e+68  2.29028e+135  8.96075e+201   9.83259e+67   1.24076e+67   2.92172e+67    6.7729e+67   9.77631e+66  -2.81746e+67  -1.43525e+66
  -3.79821e+59   1.54213e+62   1.10903e+61   1.10006e+68  2.39504e+135  1.02646e+202   9.85203e+67   1.27334e+67   2.93484e+67   6.79242e+67  -9.63337e+66   2.72489e+67  -1.31384e+66
   6.23683e+59   1.54316e+62  -1.78646e+61  -1.44802e+68  3.83727e+135 -1.87576e+202   1.30883e+68  -1.23923e+67  -2.94535e+67  -1.02956e+68  -9.63665e+66   2.72609e+67  -9.62089e+64
   1.25233e+60   1.52586e+62  -1.78899e+61  -1.45149e+68  3.82624e+135 -1.83948e+202   1.31309e+68  -1.24723e+67  -2.95411e+67  -1.03136e+68   9.72813e+66   2.79395e+67   1.97775e+65
  -7.58147e+59   1.52483e+62   1.10174e+61    1.0984e+68  2.34468e+135  8.08569e+201   9.85913e+67   1.26952e+67   2.93026e+67   6.78426e+67   9.73141e+66   2.79262e+67  -1.41318e+66
  -2.78123e+60   1.83665e+62   4.39535e+61   2.52548e+68  7.83909e+135  3.44387e+202    2.3652e+68   1.12488e+67    2.8593e+67   2.12706e+68  -9.74521e+66  -2.87177e+67   -6.1219e+66
  -7.57266e+59   1.82893e+62   1.21243e+61   6.60621e+62  -2.3585e+135  2.15991e+202   4.85644e+67  -1.27509e+67  -2.96872e+67   4.24388e+67  -9.72309e+66  -2.89202e+67  -2.25709e+66
  -1.13301e+60   1.80026e+62   1.20028e+61  -8.13615e+63 -2.18552e+135  2.18857e+202   4.67496e+67  -1.27529e+67  -2.96391e+67   4.23839e+67    9.7034e+66  -2.58269e+67  -2.36201e+66
  -4.16716e+60   1.80797e+62   4.36529e+61   2.52085e+68  7.95221e+135  4.23415e+202   2.35786e+68    1.1142e+67   2.85363e+67   2.12407e+68   9.68128e+66  -2.56237e+67    -6.588e+66
  -2.76887e+60   1.53245e+62   3.99295e+61   2.56522e+68  8.67108e+135  5.52331e+202   2.39024e+68   1.29765e+67   2.99167e+67   2.13629e+68  -9.69533e+66   2.73875e+67  -6.02468e+66
  -7.58147e+59   1.52483e+62   1.10174e+61    1.9201e+66 -2.24452e+135  2.12608e+202   4.74153e+67  -1.21255e+67  -2.88377e+67   4.28833e+67  -9.67261e+66    2.7185e+67  -2.23108e+66
  -1.13396e+60   1.49592e+62   1.08954e+61   1.92069e+66 -2.41826e+135  2.08326e+202   4.92133e+67  -1.21253e+67  -2.87853e+67   4.28313e+67   9.67836e+66   3.02641e+67  -2.33448e+66
  -4.15094e+60   1.50352e+62   3.96295e+61   2.56075e+68  8.43877e+135  4.51123e+202   2.39031e+68   1.28734e+67   2.98658e+67   2.13336e+68   9.65564e+66   3.04673e+67  -6.48403e+66
  -7.57266e+59   1.82893e+62   1.21243e+61   1.09425e+68  2.25989e+135  6.52984e+201   9.85596e+67   1.25009e+67   2.92337e+67   6.76906e+67  -9.72831e+66  -2.88247e+67  -2.25709e+66
   1.26643e+60   1.82996e+62  -1.96998e+61  -1.43124e+68  3.56593e+135 -1.40213e+202   1.30071e+68  -1.15022e+67  -2.90469e+67  -1.02575e+68  -9.73689e+66  -2.88116e+67   1.60671e+66
   1.90078e+60   1.80129e+62  -1.96423e+61  -1.42908e+68  3.71926e+135 -1.76804e+202   1.29242e+68  -1.14523e+67  -2.90165e+67  -1.02439e+68   9.68789e+66   -2.5716e+67   1.86222e+66
  -1.13301e+60   1.80026e+62   1.20028e+61    1.0919e+68  2.41314e+135  1.09495e+202   9.75162e+67   1.24467e+67   2.91601e+67   6.75836e+67   9.69647e+66  -2.57322e+67  -2.36201e+66
  -7.58147e+59   1.52483e+62   1.10174e+61   1.09936e+68  2.38917e+135  1.06106e+202   9.84721e+67   1.28013e+67   2.93247e+67     6.781e+67  -9.67749e+66   2.72792e+67  -2.23108e+66
   1.25233e+60   1.52586e+62  -1.78899e+61  -1.44664e+68  3.81633e+135 -1.91935e+202    1.3081e+68  -1.23018e+67  -2.94291e+67  -1.02933e+68  -9.68871e+66   2.72923e+67   1.56194e+66
   1.88271e+60   1.49695e+62  -1.78338e+61  -1.44472e+68  3.62495e+135 -1.49956e+202   1.31329e+68  -1.22577e+67  -2.94107e+67  -1.02804e+68    9.6613e+66   3.03741e+67   1.81374e+66
  -1.13396e+60   1.49592e+62   1.08954e+61   1.09683e+68  2.19425e+135  5.61728e+201   9.91772e+67   1.27429e+67   2.92405e+67   6.76996e+67   9.67251e+66   3.03581e+67  -2.33448e+66
  -2.18811e+50   2.19293e+62   4.81918e+61   2.56162e+68  8.03261e+135  3.88832e+202   2.39972e+68   1.10417e+67   2.89765e+67   2.16144e+68  -9.76608e+66  -2.90046e+67  -6.29628e+65
  -1.33677e+50    2.1851e+62    1.3345e+61   4.32467e+64 -2.42164e+135  2.37634e+202   4.92101e+67  -1.30438e+67  -3.01278e+67   4.32149e+67  -9.76219e+66  -2.92144e+67  -4.18888e+65
  -3.79009e+59   2.17943e+62   1.33206e+61   2.63819e+64 -2.41154e+135  2.41496e+202   4.91075e+67  -1.30477e+67   -3.0123e+67   4.31971e+67   9.79095e+66  -2.90446e+67  -5.22898e+65
  -1.39577e+60   2.18726e+62   4.81553e+61   2.56199e+68  8.04753e+135  3.99643e+202    2.3998e+68   1.10502e+67   2.89936e+67   2.16155e+68   9.78705e+66  -2.88345e+67  -1.13626e+66
  -1.91776e+50   1.85955e+62   4.41091e+61   2.60432e+68   8.9213e+135   5.5037e+202     2.427e+68   1.29211e+67   3.03814e+67   2.17129e+68  -9.70851e+66   2.79077e+67  -6.30736e+65
  -1.14973e+50   1.85182e+62   1.22216e+61   2.00359e+66 -2.31786e+135  2.14849e+202   4.81858e+67  -1.24079e+67  -2.92558e+67   4.36673e+67  -9.70438e+66   2.76979e+67  -4.12757e+65
  -3.79257e+59    1.8461e+62   1.21973e+61   1.98953e+66  -2.3279e+135  2.10821e+202   4.82893e+67  -1.24111e+67  -2.92497e+67   4.36504e+67   9.73796e+66   2.78804e+67  -5.15238e+65
  -1.39026e+60   1.85383e+62   4.40719e+61    2.6047e+68  8.91658e+135  5.39177e+202   2.42751e+68     1.293e+67   3.03997e+67    2.1714e+68   9.73382e+66   2.80904e+67  -1.12992e+66
  -1.33677e+50    2.1851e+62    1.3345e+61   1.11061e+68  2.33628e+135  8.20253e+201   9.99911e+67   1.25756e+67   2.96508e+67   6.88343e+67  -9.76219e+66  -2.91161e+67  -4.18888e+65
  -4.80565e+49   2.18614e+62  -2.14968e+61  -1.45059e+68  3.66139e+135 -1.57467e+202   1.31836e+68   -1.1515e+67  -2.94537e+67   -1.0409e+68  -9.76335e+66  -2.91004e+67  -2.08275e+65
   6.37612e+59   2.18047e+62  -2.15089e+61  -1.45166e+68  3.67959e+135 -1.58477e+202   1.31885e+68  -1.15399e+67  -2.94811e+67  -1.04145e+68   9.78705e+66  -2.89304e+67    9.0113e+64
  -3.79009e+59   2.17943e+62   1.33206e+61   1.11007e+68  2.34198e+135  8.78781e+201    9.9903e+67   1.25632e+67   2.96358e+67   6.88081e+67   9.78821e+66  -2.89465e+67  -5.22898e+65
  -1.14973e+50   1.85182e+62   1.22216e+61   1.11556e+68  2.45362e+135  1.01713e+202   9.99551e+67   1.28733e+67   2.97337e+67   6.89485e+67  -9.70438e+66   2.77938e+67  -4.12757e+65
  -3.78471e+49   1.85286e+62  -1.96608e+61  -1.46872e+68  3.93232e+135 -1.93518e+202   1.32812e+68    -1.246e+67  -2.99034e+67  -1.04508e+68  -9.70591e+66   2.78095e+67  -1.94806e+65
   6.31612e+59   1.84714e+62  -1.96723e+61  -1.46981e+68  3.93067e+135 -1.93315e+202   1.32939e+68  -1.24852e+67   -2.9932e+67  -1.04564e+68   9.73387e+66   2.79923e+67   9.91934e+64
  -3.79257e+59    1.8461e+62   1.21973e+61     1.115e+68  2.43901e+135  9.45412e+201   9.99659e+67   1.28604e+67   2.97173e+67    6.8922e+67    9.7354e+66   2.79763e+67  -5.15238e+65
  -1.39577e+60   2.18726e+62   4.81553e+61   2.56059e+68  8.00661e+135  3.73872e+202   2.39916e+68   1.10216e+67   2.89615e+67   2.16076e+68  -9.76135e+66  -2.91603e+67  -2.52804e+66
  -3.79009e+59   2.17943e+62   1.33206e+61   6.36437e+64 -2.42967e+135  2.32878e+202   4.92917e+67  -1.29998e+67  -3.01144e+67   4.31779e+67  -9.75216e+66  -2.93703e+67  -1.35903e+66
  -7.56876e+59   2.16241e+62   1.32477e+61   5.47547e+63 -2.39017e+135  2.43469e+202   4.88893e+67  -1.30132e+67  -3.01073e+67    4.3126e+67   9.82091e+66   -2.8701e+67  -1.46476e+66
  -2.79144e+60   2.17024e+62   4.80379e+61   2.56038e+68  8.04259e+135  4.06513e+202   2.39819e+68   1.10167e+67   2.89772e+67   2.16044e+68   9.81172e+66  -2.84907e+67  -3.01881e+66
  -1.39026e+60   1.85383e+62   4.40719e+61   2.60241e+68  8.89465e+135  5.54518e+202   2.42551e+68   1.28528e+67   3.03469e+67   2.17042e+68  -9.70817e+66   2.77664e+67   -2.5089e+66
  -3.79257e+59    1.8461e+62   1.21973e+61   2.03784e+66 -2.30891e+135  2.18142e+202   4.80943e+67  -1.23576e+67  -2.92385e+67    4.3634e+67  -9.69872e+66   2.75564e+67  -1.34052e+66
  -7.57266e+59   1.82893e+62   1.21243e+61   1.98439e+66 -2.34715e+135  2.07211e+202    4.8488e+67    -1.237e+67  -2.92295e+67   4.35838e+67   9.78142e+66   2.82469e+67   -1.4447e+66
  -2.78123e+60   1.83665e+62   4.39535e+61   2.60224e+68  8.85365e+135  5.16024e+202   2.42617e+68   1.28489e+67   3.03644e+67   2.17011e+68   9.77197e+66   2.84572e+67  -2.99246e+66
  -3.79009e+59   2.17943e+62   1.33206e+61   1.11044e+68   2.3267e+135  7.53405e+201   1.00021e+68   1.26112e+67   2.96444e+67   6.87888e+67   -9.7549e+66  -2.92722e+67  -1.35903e+66
   6.37612e+59   2.18047e+62  -2.15089e+61  -1.44955e+68  3.63752e+135 -1.54091e+202   1.31812e+68  -1.14167e+67  -2.94324e+67  -1.04106e+68  -9.75604e+66  -2.92561e+67  -1.90826e+65
   1.27738e+60   2.16346e+62  -2.15373e+61  -1.45127e+68    3.689e+135 -1.58358e+202   1.31806e+68  -1.14563e+67  -2.94745e+67  -1.04196e+68   9.81388e+66  -2.85863e+67   8.79586e+64
  -7.56876e+59   2.16241e+62   1.32477e+61   1.10911e+68  2.35527e+135  9.44554e+201   9.97298e+67   1.25804e+67   2.96112e+67   6.87196e+67   9.81502e+66  -2.86035e+67  -1.46476e+66
  -3.79257e+59    1.8461e+62   1.21973e+61   1.11548e+68  2.46165e+135  1.07598e+202   9.99065e+67    1.2914e+67   2.97285e+67   6.89056e+67  -9.70128e+66   2.76523e+67  -1.34052e+66
   6.31612e+59   1.84714e+62  -1.96723e+61  -1.46656e+68  3.91302e+135 -1.90301e+202   1.32646e+68  -1.23013e+67  -2.98571e+67  -1.04498e+68  -9.70345e+66   2.76684e+67  -1.72759e+65
   1.26643e+60   1.82996e+62  -1.96998e+61  -1.46833e+68  3.88757e+135 -1.86251e+202   1.32938e+68  -1.23421e+67  -2.99028e+67  -1.04588e+68   9.77402e+66   2.83596e+67   1.01926e+65
  -7.57266e+59   1.82893e+62   1.21243e+61   1.11409e+68   2.4121e+135  8.53905e+201   9.99994e+67   1.28819e+67   2.96915e+67   6.88356e+67   9.77619e+66   2.83424e+67   -1.4447e+66
  -2.79144e+60   2.17024e+62   4.80379e+61   2.56045e+68  8.02078e+135  3.53908e+202   2.39871e+68   1.12317e+67   2.89787e+67   2.15834e+68  -9.78828e+66  -2.91441e+67  -6.18743e+66
  -7.56876e+59   2.16241e+62   1.32477e+61   6.87876e+64 -2.42675e+135  2.26255e+202   4.92621e+67  -1.29237e+67  -3.00927e+67   4.30852e+67  -9.76595e+66  -2.93539e+67   -2.2949e+66
  -1.13257e+60   2.13402e+62   1.31266e+61   4.50174e+64 -2.24548e+135  2.28881e+202   4.73865e+67  -1.29292e+67  -3.00483e+67   4.30225e+67    9.7297e+66  -2.61637e+67  -2.40173e+66
   -4.1809e+60   2.14184e+62   4.77363e+61   2.55519e+68  8.13294e+135  4.34949e+202   2.39076e+68   1.11105e+67   2.89073e+67   2.15502e+68   9.70737e+66  -2.59541e+67   -6.6544e+66
  -2.78123e+60   1.83665e+62   4.39535e+61   2.60112e+68  8.88272e+135  5.69989e+202   2.42437e+68   1.29943e+67   3.03384e+67   2.16779e+68  -9.74535e+66   2.78066e+67   -6.0804e+66
  -7.57266e+59   1.82893e+62   1.21243e+61   2.05583e+66 -2.30931e+135  2.22162e+202   4.80992e+67  -1.22766e+67   -2.9213e+67   4.35454e+67  -9.72323e+66   2.75968e+67  -2.26654e+66
  -1.13301e+60   1.80026e+62   1.20028e+61   2.03569e+66 -2.49047e+135  2.18551e+202   4.99461e+67  -1.22813e+67  -2.91675e+67   4.34844e+67   9.70325e+66   3.07657e+67   -2.3718e+66
  -4.16716e+60   1.80797e+62   4.36529e+61   2.59598e+68  8.63272e+135  4.65029e+202   2.42401e+68   1.28757e+67   3.02699e+67   2.16452e+68   9.68113e+66   3.09754e+67  -6.54051e+66
  -7.56876e+59   2.16241e+62   1.32477e+61   1.10975e+68  2.32348e+135  6.90813e+201   9.99593e+67   1.26699e+67   2.96258e+67   6.86788e+67  -9.77185e+66  -2.92564e+67   -2.2949e+66
   1.27738e+60   2.16346e+62  -2.15373e+61  -1.45001e+68  3.64513e+135 -1.44455e+202   1.31834e+68  -1.14893e+67  -2.94455e+67  -1.04066e+68  -9.77838e+66  -2.92393e+67   1.59625e+66
   1.91535e+60   2.13506e+62  -2.14781e+61  -1.44733e+68  3.80176e+135 -1.81824e+202   1.30942e+68  -1.14274e+67  -2.93983e+67  -1.03907e+68   9.71506e+66  -2.60475e+67   1.84901e+66
  -1.13257e+60   2.13402e+62   1.31266e+61   1.10741e+68  2.48488e+135  1.15629e+202   9.88876e+67   1.26161e+67   2.95574e+67   6.85678e+67    9.7216e+66  -2.60669e+67  -2.40173e+66
  -7.57266e+59   1.82893e+62   1.21243e+61    1.1148e+68  2.45531e+135  1.11264e+202   9.98628e+67   1.29752e+67    2.9708e+67   6.87973e+67  -9.72846e+66   2.76923e+67  -2.26654e+66
   1.26643e+60   1.82996e+62  -1.96998e+61  -1.46572e+68  3.90281e+135 -1.97461e+202   1.32592e+68  -1.22979e+67  -2.98426e+67  -1.04432e+68  -9.73704e+66   2.77092e+67     1.546e+66
   1.90078e+60   1.80129e+62  -1.96423e+61  -1.46325e+68  3.69868e+135 -1.54155e+202   1.33087e+68  -1.22408e+67  -2.98049e+67  -1.04279e+68   9.68775e+66   3.08798e+67   1.79504e+66
  -1.13301e+60   1.80026e+62   1.20028e+61   1.11234e+68   2.2533e+135  5.94505e+201   1.00597e+68   1.29184e+67   2.96317e+67   6.86841e+67   9.69633e+66   3.08605e+67   -2.3718e+66
  -2.47156e+50   2.55614e+62   5.23378e+61   2.59756e+68  8.21013e+135  3.97093e+202    2.4344e+68   1.09797e+67   2.93704e+67   2.19406e+68  -9.81314e+66  -2.94738e+67  -6.32941e+65
  -1.53474e+50   2.54819e+62   1.44851e+61   9.98845e+64 -2.49464e+135  2.49235e+202   4.99465e+67  -1.32256e+67  -3.05503e+67   4.38757e+67  -9.80929e+66  -2.96915e+67  -4.24698e+65
  -3.78925e+59   2.54258e+62   1.44608e+61   8.52156e+64 -2.48398e+135  2.53228e+202   4.98396e+67   -1.3229e+67  -3.05452e+67   4.38594e+67   9.83517e+66   -2.9515e+67  -5.33478e+65
  -1.40044e+60   2.55052e+62   5.23016e+61    2.5976e+68  8.22133e+135  4.07616e+202   2.43421e+68   1.09805e+67   2.93797e+67   2.19399e+68   9.83132e+66  -2.92972e+67  -1.13067e+66
  -2.18811e+50   2.19293e+62   4.81918e+61   2.64069e+68  9.12225e+135  5.63326e+202   2.46191e+68   1.28664e+67   3.08011e+67   2.20401e+68  -9.76611e+66   2.83311e+67  -6.29617e+65
  -1.33677e+50    2.1851e+62    1.3345e+61   2.14849e+66  -2.3851e+135  2.24425e+202   4.88847e+67   -1.2558e+67   -2.9642e+67   4.43485e+67  -9.76221e+66   2.81133e+67  -4.18889e+65
  -3.79009e+59   2.17943e+62   1.33206e+61   2.13525e+66 -2.39531e+135  2.20281e+202   4.89885e+67   -1.2561e+67  -2.96364e+67   4.43326e+67   9.79092e+66   2.82968e+67  -5.26045e+65
  -1.39577e+60   2.18726e+62   4.81553e+61   2.64073e+68  9.11282e+135  5.51403e+202   2.46215e+68   1.28674e+67   3.08109e+67   2.20395e+68   9.78702e+66   2.85147e+67  -1.11992e+66
  -1.53474e+50   2.54819e+62   1.44851e+61   1.12654e+68  2.40101e+135  8.62817e+201   1.01439e+68   1.27484e+67   3.00557e+67   6.98497e+67  -9.80929e+66  -2.95906e+67  -4.24698e+65
  -5.94282e+49   2.54924e+62  -2.33623e+61  -1.47003e+68  3.73887e+135  -1.6106e+202   1.33683e+68  -1.14625e+67  -2.98652e+67  -1.05676e+68  -9.81016e+66   -2.9572e+67  -2.16602e+65
   6.42431e+59   2.54363e+62  -2.33747e+61   -1.4707e+68  3.75443e+135 -1.61583e+202   1.33698e+68  -1.14779e+67  -2.98825e+67   -1.0571e+68   9.83129e+66  -2.93953e+67   6.32544e+64
  -3.78925e+59   2.54258e+62   1.44608e+61   1.12605e+68  2.40763e+135  9.24908e+201   1.01353e+68   1.27372e+67   3.00426e+67   6.98256e+67   9.83216e+66  -2.94143e+67  -5.33478e+65
  -1.33677e+50    2.1851e+62    1.3345e+61   1.13166e+68  2.52474e+135  1.07032e+202   1.01399e+68   1.30614e+67   3.01366e+67   6.99679e+67  -9.76221e+66   2.82116e+67  -4.18889e+65
  -4.80565e+49   2.18614e+62  -2.14968e+61  -1.48753e+68  4.00933e+135  -1.9676e+202   1.34604e+68  -1.23676e+67  -3.03063e+67   -1.0608e+68  -9.76338e+66   2.82303e+67  -2.08288e+65
   6.37612e+59   2.18047e+62  -2.15089e+61  -1.48821e+68  4.00425e+135  -1.9648e+202   1.34698e+68  -1.23833e+67  -3.03246e+67  -1.06113e+68   9.78702e+66    2.8414e+67    6.7392e+64
  -3.79009e+59   2.17943e+62   1.33206e+61   1.13116e+68  2.51037e+135  9.97075e+201   1.01414e+68   1.30499e+67   3.01225e+67   6.99436e+67   9.78819e+66    2.8395e+67  -5.26045e+65
  -1.40044e+60   2.55052e+62   5.23016e+61   2.59681e+68  8.19181e+135  3.83481e+202   2.43398e+68   1.09854e+67   2.93616e+67   2.19334e+68  -9.80574e+66  -2.96245e+67  -2.54353e+66
  -3.78925e+59   2.54258e+62   1.44608e+61   1.19236e+65 -2.50251e+135  2.44309e+202   5.00252e+67  -1.31824e+67  -3.05374e+67    4.3839e+67  -9.79646e+66  -2.98422e+67  -1.38085e+66
  -7.56742e+59   2.52573e+62   1.43881e+61   6.18779e+64 -2.46045e+135  2.55171e+202    4.9603e+67  -1.31956e+67  -3.05302e+67   4.37877e+67    9.8566e+66  -2.91426e+67  -1.48998e+66
  -2.80021e+60   2.53368e+62   5.21846e+61   2.59569e+68  8.21829e+135  4.15671e+202   2.43224e+68   1.09596e+67   2.93562e+67   2.19254e+68   9.84732e+66   -2.8925e+67   -3.0304e+66
  -1.39577e+60   2.18726e+62   4.81553e+61   2.63934e+68  9.10866e+135  5.70548e+202   2.46074e+68   1.28389e+67   3.07788e+67   2.20317e+68  -9.76142e+66   2.81889e+67  -2.51167e+66
  -3.79009e+59   2.17943e+62   1.33206e+61   2.17249e+66 -2.37601e+135  2.28022e+202   4.87928e+67  -1.25131e+67  -2.96278e+67   4.43134e+67  -9.75223e+66   2.79711e+67  -1.36218e+66
  -7.56876e+59   2.16241e+62   1.32477e+61   2.11732e+66  -2.4155e+135  2.16905e+202   4.91933e+67  -1.25258e+67    -2.962e+67   4.42631e+67   9.82084e+66   2.86775e+67  -1.46967e+66
  -2.79144e+60   2.17024e+62   4.80379e+61   2.63825e+68  9.05387e+135  5.29747e+202   2.46069e+68   1.28137e+67   3.07742e+67   2.20237e+68   9.81165e+66   2.88951e+67  -2.99128e+66
  -3.78925e+59   2.54258e+62   1.44608e+61   1.12639e+68  2.39172e+135  7.94277e+201   1.01469e+68   1.27838e+67   3.00505e+67   6.98052e+67  -9.79947e+66  -2.97415e+67  -1.38085e+66
   6.42431e+59   2.54363e+62  -2.33747e+61  -1.46927e+68  3.71909e+135 -1.58491e+202   1.33673e+68  -1.13914e+67  -2.98495e+67  -1.05686e+68  -9.79982e+66  -2.97225e+67  -2.19051e+65
   1.28639e+60   2.52679e+62  -2.34033e+61  -1.46998e+68  3.76508e+135 -1.61837e+202   1.33579e+68  -1.14079e+67  -2.98667e+67  -1.05724e+68   9.84971e+66  -2.90226e+67   4.91402e+64
  -7.56742e+59   2.52573e+62   1.43881e+61   1.12513e+68  2.42325e+135  9.96435e+201   1.01173e+68   1.27547e+67   3.00206e+67    6.9738e+67   9.85006e+66  -2.90425e+67  -1.48998e+66
  -3.79009e+59   2.17943e+62   1.33206e+61   1.13153e+68  2.53251e+135  1.13123e+202   1.01347e+68   1.30978e+67   3.01311e+67   6.99243e+67  -9.75497e+66   2.80693e+67  -1.36218e+66
   6.37612e+59   2.18047e+62  -2.15089e+61   -1.4861e+68  3.99899e+135  -1.9486e+202   1.34484e+68  -1.22602e+67  -3.02758e+67  -1.06074e+68  -9.75611e+66   2.80882e+67  -2.13566e+65
   1.27738e+60   2.16346e+62  -2.15373e+61  -1.48686e+68  3.96412e+135 -1.90419e+202   1.34698e+68  -1.22778e+67   -3.0296e+67  -1.06113e+68   9.81381e+66   2.87948e+67   5.06225e+64
  -7.56876e+59   2.16241e+62   1.32477e+61   1.13023e+68  2.48229e+135  9.03132e+201   1.01449e+68   1.30678e+67   3.00985e+67   6.98568e+67   9.81495e+66    2.8775e+67  -1.46967e+66
  -2.80021e+60   2.53368e+62   5.21846e+61   2.59656e+68  8.21231e+135  3.64431e+202   2.43329e+68   1.12231e+67   2.93763e+67   2.19057e+68  -9.82665e+66  -2.95808e+67  -6.27566e+66
  -7.56742e+59   2.52573e+62   1.43881e+61   1.24487e+65  -2.4978e+135  2.37314e+202   4.99781e+67  -1.31057e+67  -3.05157e+67   4.37459e+67  -9.80385e+66   -2.9798e+67  -2.33107e+66
   -1.1324e+60   2.49765e+62   1.42671e+61    8.4226e+64  -2.3092e+135  2.39755e+202   4.80542e+67   -1.3115e+67  -3.04748e+67   4.36741e+67   9.75676e+66  -2.65327e+67   -2.4399e+66
  -4.19302e+60   2.50558e+62   5.18817e+61   2.59081e+68  8.32398e+135  4.47711e+202   2.42485e+68   1.10904e+67   2.92937e+67   2.18697e+68   9.73395e+66   -2.6316e+67   -6.7458e+66
  -2.79144e+60   2.17024e+62   4.80379e+61   2.63832e+68  9.10778e+135  5.89888e+202   2.45966e+68   1.30287e+67   3.07757e+67   2.20027e+68  -9.78837e+66   2.82418e+67  -6.15991e+66
  -7.56876e+59   2.16241e+62   1.32477e+61   2.18061e+66 -2.37704e+135  2.32468e+202   4.88036e+67  -1.24363e+67  -2.96054e+67   4.42223e+67  -9.76605e+66   2.80246e+67   -2.2998e+66
  -1.13257e+60   2.13402e+62   1.31266e+61   2.14233e+66 -2.56476e+135  2.29366e+202   5.06888e+67  -1.24452e+67  -2.95643e+67   4.41518e+67    9.7296e+66   3.12641e+67  -2.40701e+66
   -4.1809e+60   2.14184e+62   4.77363e+61   2.63267e+68  8.84308e+135  4.80946e+202   2.45899e+68   1.28983e+67   3.06951e+67   2.19673e+68   9.70728e+66   3.14807e+67  -6.62304e+66
  -7.56742e+59   2.52573e+62   1.43881e+61   1.12576e+68  2.39069e+135  7.33015e+201   1.01403e+68   1.28446e+67    3.0035e+67   6.96963e+67  -9.81039e+66  -2.96978e+67  -2.33107e+66
   1.28639e+60   2.52679e+62  -2.34033e+61  -1.46954e+68  3.72968e+135 -1.49137e+202   1.33663e+68  -1.14884e+67  -2.98565e+67  -1.05609e+68  -9.81554e+66  -2.96781e+67   1.61222e+66
   1.92775e+60    2.4987e+62  -2.33423e+61  -1.46659e+68  3.89052e+135 -1.87643e+202   1.32734e+68  -1.14203e+67  -2.97997e+67  -1.05439e+68   9.74254e+66  -2.64119e+67   1.86435e+66
   -1.1324e+60   2.49765e+62   1.42671e+61   1.12336e+68  2.55857e+135   1.2199e+202   1.00303e+68   1.27891e+67   2.99683e+67   6.95783e+67   9.74769e+66  -2.64332e+67   -2.4399e+66
  -7.56876e+59   2.16241e+62   1.32477e+61   1.13086e+68  2.52554e+135  1.16941e+202   1.01306e+68   1.31573e+67   3.01131e+67   6.98159e+67  -9.77194e+66   2.81221e+67   -2.2998e+66
   1.27738e+60   2.16346e+62  -2.15373e+61  -1.48561e+68  3.99512e+135 -2.03912e+202   1.34444e+68  -1.23108e+67   -3.0267e+67  -1.05983e+68  -9.77848e+66   2.81417e+67   1.55893e+66
   1.91535e+60   2.13506e+62  -2.14781e+61  -1.48281e+68  3.78093e+135 -1.59089e+202   1.34931e+68  -1.22462e+67   -3.0217e+67  -1.05818e+68   9.71497e+66    3.1382e+67    1.8073e+66
  -1.13257e+60   2.13402e+62   1.31266e+61   1.12839e+68  2.31658e+135  6.31634e+201   1.02059e+68   1.31001e+67   3.00414e+67   6.96971e+67    9.7215e+66   3.13609e+67  -2.40701e+66
  -2.76951e+50   2.94962e+62   5.65487e+61   2.63478e+68  8.40158e+135  4.07373e+202    2.4702e+68   1.09398e+67   2.97783e+67   2.22759e+68  -9.85347e+66  -2.99507e+67  -6.39596e+65
  -1.74385e+50   2.94155e+62   1.56427e+61    1.5123e+65 -2.57066e+135   2.6171e+202   5.07019e+67  -1.34171e+67  -3.09893e+67   4.45576e+67  -9.84959e+66  -3.01761e+67  -4.30687e+65
  -3.78912e+59   2.93601e+62   1.56185e+61   1.35708e+65 -2.55945e+135  2.65835e+202   5.05912e+67  -1.34207e+67  -3.09845e+67   4.45409e+67   9.87384e+66  -2.99941e+67  -5.42548e+65
  -1.40453e+60   2.94407e+62   5.65127e+61   2.63457e+68  8.41014e+135   4.1779e+202   2.46981e+68   1.09351e+67    2.9782e+67    2.2274e+68   9.86997e+66  -2.97687e+67  -1.13385e+66
  -2.47156e+50   2.55614e+62   5.23378e+61   2.67864e+68  9.34381e+135  5.80001e+202   2.49814e+68   1.28507e+67   3.12414e+67   2.23772e+68  -9.81315e+66   2.87665e+67  -6.32933e+65
  -1.53474e+50   2.54819e+62   1.44851e+61   2.27766e+66 -2.45544e+135  2.34944e+202   4.96048e+67   -1.2723e+67  -3.00477e+67   4.50484e+67  -9.80931e+66    2.8541e+67  -4.24698e+65
  -3.78925e+59   2.54258e+62   1.44608e+61   2.26299e+66 -2.46586e+135  2.30696e+202    4.9709e+67  -1.27264e+67  -3.00426e+67    4.5032e+67   9.83515e+66   2.87264e+67  -5.34864e+65
  -1.40044e+60   2.55052e+62   5.23016e+61   2.67844e+68  9.33086e+135  5.67395e+202   2.49819e+68   1.28462e+67   3.12453e+67   2.23753e+68   9.83131e+66   2.89518e+67   -1.1197e+66
  -1.74385e+50   2.94155e+62   1.56427e+61   1.14306e+68  2.46989e+135  9.10432e+201   1.02937e+68   1.29263e+67   3.04786e+67   7.09011e+67  -9.84959e+66  -3.00723e+67  -4.30687e+65
  -7.14217e+49   2.94262e+62  -2.52579e+61  -1.49021e+68  3.82325e+135 -1.65592e+202   1.35588e+68  -1.14368e+67  -3.02892e+67  -1.07295e+68  -9.85025e+66  -3.00515e+67  -2.21912e+65
   6.46537e+59   2.93707e+62  -2.52704e+61  -1.49064e+68   3.8374e+135 -1.65832e+202   1.35583e+68  -1.14466e+67  -3.03005e+67  -1.07317e+68   9.86992e+66  -2.98694e+67   4.83155e+64
  -3.78912e+59   2.93601e+62   1.56185e+61   1.14259e+68  2.47708e+135  9.75551e+201   1.02849e+68   1.29154e+67   3.04662e+67   7.08769e+67   9.87058e+66  -2.98905e+67  -5.42548e+65
  -1.53474e+50   2.54819e+62   1.44851e+61   1.14832e+68   2.5996e+135  1.12875e+202   1.02892e+68    1.3251e+67   3.05583e+67   7.10224e+67  -9.80931e+66   2.86419e+67  -4.24698e+65
  -5.94282e+49   2.54924e+62  -2.33623e+61  -1.50753e+68  4.09819e+135 -2.01838e+202   1.36486e+68  -1.23279e+67  -3.07306e+67  -1.07695e+68  -9.81018e+66   2.86627e+67   -2.1661e+65
   6.42431e+59   2.54363e+62  -2.33747e+61  -1.50797e+68  4.09091e+135 -2.01496e+202   1.36561e+68  -1.23379e+67  -3.07426e+67  -1.07717e+68   9.83127e+66   2.88482e+67   4.95238e+64
  -3.78925e+59   2.54258e+62   1.44608e+61   1.14783e+68  2.58511e+135  1.05348e+202   1.02908e+68   1.32398e+67   3.05452e+67   7.09982e+67   9.83214e+66   2.88272e+67  -5.34864e+65
  -1.40453e+60   2.94407e+62   5.65127e+61    2.6342e+68  8.38844e+135  3.94529e+202   2.46986e+68   1.09633e+67   2.97735e+67   2.22684e+68  -9.84441e+66  -3.00972e+67  -2.57399e+66
  -3.78912e+59   2.93601e+62   1.56185e+61   1.69929e+65 -2.57836e+135  2.56582e+202   5.07778e+67  -1.33736e+67  -3.09766e+67   4.45201e+67   -9.8349e+66  -3.03226e+67  -1.40194e+66
  -7.56721e+59   2.91935e+62   1.55458e+61   1.08155e+65 -2.53385e+135  2.67714e+202   5.03375e+67  -1.33878e+67  -3.09703e+67   4.44663e+67   9.88989e+66  -2.95962e+67  -1.51354e+66
  -2.80803e+60   2.92741e+62   5.63955e+61   2.63244e+68  8.40846e+135  4.26782e+202   2.46757e+68   1.09225e+67   2.97533e+67   2.22568e+68   9.88037e+66  -2.93711e+67  -3.06076e+66
  -1.40044e+60   2.55052e+62   5.23016e+61   2.67766e+68  9.33919e+135  5.89508e+202   2.49719e+68   1.28512e+67   3.12273e+67   2.23688e+68  -9.80579e+66   2.86246e+67  -2.53254e+66
  -3.78925e+59   2.54258e+62   1.44608e+61     2.297e+66 -2.44621e+135  2.38751e+202   4.95125e+67  -1.26798e+67  -3.00348e+67   4.50116e+67  -9.79651e+66   2.83992e+67  -1.38224e+66
  -7.56742e+59   2.52573e+62   1.43881e+61   2.23657e+66 -2.48708e+135  2.27456e+202   4.99208e+67  -1.26937e+67  -3.00283e+67   4.49586e+67   9.85656e+66   2.91231e+67  -1.49215e+66
  -2.80021e+60   2.53368e+62   5.21846e+61   2.67593e+68   9.2739e+135  5.46479e+202   2.49663e+68   1.28111e+67   3.12077e+67   2.23574e+68   9.84727e+66   2.93481e+67  -3.01194e+66
  -3.78912e+59   2.93601e+62   1.56185e+61   1.14293e+68  2.46083e+135  8.40087e+201   1.02966e+68   1.29625e+67   3.04741e+67   7.08562e+67  -9.83816e+66  -3.02189e+67  -1.40194e+66
   6.46537e+59   2.93707e+62  -2.52704e+61  -1.48962e+68  3.80602e+135 -1.63494e+202   1.35586e+68  -1.13824e+67  -3.02769e+67  -1.07303e+68  -9.83796e+66  -3.01979e+67   -2.3067e+65
   1.29422e+60   2.92042e+62  -2.52986e+61  -1.48974e+68  3.84947e+135  -1.6642e+202   1.35439e+68  -1.13851e+67  -3.02792e+67  -1.07309e+68   9.88301e+66  -2.94714e+67   3.25579e+64
  -7.56721e+59   2.91935e+62   1.55458e+61   1.14165e+68  2.49457e+135  1.05215e+202    1.0266e+68   1.29331e+67   3.04452e+67   7.07872e+67   9.88281e+66  -2.94931e+67  -1.51354e+66
  -3.78925e+59   2.54258e+62   1.44608e+61   1.14817e+68  2.60738e+135  1.19185e+202   1.02838e+68   1.32864e+67    3.0553e+67   7.09778e+67  -9.79951e+66      2.85e+67  -1.38224e+66
   6.42431e+59   2.54363e+62  -2.33747e+61  -1.50654e+68   4.0933e+135 -2.00779e+202   1.36394e+68  -1.22515e+67  -3.07096e+67  -1.07693e+68  -9.79986e+66    2.8521e+67  -2.32793e+65
   1.28639e+60   2.52679e+62  -2.34033e+61   -1.5067e+68  4.05192e+135 -1.95936e+202   1.36563e+68  -1.22551e+67  -3.07139e+67  -1.07701e+68   9.84966e+66   2.92449e+67   2.64461e+64
  -7.56742e+59   2.52573e+62   1.43881e+61   1.14688e+68   2.5557e+135  9.56354e+201   1.02945e+68   1.32566e+67   3.05224e+67   7.09089e+67   9.85001e+66   2.92232e+67  -1.49215e+66
  -2.80803e+60   2.92741e+62   5.63955e+61   2.63386e+68   8.4135e+135  3.75847e+202   2.46898e+68   1.12205e+67   2.97861e+67   2.22379e+68  -9.86193e+66  -3.00292e+67  -6.38041e+66
  -7.56721e+59   2.91935e+62   1.55458e+61   1.72837e+65 -2.57194e+135  2.49181e+202   5.07146e+67   -1.3296e+67  -3.09553e+67   4.44242e+67  -9.83856e+66  -3.02538e+67  -2.36711e+66
  -1.13236e+60   2.89159e+62   1.54249e+61   1.19224e+65 -2.37664e+135  2.51457e+202    4.8751e+67  -1.33084e+67  -3.09171e+67   4.43447e+67   9.78417e+66   -2.6927e+67  -2.47791e+66
  -4.20405e+60   2.89963e+62   5.60911e+61   2.62772e+68  8.52544e+135   4.6163e+202   2.46016e+68   1.10789e+67   2.96951e+67   2.21998e+68   9.76079e+66  -2.67031e+67  -6.85519e+66
  -2.80021e+60   2.53368e+62   5.21846e+61    2.6768e+68   9.3455e+135  6.11755e+202   2.49614e+68   1.30747e+67   3.12278e+67   2.23377e+68  -9.82671e+66   2.86923e+67  -6.25719e+66
  -7.56742e+59   2.52573e+62   1.43881e+61   2.29917e+66 -2.44794e+135  2.43545e+202     4.953e+67  -1.26039e+67  -3.00139e+67   4.49169e+67  -9.80391e+66   2.84677e+67  -2.33324e+66
   -1.1324e+60   2.49765e+62   1.42671e+61   2.24735e+66  -2.6418e+135  2.40833e+202   5.14476e+67  -1.26158e+67  -2.99756e+67   4.48388e+67    9.7567e+66   3.17657e+67  -2.44235e+66
  -4.19302e+60   2.50558e+62   5.18817e+61   2.67076e+68  9.06814e+135  4.98616e+202   2.49523e+68   1.29355e+67   3.11388e+67   2.23002e+68   9.73389e+66   3.19897e+67  -6.72478e+66
  -7.56721e+59   2.91935e+62   1.55458e+61    1.1423e+68  2.46149e+135  7.79311e+201   1.02893e+68   1.30249e+67   3.04601e+67   7.07451e+67  -9.84563e+66  -3.01507e+67  -2.36711e+66
   1.29422e+60   2.92042e+62  -2.52986e+61   -1.4898e+68  3.81919e+135 -1.54229e+202   1.35557e+68   -1.1496e+67  -3.02806e+67  -1.07203e+68  -9.84995e+66  -3.01292e+67    1.6451e+66
   1.93882e+60   2.89265e+62  -2.52359e+61  -1.48668e+68  3.98456e+135 -1.94089e+202   1.34601e+68  -1.14239e+67  -3.02179e+67  -1.07026e+68   9.77007e+66   -2.6802e+67   1.89806e+66
  -1.13236e+60   2.89159e+62   1.54249e+61   1.13982e+68  2.63508e+135  1.28685e+202   1.01768e+68   1.29675e+67   3.03934e+67   7.06206e+67   9.77438e+66  -2.68244e+67  -2.47791e+66
  -7.56742e+59   2.52573e+62   1.43881e+61   1.14751e+68  2.59964e+135  1.23112e+202   1.02801e+68   1.33464e+67   3.05369e+67   7.08672e+67  -9.81045e+66   2.85678e+67  -2.33324e+66
   1.28639e+60   2.52679e+62  -2.34033e+61  -1.50626e+68  4.09299e+135 -2.11151e+202   1.36364e+68  -1.23357e+67  -3.07038e+67  -1.07586e+68   -9.8156e+66   2.85894e+67   1.58954e+66
   1.92775e+60    2.4987e+62  -2.33423e+61  -1.50325e+68  3.87013e+135 -1.64641e+202   1.36849e+68  -1.22664e+67  -3.06458e+67  -1.07413e+68   9.74248e+66   3.18877e+67   1.83867e+66
   -1.1324e+60   2.49765e+62   1.42671e+61   1.14499e+68   2.3839e+135  6.72753e+201   1.03567e+68   1.32883e+67   3.04675e+67    7.0743e+67   9.74763e+66   3.18652e+67  -2.44235e+66
  -3.08152e+50   3.37387e+62   6.08262e+61   2.67325e+68  8.60546e+135  4.19249e+202   2.50713e+68   1.09148e+67   3.01998e+67    2.2621e+68   -9.8895e+66  -3.04381e+67  -6.48754e+65
  -1.96256e+50   3.36568e+62   1.68183e+61   1.98375e+65 -2.64995e+135   2.7507e+202   5.14781e+67  -1.36168e+67  -3.14448e+67     4.526e+67  -9.88556e+66  -3.06713e+67  -4.37021e+65
  -3.78924e+59    3.3602e+62   1.67941e+61   1.81118e+65 -2.63822e+135  2.79327e+202   5.13639e+67  -1.36208e+67  -3.14403e+67   4.52422e+67   9.90899e+66  -3.04844e+67  -5.51104e+65
  -1.40824e+60   3.36839e+62   6.07903e+61   2.67288e+68  8.61219e+135  4.29702e+202    2.5066e+68   1.09062e+67   3.01996e+67   2.26182e+68   9.90505e+66  -3.02513e+67  -1.14323e+66
  -2.76951e+50   2.94962e+62   5.65487e+61   2.71807e+68  9.58335e+135  5.99696e+202   2.53566e+68   1.28621e+67   3.17005e+67   2.27245e+68  -9.85348e+66   2.92147e+67   -6.3959e+65
  -1.74385e+50   2.94155e+62   1.56427e+61   2.39845e+66 -2.52901e+135  2.46331e+202   5.03464e+67  -1.28985e+67  -3.04707e+67   4.57677e+67   -9.8496e+66   2.89815e+67  -4.30686e+65
  -3.78912e+59   2.93601e+62   1.56185e+61   2.38182e+66 -2.53969e+135  2.41977e+202   5.04515e+67  -1.29023e+67  -3.04662e+67   4.57503e+67   9.87383e+66   2.91695e+67  -5.43013e+65
  -1.40453e+60   2.94407e+62   5.65127e+61   2.71771e+68  9.56775e+135  5.86433e+202   2.53558e+68   1.28537e+67   3.17005e+67   2.27217e+68   9.86996e+66   2.94026e+67  -1.12646e+66
  -1.96256e+50   3.36568e+62   1.68183e+61   1.16015e+68  2.54271e+135  9.62719e+201   1.04484e+68   1.31102e+67   3.09182e+67   7.19869e+67  -9.88556e+66  -3.05644e+67  -4.37021e+65
  -8.43124e+49   3.36676e+62  -2.71841e+61  -1.51112e+68  3.91362e+135 -1.70855e+202   1.37554e+68  -1.14281e+67  -3.07266e+67  -1.08957e+68  -9.88609e+66  -3.05419e+67  -2.25407e+65
   6.50212e+59   3.36128e+62  -2.71966e+61   -1.5114e+68   3.9271e+135 -1.70936e+202   1.37536e+68  -1.14347e+67  -3.07342e+67  -1.08971e+68   9.90499e+66  -3.03549e+67   4.06377e+64
  -3.78924e+59    3.3602e+62   1.67941e+61   1.15967e+68   2.5503e+135  1.03066e+202   1.04394e+68    1.3099e+67   3.09059e+67   7.19621e+67   9.90551e+66  -3.03776e+67  -5.51104e+65
  -1.74385e+50   2.94155e+62   1.56427e+61   1.16553e+68  2.67837e+135  1.19241e+202   1.04433e+68   1.34449e+67   3.09972e+67   7.21111e+67   -9.8496e+66   2.90853e+67  -4.30686e+65
  -7.14217e+49   2.94262e+62  -2.52579e+61  -1.52855e+68  4.19639e+135 -2.08265e+202   1.38449e+68  -1.23215e+67  -3.11739e+67  -1.09359e+68  -9.85026e+66   2.91079e+67  -2.21917e+65
   6.46537e+59   2.93707e+62  -2.52704e+61  -1.52884e+68  4.18761e+135 -2.07865e+202   1.38513e+68  -1.23281e+67  -3.11819e+67  -1.09374e+68   9.86991e+66   2.92958e+67   4.00343e+64
  -3.78912e+59   2.93601e+62   1.56185e+61   1.16505e+68  2.66355e+135  1.11474e+202    1.0445e+68   1.34337e+67   3.09846e+67   7.20864e+67   9.87057e+66   2.92731e+67  -5.43013e+65
  -1.40824e+60   3.36839e+62   6.07903e+61   2.67279e+68  8.59586e+135  4.06777e+202   2.50683e+68   1.09505e+67   3.01975e+67   2.26131e+68  -9.87939e+66  -3.05811e+67  -2.61533e+66
  -3.78924e+59    3.3602e+62   1.67941e+61   2.16676e+65  -2.6575e+135  2.69723e+202   5.15514e+67  -1.35725e+67  -3.14321e+67   4.52214e+67  -9.86959e+66  -3.08141e+67  -1.42331e+66
  -7.56738e+59   3.34375e+62   1.67214e+61   1.49705e+65 -2.61061e+135   2.8112e+202   5.10943e+67   -1.3588e+67  -3.14267e+67   4.51644e+67   9.92159e+66  -3.00628e+67  -1.53694e+66
   -2.8152e+60   3.35193e+62   6.06726e+61   2.67056e+68  8.61166e+135  4.39495e+202   2.50415e+68   1.08992e+67   3.01672e+67    2.2599e+68   9.91179e+66  -2.98301e+67  -3.10457e+66
  -1.40453e+60   2.94407e+62   5.65127e+61   2.71734e+68  9.58487e+135  6.10955e+202   2.53485e+68   1.28819e+67    3.1692e+67    2.2716e+68  -9.84444e+66    2.9074e+67  -2.56659e+66
  -3.78912e+59   2.93601e+62   1.56185e+61   2.41604e+66 -2.51966e+135  2.50306e+202   5.02543e+67  -1.28552e+67  -3.04583e+67   4.57296e+67  -9.83493e+66    2.8841e+67   -1.4024e+66
  -7.56721e+59   2.91935e+62   1.55458e+61   2.35019e+66 -2.56208e+135  2.38819e+202   5.06715e+67  -1.28704e+67  -3.04529e+67   4.56735e+67   9.88986e+66   2.95837e+67  -1.51428e+66
  -2.80803e+60   2.92741e+62   5.63955e+61   2.71515e+68  9.51135e+135  5.65725e+202   2.53395e+68   1.28314e+67   3.16622e+67   2.27022e+68   9.88034e+66   2.98164e+67  -3.04831e+66
  -3.78924e+59    3.3602e+62   1.67941e+61   1.16003e+68  2.53382e+135  8.90415e+201   1.04512e+68   1.31473e+67   3.09141e+67   7.19412e+67  -9.87307e+66  -3.07073e+67  -1.42331e+66
   6.50212e+59   3.36128e+62  -2.71966e+61  -1.51063e+68  3.89803e+135 -1.69023e+202   1.37558e+68  -1.13842e+67  -3.07165e+67  -1.08963e+68  -9.87252e+66  -3.06846e+67  -2.31969e+65
   1.30133e+60   3.34483e+62  -2.72242e+61  -1.51039e+68  3.94065e+135 -1.71831e+202   1.37376e+68  -1.13785e+67  -3.07096e+67  -1.08951e+68   9.91465e+66  -2.99334e+67   2.97642e+64
  -7.56738e+59   3.34375e+62   1.67214e+61   1.15871e+68  2.56948e+135  1.11206e+202   1.04196e+68    1.3117e+67    3.0885e+67   7.18694e+67   9.91411e+66  -2.99565e+67  -1.53694e+66
  -3.78912e+59   2.93601e+62   1.56185e+61   1.16539e+68  2.68625e+135  1.25777e+202   1.04379e+68   1.34808e+67   3.09925e+67   7.20656e+67  -9.83819e+66   2.89447e+67   -1.4024e+66
   6.46537e+59   2.93707e+62  -2.52704e+61  -1.52782e+68  4.19481e+135 -2.07756e+202   1.38374e+68  -1.22639e+67  -3.11584e+67  -1.09359e+68  -9.83799e+66   2.89674e+67  -2.38959e+65
   1.29422e+60   2.92042e+62  -2.52986e+61   -1.5276e+68  4.14853e+135 -2.02478e+202   1.38517e+68  -1.22588e+67  -3.11529e+67  -1.09348e+68   9.88298e+66   2.97099e+67   1.87478e+64
  -7.56721e+59   2.91935e+62   1.55458e+61   1.16407e+68  2.63269e+135  1.01377e+202   1.04489e+68   1.34505e+67   3.09626e+67   7.19944e+67   9.88278e+66   2.96868e+67  -1.51428e+66
   -2.8152e+60   3.35193e+62   6.06726e+61   2.67236e+68  8.62448e+135  3.88108e+202    2.5058e+68   1.12222e+67   3.02085e+67   2.25805e+68  -9.89516e+66  -3.04904e+67  -6.49765e+66
  -7.56738e+59   3.34375e+62   1.67214e+61   2.17025e+65 -2.64944e+135  2.61887e+202   5.14732e+67  -1.34939e+67  -3.14112e+67   4.51221e+67  -9.87119e+66  -3.07226e+67  -2.40387e+66
  -1.13237e+60   3.31632e+62   1.66006e+61   1.54013e+65  -2.4478e+135  2.64001e+202   4.94755e+67  -1.35084e+67  -3.13746e+67    4.5037e+67   9.81166e+66  -2.73427e+67  -2.51657e+66
  -4.21434e+60   3.32448e+62   6.03665e+61   2.66593e+68  8.73738e+135  4.76654e+202   2.49668e+68   1.10738e+67   3.01113e+67   2.25408e+68    9.7877e+66  -2.71111e+67  -6.97802e+66
  -2.80803e+60   2.92741e+62   5.63955e+61   2.71657e+68  9.59577e+135  6.35464e+202   2.53381e+68   1.31294e+67   3.16949e+67   2.26833e+68  -9.86197e+66   2.91583e+67  -6.36795e+66
  -7.56721e+59   2.91935e+62   1.55458e+61   2.41487e+66  -2.5222e+135   2.5542e+202   5.02795e+67  -1.27786e+67  -3.04379e+67   4.56314e+67   -9.8386e+66   2.89261e+67  -2.36785e+66
  -1.13236e+60   2.89159e+62   1.54249e+61    2.3538e+66 -2.72205e+135  2.53013e+202   5.22263e+67  -1.27927e+67  -3.04014e+67   4.55479e+67   9.78413e+66   3.22752e+67  -2.47882e+66
  -4.20405e+60   2.89963e+62   5.60911e+61   2.71025e+68  9.30703e+135  5.17906e+202   2.53274e+68   1.29836e+67   3.15997e+67   2.26442e+68   9.76075e+66   3.25068e+67  -6.84093e+66
  -7.56738e+59   3.34375e+62   1.67214e+61   1.15939e+68  2.53593e+135  8.29645e+201   1.04431e+68   1.32111e+67   3.09005e+67   7.18271e+67  -9.87868e+66  -3.06162e+67  -2.40387e+66
   1.30133e+60   3.34483e+62  -2.72242e+61  -1.51076e+68   3.9135e+135 -1.59714e+202   1.37515e+68  -1.15094e+67  -3.07183e+67  -1.08848e+68  -9.88255e+66  -3.05933e+67   1.68902e+66
   1.94906e+60   3.31739e+62  -2.71597e+61  -1.50752e+68  4.08346e+135 -2.01076e+202   1.36538e+68  -1.14345e+67  -3.06516e+67  -1.08666e+68   9.79749e+66  -2.72133e+67   1.94382e+66
  -1.13237e+60   3.31632e+62   1.66006e+61   1.15683e+68  2.71491e+135  1.35787e+202   1.03284e+68   1.31521e+67   3.08332e+67   7.16975e+67   9.80136e+66  -2.72367e+67  -2.51657e+66
  -7.56721e+59   2.91935e+62   1.55458e+61   1.16472e+68  2.67757e+135  1.29775e+202   1.04346e+68   1.35423e+67   3.09775e+67   7.19523e+67  -9.84567e+66   2.90292e+67  -2.36785e+66
   1.29422e+60   2.92042e+62  -2.52986e+61  -1.52766e+68  4.19629e+135 -2.19098e+202   1.38351e+68  -1.23697e+67  -3.11543e+67  -1.09242e+68  -9.84998e+66   2.90521e+67   1.63129e+66
   1.93882e+60   2.89265e+62  -2.52359e+61   -1.5245e+68  3.96545e+135 -1.70748e+202   1.38837e+68  -1.22969e+67  -3.10908e+67  -1.09062e+68   9.77003e+66   3.24012e+67   1.88218e+66
  -1.13236e+60   2.89159e+62   1.54249e+61   1.16216e+68  2.45517e+135   7.1773e+201   1.05124e+68   1.34832e+67   3.09091e+67   7.18238e+67   9.77434e+66   3.23779e+67  -2.47882e+66
  -3.40647e+50   3.82938e+62   6.51723e+61   2.71299e+68    8.821e+135  4.32461e+202   2.54524e+68   1.08996e+67   3.06349e+67   2.29765e+68   -9.9228e+66  -3.09383e+67  -6.59805e+65
  -2.19414e+50   3.82107e+62   1.80124e+61   2.42442e+65 -2.73282e+135  2.89356e+202   5.22769e+67   -1.3824e+67  -3.19167e+67   4.59832e+67  -9.91877e+66  -3.11794e+67   -4.4372e+65
  -3.78939e+59   3.81565e+62   1.79882e+61   2.23512e+65 -2.72056e+135  2.93745e+202   5.21595e+67  -1.38284e+67  -3.19126e+67   4.59645e+67   9.94187e+66  -3.09879e+67  -5.59674e+65
  -1.41169e+60   3.82397e+62   6.51363e+61    2.7125e+68  8.82651e+135  4.43063e+202    2.5446e+68   1.08883e+67    3.0632e+67    2.2973e+68   9.93784e+66  -3.07469e+67  -1.15708e+66
  -3.08152e+50   3.37387e+62   6.08262e+61   2.75896e+68  9.83941e+135  6.21985e+202   2.57448e+68   1.28929e+67   3.21778e+67   2.30826e+68  -9.88951e+66   2.96767e+67  -6.48749e+65
  -1.96256e+50   3.36568e+62   1.68183e+61   2.51578e+66 -2.60598e+135  2.58564e+202   5.11107e+67   -1.3082e+67    -3.091e+67   4.65078e+67  -9.88557e+66   2.94356e+67   -4.3702e+65
  -3.78924e+59    3.3602e+62   1.67941e+61    2.4974e+66 -2.61695e+135  2.54096e+202   5.12171e+67  -1.30862e+67  -3.09058e+67   4.64895e+67   9.90899e+66   2.96266e+67  -5.51162e+65
  -1.40824e+60   3.36839e+62   6.07903e+61   2.75848e+68  9.82174e+135  6.08072e+202   2.57431e+68   1.28818e+67   3.21751e+67   2.30791e+68   9.90504e+66   2.98676e+67  -1.13825e+66
  -2.19414e+50   3.82107e+62   1.80124e+61   1.17782e+68  2.61942e+135  1.01956e+202   1.06081e+68   1.33004e+67   3.13736e+67   7.31076e+67  -9.91877e+66  -3.10691e+67   -4.4372e+65
   -9.7653e+49   3.82216e+62  -2.91418e+61  -1.53276e+68  4.00952e+135  -1.7673e+202   1.39585e+68  -1.14304e+67  -3.11782e+67  -1.10667e+68  -9.91921e+66  -3.10452e+67  -2.27743e+65
   6.53624e+59   3.81674e+62  -2.91542e+61  -1.53295e+68  4.02274e+135 -1.76722e+202   1.39559e+68  -1.14349e+67  -3.11835e+67  -1.10677e+68   9.93778e+66  -3.08537e+67   3.73881e+64
  -3.78939e+59   3.81565e+62   1.79882e+61   1.17732e+68  2.62736e+135  1.09028e+202   1.05988e+68    1.3289e+67   3.13613e+67   7.30819e+67   9.93822e+66  -3.08777e+67  -5.59674e+65
  -1.96256e+50   3.36568e+62   1.68183e+61   1.18333e+68  2.76123e+135  1.26141e+202   1.06025e+68    1.3645e+67   3.14529e+67   7.32347e+67  -9.88557e+66   2.95425e+67   -4.3702e+65
  -8.43124e+49   3.36676e+62  -2.71841e+61  -1.55047e+68  4.30243e+135 -2.15746e+202   1.40489e+68  -1.23363e+67  -3.16347e+67  -1.11076e+68  -9.88609e+66   2.95664e+67   -2.2541e+65
   6.50212e+59   3.36128e+62  -2.71966e+61  -1.55067e+68  4.29253e+135  -2.1528e+202   1.40546e+68  -1.23408e+67  -3.16404e+67  -1.11086e+68   9.90498e+66   2.97574e+67   3.55782e+64
  -3.78924e+59    3.3602e+62   1.67941e+61   1.18283e+68  2.74598e+135  1.18103e+202   1.06042e+68   1.36336e+67   3.14404e+67   7.32093e+67   9.90551e+66   2.97334e+67  -5.51162e+65
  -1.41169e+60   3.82397e+62   6.51363e+61    2.7126e+68  8.81389e+135  4.20091e+202   2.54496e+68    1.0944e+67   3.06344e+67   2.29682e+68  -9.91197e+66  -3.10778e+67  -2.66475e+66
  -3.78939e+59   3.81565e+62   1.79882e+61   2.60528e+65 -2.74022e+135  2.83776e+202   5.23478e+67  -1.37789e+67   -3.1904e+67   4.59435e+67  -9.90186e+66  -3.13186e+67  -1.44541e+66
  -7.56761e+59    3.7994e+62   1.79156e+61   1.89243e+65 -2.69097e+135  2.95435e+202   5.18749e+67  -1.37954e+67  -3.18993e+67   4.58839e+67   9.95223e+66  -3.05434e+67  -1.56088e+66
  -2.82193e+60   3.80771e+62   6.50179e+61   2.71006e+68  8.82708e+135  4.53586e+202   2.54199e+68   1.08853e+67   3.05968e+67   2.29523e+68   9.94212e+66  -3.03029e+67  -3.15826e+66
  -1.40824e+60   3.36839e+62   6.07903e+61   2.75839e+68  9.84515e+135  6.34637e+202   2.57375e+68   1.29261e+67   3.21731e+67    2.3074e+68  -9.87941e+66   2.95378e+67  -2.61034e+66
  -3.78924e+59    3.3602e+62   1.67941e+61   2.53296e+66 -2.59653e+135  2.62695e+202   5.10191e+67   -1.3038e+67  -3.08976e+67   4.64686e+67  -9.86961e+66    2.9297e+67  -1.42337e+66
  -7.56738e+59   3.34375e+62   1.67214e+61   2.46278e+66 -2.64068e+135  2.50995e+202   5.14465e+67  -1.30542e+67  -3.08929e+67   4.64099e+67   9.92157e+66   3.00596e+67  -1.53704e+66
   -2.8152e+60   3.35193e+62   6.06726e+61   2.75588e+68  9.76488e+135  5.87188e+202   2.57263e+68   1.28682e+67   3.21361e+67   2.30584e+68   9.91178e+66   3.03001e+67  -3.09613e+66
  -3.78939e+59   3.81565e+62   1.79882e+61   1.17769e+68  2.61067e+135  9.45134e+201   1.06108e+68   1.33384e+67   3.13698e+67   7.30609e+67  -9.90551e+66  -3.12085e+67  -1.44541e+66
   6.53624e+59   3.81674e+62  -2.91542e+61  -1.53235e+68    3.995e+135 -1.75036e+202   1.39592e+68  -1.13933e+67  -3.11695e+67  -1.10672e+68  -9.90477e+66  -3.11844e+67  -2.26663e+65
     1.308e+60   3.80049e+62  -2.91811e+61  -1.53186e+68  4.03779e+135 -1.77912e+202   1.39385e+68  -1.13821e+67  -3.11567e+67  -1.10647e+68   9.94517e+66  -3.04094e+67   3.56851e+64
  -7.56761e+59    3.7994e+62   1.79156e+61   1.17634e+68  2.64817e+135  1.17645e+202   1.05781e+68   1.33072e+67   3.13402e+67   7.29865e+67   9.94442e+66  -3.04336e+67  -1.56088e+66
  -3.78924e+59    3.3602e+62   1.67941e+61   1.18319e+68  2.76921e+135  1.32905e+202   1.05972e+68   1.36818e+67   3.14486e+67   7.31884e+67  -9.87309e+66   2.94038e+67  -1.42337e+66
   6.50212e+59   3.36128e+62  -2.71966e+61   -1.5499e+68  4.30286e+135 -2.15612e+202   1.40424e+68  -1.22903e+67  -3.16226e+67  -1.11077e+68  -9.87254e+66   2.94278e+67  -2.37034e+65
   1.30133e+60   3.34483e+62  -2.72242e+61  -1.54943e+68  4.25258e+135 -2.09857e+202   1.40552e+68  -1.22796e+67  -3.16107e+67  -1.11053e+68   9.91463e+66   3.01902e+67    2.1215e+64
  -7.56738e+59   3.34375e+62   1.67214e+61   1.18185e+68  2.71352e+135  1.07564e+202   1.06085e+68   1.36508e+67   3.14188e+67   7.31149e+67   9.91409e+66   3.01659e+67  -1.53704e+66
  -2.82193e+60   3.80771e+62   6.50179e+61   2.71211e+68  8.84553e+135  4.01207e+202   2.54381e+68   1.12272e+67   3.06442e+67   2.29339e+68  -9.92702e+66  -3.09652e+67  -6.62474e+66
  -7.56761e+59    3.7994e+62   1.79156e+61   2.58935e+65 -2.73056e+135  2.75476e+202   5.22554e+67   -1.3699e+67  -3.18832e+67   4.58411e+67  -9.90243e+66  -3.12052e+67  -2.44173e+66
  -1.13239e+60   3.77231e+62   1.77948e+61    1.8976e+65 -2.52271e+135  2.77424e+202    5.0227e+67   -1.3715e+67  -3.18475e+67   4.57523e+67   9.83912e+66  -2.77772e+67  -2.55632e+66
  -4.22412e+60   3.78061e+62     6.471e+61   2.70544e+68  8.95996e+135  4.92754e+202   2.53445e+68   1.10734e+67    3.0542e+67   2.28929e+68   9.81453e+66  -2.75378e+67  -7.11137e+66
   -2.8152e+60   3.35193e+62   6.06726e+61   2.75768e+68  9.85882e+135  6.60985e+202   2.57272e+68   1.31912e+67   3.21775e+67   2.30399e+68  -9.89518e+66   2.96399e+67  -6.48921e+66
  -7.56738e+59   3.34375e+62   1.67214e+61   2.53009e+66 -2.60003e+135  2.68127e+202   5.10532e+67  -1.29601e+67  -3.08774e+67   4.63675e+67  -9.87122e+66   2.93998e+67  -2.40396e+66
  -1.13237e+60   3.31632e+62   1.66006e+61   2.46297e+66 -2.80585e+135  2.65972e+202   5.30275e+67  -1.29756e+67  -3.08417e+67   4.62803e+67   9.81164e+66   3.27958e+67  -2.51676e+66
  -4.21434e+60   3.32448e+62   6.03665e+61   2.75113e+68  9.55942e+135  5.38772e+202   2.57153e+68   1.30401e+67   3.20774e+67   2.29995e+68   9.78767e+66   3.30352e+67  -6.96823e+66
  -7.56761e+59    3.7994e+62   1.79156e+61   1.17704e+68  2.61413e+135  8.84108e+201   1.06019e+68   1.34036e+67   3.13563e+67   7.29438e+67  -9.91024e+66  -3.10955e+67  -2.44173e+66
     1.308e+60   3.80049e+62  -2.91811e+61  -1.53244e+68  4.01261e+135 -1.65594e+202   1.39539e+68  -1.15272e+67  -3.11701e+67  -1.10547e+68  -9.91393e+66  -3.10714e+67   1.74051e+66
   1.95878e+60    3.7734e+62  -2.91147e+61  -1.52909e+68   4.1872e+135 -2.08572e+202   1.38542e+68  -1.14498e+67  -3.11005e+67  -1.10358e+68   9.82472e+66  -2.76435e+67   1.99783e+66
  -1.13239e+60   3.77231e+62   1.77948e+61   1.17441e+68  2.79845e+135  1.43351e+202   1.04852e+68   1.33431e+67    3.1288e+67   7.28103e+67   9.82841e+66  -2.76678e+67  -2.55632e+66
  -7.56738e+59   3.34375e+62   1.67214e+61   1.18252e+68  2.75945e+135  1.36941e+202   1.05944e+68   1.37449e+67   3.14343e+67   7.30726e+67   -9.8787e+66   2.95062e+67  -2.40396e+66
   1.30133e+60   3.34483e+62  -2.72242e+61  -1.54981e+68  4.30504e+135 -2.27715e+202   1.40407e+68  -1.24105e+67  -3.16194e+67  -1.10951e+68  -9.88257e+66   2.95303e+67   1.68047e+66
   1.94906e+60   3.31739e+62  -2.71597e+61  -1.54653e+68  4.06649e+135 -1.77381e+202   1.40894e+68  -1.23348e+67  -3.15519e+67  -1.10766e+68   9.79746e+66    3.2926e+67   1.93377e+66
  -1.13237e+60   3.31632e+62   1.66006e+61   1.17992e+68  2.53037e+135  7.66598e+201   1.06732e+68   1.36849e+67   3.13661e+67   7.29407e+67   9.80133e+66   3.29017e+67  -2.51676e+66
  -3.74636e+50   4.31666e+62   6.95891e+61   2.75405e+68  9.04797e+135  4.46861e+202   2.58457e+68   1.08912e+67    3.1084e+67    2.3343e+68  -9.95431e+66  -3.14529e+67  -6.72335e+65
  -2.42965e+50   4.30822e+62   1.92256e+61   2.84398e+65 -2.81955e+135  3.04628e+202   5.31002e+67  -1.40386e+67  -3.24053e+67   4.67283e+67  -9.95017e+66  -3.17021e+67  -4.50755e+65
   -3.7895e+59   4.30287e+62   1.92014e+61   2.64149e+65 -2.80678e+135  3.09152e+202   5.29797e+67  -1.40433e+67  -3.24014e+67   4.67089e+67   9.97327e+66  -3.15061e+67    -5.685e+65
  -1.41497e+60   4.31131e+62   6.95529e+61   2.75347e+68  9.05267e+135  4.57695e+202   2.58386e+68   1.08779e+67   3.10792e+67    2.3339e+68   9.96914e+66   -3.1257e+67  -1.17421e+66
  -3.40647e+50   3.82938e+62   6.51723e+61   2.80131e+68  1.01113e+136  6.46621e+202   2.61462e+68   1.29378e+67    3.2673e+67    2.3452e+68   -9.9228e+66   3.01531e+67  -6.59801e+65
  -2.19414e+50   3.82107e+62   1.80124e+61   2.63281e+66 -2.68656e+135  2.71657e+202   5.18988e+67  -1.32724e+67  -3.13651e+67   4.72703e+67  -9.91877e+66   2.99039e+67  -4.43719e+65
  -3.78939e+59   3.81565e+62   1.79882e+61   2.61308e+66 -2.69789e+135  2.67067e+202   5.20069e+67  -1.32769e+67  -3.13611e+67   4.72512e+67   9.94187e+66   3.00984e+67  -5.59595e+65
  -1.41169e+60   3.82397e+62   6.51363e+61   2.80075e+68  1.00919e+136  6.32053e+202   2.61438e+68   1.29248e+67   3.26684e+67   2.34481e+68   9.93784e+66   3.03474e+67  -1.15371e+66
  -2.42965e+50   4.30822e+62   1.92256e+61   1.19606e+68  2.70009e+135  1.08099e+202   1.07729e+68   1.34972e+67    3.1845e+67   7.42641e+67  -9.95017e+66  -3.15883e+67  -4.50755e+65
  -1.11238e+50   4.30932e+62  -3.11319e+61  -1.55515e+68  4.11074e+135  -1.8315e+202   1.41683e+68  -1.14401e+67  -3.16446e+67   -1.1243e+68  -9.95057e+66  -3.15631e+67  -2.29275e+65
   6.56871e+59   4.30398e+62  -3.11442e+61  -1.55528e+68  4.12394e+135 -1.83096e+202   1.41651e+68  -1.14432e+67  -3.16484e+67  -1.12436e+68   9.96906e+66  -3.13672e+67   3.68939e+64
   -3.7895e+59   4.30287e+62   1.92014e+61   1.19556e+68  2.70839e+135  1.15459e+202   1.07634e+68   1.34855e+67   3.18324e+67   7.42377e+67   9.96946e+66  -3.13923e+67    -5.685e+65
  -2.19414e+50   3.82107e+62   1.80124e+61   1.20172e+68  2.84838e+135  1.33597e+202    1.0767e+68    1.3852e+67   3.19252e+67   7.43947e+67  -9.91877e+66   3.00142e+67  -4.43719e+65
   -9.7653e+49   3.82216e+62  -2.91418e+61  -1.57326e+68  4.41551e+135 -2.24109e+202   1.42604e+68   -1.2365e+67  -3.21127e+67  -1.12848e+68  -9.91922e+66   3.00393e+67  -2.27745e+65
   6.53624e+59   3.81674e+62  -2.91542e+61  -1.57339e+68   4.4047e+135  -2.2357e+202   1.42657e+68  -1.23681e+67  -3.21167e+67  -1.12854e+68   9.93777e+66   3.02337e+67   3.41991e+64
  -3.78939e+59   3.81565e+62   1.79882e+61   1.20122e+68  2.83264e+135  1.25261e+202   1.07687e+68   1.38404e+67   3.19127e+67   7.43685e+67   9.93821e+66   3.02085e+67  -5.59595e+65
  -1.41497e+60   4.31131e+62   6.95529e+61   2.75371e+68   9.0427e+135   4.3441e+202    2.5843e+68   1.09421e+67   3.10847e+67   2.33344e+68  -9.94297e+66  -3.15889e+67  -2.72042e+66
   -3.7895e+59   4.30287e+62   1.92014e+61   3.02402e+65 -2.82682e+135  2.98804e+202   5.31687e+67  -1.39927e+67  -3.23926e+67   4.66877e+67  -9.93252e+66  -3.18378e+67  -1.46838e+66
  -7.56777e+59   4.28683e+62   1.91288e+61   2.27996e+65 -2.77517e+135   3.1072e+202   5.26804e+67  -1.40098e+67  -3.23882e+67    4.6626e+67   9.98212e+66  -3.10389e+67  -1.58568e+66
  -2.82836e+60   4.29527e+62   6.94337e+61   2.75092e+68  9.05435e+135  4.68921e+202   2.58111e+68   1.08778e+67    3.1042e+67   2.33172e+68   9.97166e+66  -3.07903e+67  -3.21945e+66
  -1.41169e+60   3.82397e+62   6.51363e+61   2.80085e+68  1.01199e+136  6.60437e+202   2.61395e+68   1.29805e+67   3.26708e+67   2.34433e+68  -9.91198e+66   3.00166e+67  -2.66137e+66
  -3.78939e+59   3.81565e+62   1.79882e+61    2.6501e+66 -2.67706e+135  2.75949e+202   5.18081e+67  -1.32275e+67  -3.13526e+67   4.72302e+67  -9.90187e+66   2.97676e+67  -1.44533e+66
  -7.56761e+59    3.7994e+62   1.79156e+61   2.57679e+66 -2.72308e+135  2.64015e+202   5.22467e+67  -1.32444e+67  -3.13483e+67   4.71695e+67   9.95222e+66   3.05512e+67  -1.56076e+66
  -2.82193e+60   3.80771e+62   6.50179e+61    2.7981e+68  1.00338e+136  6.10712e+202   2.61266e+68   1.29172e+67   3.26287e+67   2.34264e+68    9.9421e+66   3.07998e+67  -3.15248e+66
   -3.7895e+59   4.30287e+62   1.92014e+61   1.19594e+68  2.69145e+135   1.0043e+202   1.07756e+68   1.35361e+67   3.18413e+67   7.42165e+67  -9.93633e+66  -3.17241e+67  -1.46838e+66
   6.56871e+59   4.30398e+62  -3.11442e+61  -1.55478e+68  4.09698e+135 -1.81516e+202   1.41691e+68  -1.14078e+67  -3.16369e+67  -1.12433e+68  -9.93547e+66  -3.16989e+67  -2.16899e+65
   1.31438e+60   4.28793e+62  -3.11702e+61  -1.55412e+68  4.14052e+135 -1.84579e+202   1.41466e+68  -1.13926e+67    -3.162e+67    -1.124e+68   9.97489e+66  -3.09002e+67     4.735e+64
  -7.56777e+59   4.28683e+62   1.91288e+61   1.19455e+68  2.73085e+135  1.24565e+202   1.07418e+68   1.35041e+67    3.1811e+67   7.41399e+67   9.97403e+66  -3.09255e+67  -1.58568e+66
  -3.78939e+59   3.81565e+62   1.79882e+61   1.20159e+68  2.85644e+135   1.4059e+202   1.07618e+68   1.38899e+67   3.19212e+67   7.43475e+67  -9.90553e+66   2.98778e+67  -1.44533e+66
   6.53624e+59   3.81674e+62  -2.91542e+61  -1.57278e+68  4.41718e+135 -2.24252e+202   1.42546e+68  -1.23266e+67  -3.21027e+67  -1.12849e+68  -9.90478e+66    2.9903e+67  -2.29857e+65
     1.308e+60   3.80049e+62  -2.91811e+61  -1.57214e+68  4.36333e+135 -2.17971e+202   1.42664e+68  -1.23118e+67  -3.20864e+67  -1.12816e+68   9.94516e+66   3.06863e+67   3.01972e+64
  -7.56761e+59    3.7994e+62   1.79156e+61   1.20021e+68  2.79843e+135  1.14225e+202   1.07734e+68   1.38582e+67   3.18911e+67   7.42721e+67   9.94441e+66    3.0661e+67  -1.56076e+66
  -2.82836e+60   4.29527e+62   6.94337e+61   2.75316e+68  9.07711e+135  4.15158e+202   2.58306e+68   1.12349e+67   3.10937e+67   2.32988e+68  -9.95796e+66  -3.14546e+67  -6.76003e+66
  -7.56777e+59   4.28683e+62   1.91288e+61    2.9963e+65 -2.81553e+135  2.90009e+202   5.30625e+67  -1.39115e+67  -3.23716e+67   4.65828e+67   -9.9327e+66  -3.17027e+67  -2.48088e+66
  -1.13241e+60   4.26009e+62    1.9008e+61   2.26462e+65  -2.6015e+135   2.9178e+202   5.10054e+67  -1.39284e+67  -3.23363e+67   4.64912e+67   9.86642e+66  -2.82294e+67  -2.59736e+66
  -4.23354e+60   4.26851e+62   6.91239e+61    2.7463e+68  9.19345e+135  5.09926e+202   2.57348e+68   1.10765e+67   3.09875e+67   2.32566e+68   9.84117e+66   -2.7982e+67  -7.25341e+66
  -2.82193e+60   3.80771e+62   6.50179e+61   2.80016e+68  1.01352e+136  6.88354e+202   2.61292e+68   1.32592e+67   3.26761e+67    2.3408e+68  -9.92704e+66   3.01375e+67  -6.61897e+66
  -7.56761e+59    3.7994e+62   1.79156e+61   2.64648e+66 -2.68164e+135  2.81712e+202   5.18522e+67   -1.3148e+67  -3.13322e+67   4.71267e+67  -9.90245e+66   2.98893e+67  -2.44161e+66
  -1.13239e+60   3.77231e+62   1.77948e+61   2.57536e+66 -2.89352e+135  2.79778e+202    5.3853e+67  -1.31645e+67   -3.1297e+67   4.70368e+67    9.8391e+66   3.33296e+67  -2.55624e+66
  -4.22412e+60   3.78061e+62     6.471e+61   2.79341e+68  9.82541e+135  5.61232e+202   2.61163e+68   1.31035e+67   3.25721e+67   2.33666e+68   9.81451e+66    3.3577e+67  -7.10452e+66
  -7.56777e+59   4.28683e+62   1.91288e+61   1.19527e+68  2.69628e+135  9.42895e+201   1.07658e+68   1.36024e+67   3.18275e+67   7.40967e+67  -9.94079e+66  -3.15893e+67  -2.48088e+66
   1.31438e+60   4.28793e+62  -3.11702e+61  -1.55485e+68  4.11665e+135 -1.71878e+202    1.4163e+68  -1.15486e+67  -3.16367e+67    -1.123e+68  -9.94444e+66  -3.15642e+67   1.79755e+66
   1.96815e+60   4.26119e+62   -3.1102e+61  -1.55139e+68   4.2959e+135 -2.16577e+202   1.40614e+68  -1.14688e+67  -3.15645e+67  -1.12106e+68   9.85172e+66  -2.80911e+67   2.05786e+66
  -1.13241e+60   4.26009e+62    1.9008e+61   1.19259e+68  2.88596e+135  1.51424e+202   1.06475e+68   1.35407e+67   3.17583e+67   7.39603e+67   9.85537e+66  -2.81163e+67  -2.59736e+66
  -7.56761e+59    3.7994e+62   1.79156e+61   1.20091e+68  2.84542e+135  1.44636e+202   1.07594e+68   1.39546e+67   3.19072e+67   7.42293e+67  -9.91026e+66   2.99991e+67  -2.44161e+66
     1.308e+60   3.80049e+62  -2.91811e+61  -1.57273e+68  4.41936e+135 -2.36996e+202   1.42532e+68  -1.24569e+67  -3.20998e+67  -1.12716e+68  -9.91394e+66   3.00243e+67   1.73502e+66
   1.95878e+60    3.7734e+62  -2.91147e+61  -1.56933e+68  4.17315e+135 -1.84538e+202   1.43021e+68  -1.23786e+67  -3.20292e+67  -1.12525e+68   9.82471e+66   3.34642e+67    1.9912e+66
  -1.13239e+60   3.77231e+62   1.77948e+61   1.19827e+68  2.60958e+135  8.19508e+201   1.08393e+68   1.38936e+67   3.18386e+67   7.40949e+67   9.82839e+66    3.3439e+67  -2.55624e+66
  -4.10087e+50   4.83623e+62   7.40787e+61   2.79647e+68  9.28647e+135  4.62373e+202   2.62518e+68   1.08874e+67   3.15477e+67   2.37211e+68  -9.98461e+66  -3.19832e+67  -6.86089e+65
  -2.67526e+50   4.82766e+62   2.04586e+61   3.24975e+65 -2.91046e+135  3.20965e+202   5.39497e+67  -1.42607e+67  -3.29111e+67   4.74968e+67  -9.98036e+66  -3.22408e+67  -4.58091e+65
  -3.78956e+59   4.82238e+62   2.04344e+61   3.03761e+65 -2.89716e+135  3.25624e+202   5.38261e+67  -1.42656e+67  -3.29074e+67   4.74767e+67   1.00037e+67  -3.20402e+67   -5.7767e+65
  -1.41812e+60   4.83095e+62   7.40424e+61   2.79582e+68  9.29064e+135  4.73505e+202   2.62442e+68   1.08725e+67   3.15415e+67   2.37168e+68   9.99941e+66  -3.17827e+67  -1.19384e+66
  -3.74636e+50   4.31666e+62   6.95891e+61   2.84515e+68  1.03988e+136  6.73487e+202   2.65612e+68   1.29936e+67   3.31863e+67   2.38335e+68  -9.95431e+66   3.06447e+67  -6.72332e+65
  -2.42965e+50   4.30822e+62   1.92256e+61   2.75147e+66   -2.771e+135  2.85654e+202   5.27121e+67  -1.34693e+67   -3.1836e+67   4.80567e+67  -9.95018e+66   3.03871e+67  -4.50754e+65
   -3.7895e+59   4.30287e+62   1.92014e+61   2.73075e+66 -2.78273e+135  2.80935e+202   5.28222e+67   -1.3474e+67  -3.18322e+67    4.8037e+67   9.97327e+66   3.05854e+67  -5.68404e+65
  -1.41497e+60   4.31131e+62   6.95529e+61   2.84452e+68   1.0378e+136  6.58245e+202   2.65584e+68    1.2979e+67   3.31803e+67   2.38292e+68   9.96913e+66   3.08429e+67  -1.17189e+66
  -2.67526e+50   4.82766e+62   2.04586e+61   1.21492e+68  2.78487e+135  1.14721e+202   1.09432e+68   1.37009e+67   3.23325e+67   7.54583e+67  -9.98036e+66  -3.21233e+67  -4.58091e+65
  -1.24713e+50   4.82877e+62  -3.31554e+61  -1.57831e+68  4.21729e+135 -1.90087e+202   1.43851e+68  -1.14551e+67  -3.21265e+67  -1.14249e+68  -9.98073e+66   -3.2097e+67  -2.30191e+65
   6.60008e+59    4.8235e+62  -3.31675e+61  -1.57839e+68   4.2306e+135 -1.90017e+202   1.43815e+68  -1.14571e+67  -3.21292e+67  -1.14253e+68   9.99934e+66  -3.18965e+67   3.81934e+64
  -3.78956e+59   4.82238e+62   2.04344e+61    1.2144e+68  2.79354e+135  1.22381e+202   1.09335e+68    1.3689e+67   3.23198e+67   7.54312e+67   9.99971e+66  -3.19227e+67   -5.7767e+65
  -2.42965e+50   4.30822e+62   1.92256e+61   1.22073e+68  2.94005e+135  1.41637e+202    1.0937e+68   1.40666e+67   3.24143e+67   7.55925e+67  -9.95018e+66   3.05009e+67  -4.50754e+65
  -1.11238e+50   4.30932e+62  -3.11319e+61  -1.59689e+68   4.5353e+135 -2.33272e+202   1.44794e+68  -1.24035e+67  -3.26079e+67  -1.14678e+68  -9.95057e+66   3.05272e+67  -2.29277e+65
   6.56871e+59   4.30398e+62  -3.11442e+61  -1.59698e+68  4.52367e+135 -2.32648e+202   1.44844e+68  -1.24055e+67  -3.26107e+67  -1.14682e+68   9.96906e+66   3.07254e+67   3.47789e+64
   -3.7895e+59   4.30287e+62   1.92014e+61   1.22022e+68  2.92377e+135  1.32979e+202   1.09388e+68   1.40548e+67   3.24017e+67   7.55658e+67   9.96946e+66   3.06991e+67  -5.68404e+65
  -1.41812e+60   4.83095e+62   7.40424e+61   2.79616e+68  9.28265e+135  4.49719e+202   2.62492e+68   1.09435e+67   3.15492e+67   2.37123e+68  -9.97291e+66  -3.21156e+67  -2.78117e+66
  -3.78956e+59   4.82238e+62   2.04344e+61   3.42996e+65 -2.91759e+135  3.14882e+202   5.40158e+67  -1.42139e+67  -3.28983e+67   4.74553e+67  -9.96209e+66   -3.2373e+67  -1.49226e+66
  -7.56786e+59   4.80655e+62   2.03618e+61    2.6644e+65 -2.86348e+135  3.27054e+202   5.35121e+67  -1.42316e+67   -3.2894e+67    4.7392e+67   1.00114e+67  -3.15501e+67  -1.61143e+66
  -2.83458e+60   4.81512e+62   7.39222e+61   2.79318e+68  9.29347e+135  4.85434e+202   2.62155e+68   1.08749e+67   3.15026e+67   2.36941e+68   1.00006e+67  -3.12931e+67  -3.28664e+66
  -1.41497e+60   4.31131e+62   6.95529e+61   2.84475e+68  1.04096e+136  6.88328e+202    2.6555e+68   1.30432e+67   3.31857e+67   2.38246e+68  -9.94298e+66    3.0511e+67  -2.71809e+66
   -3.7895e+59   4.30287e+62   1.92014e+61     2.769e+66 -2.76148e+135  2.90116e+202   5.26227e+67  -1.34234e+67  -3.18234e+67   4.80158e+67  -9.93253e+66   3.02536e+67  -1.46829e+66
  -7.56777e+59   4.28683e+62   1.91288e+61   2.69352e+66 -2.80953e+135  2.77932e+202   5.30734e+67  -1.34409e+67  -3.18192e+67   4.79536e+67   9.98211e+66   3.10591e+67  -1.58553e+66
  -2.82836e+60   4.29527e+62   6.94337e+61   2.84183e+68  1.03181e+136  6.36237e+202   2.65408e+68   1.29757e+67   3.31398e+67   2.38067e+68   9.97165e+66   3.13161e+67  -3.21541e+66
  -3.78956e+59   4.82238e+62   2.04344e+61   1.21479e+68  2.77634e+135  1.06812e+202   1.09457e+68   1.37406e+67   3.23289e+67   7.54098e+67  -9.96604e+66  -3.22555e+67  -1.49226e+66
   6.60008e+59    4.8235e+62  -3.31675e+61  -1.57797e+68   4.2041e+135 -1.88463e+202    1.4386e+68  -1.14263e+67  -3.21195e+67  -1.14251e+68  -9.96513e+66  -3.22292e+67  -2.03889e+65
   1.32057e+60   4.80766e+62  -3.31925e+61  -1.57718e+68  4.24878e+135   -1.918e+202   1.43619e+68  -1.14081e+67  -3.20995e+67  -1.14211e+68    1.0004e+67  -3.14066e+67   6.30575e+64
  -7.56786e+59   4.80655e+62   2.03618e+61   1.21337e+68  2.81772e+135  1.31997e+202    1.0911e+68   1.37078e+67   3.22979e+67   7.53314e+67   1.00031e+67  -3.14329e+67  -1.61143e+66
   -3.7895e+59   4.30287e+62   1.92014e+61   1.22061e+68  2.94812e+135  1.48861e+202   1.09319e+68   1.41054e+67   3.24105e+67   7.55447e+67  -9.93634e+66   3.03674e+67  -1.46829e+66
   6.56871e+59   4.30398e+62  -3.11442e+61  -1.59648e+68  4.53775e+135 -2.33636e+202    1.4474e+68  -1.23701e+67  -3.25992e+67  -1.14679e+68  -9.93548e+66   3.03936e+67  -2.19017e+65
   1.31438e+60   4.28793e+62  -3.11702e+61  -1.59571e+68  4.48052e+135 -2.26777e+202   1.44853e+68  -1.23523e+67  -3.25796e+67  -1.14639e+68   9.97488e+66   3.11988e+67   4.36234e+64
  -7.56777e+59   4.28683e+62   1.91288e+61   1.21921e+68  2.88766e+135  1.21394e+202   1.09439e+68   1.40731e+67     3.238e+67   7.54675e+67   9.97402e+66   3.11724e+67  -1.58553e+66
  -2.83458e+60   4.81512e+62   7.39222e+61   2.79557e+68  9.31976e+135  4.29996e+202   2.62359e+68   1.12449e+67   3.15577e+67   2.36755e+68  -9.98823e+66  -3.19594e+67  -6.90252e+66
  -7.56786e+59   4.80655e+62   2.03618e+61   3.39674e+65 -2.90463e+135  3.05558e+202   5.38957e+67  -1.41314e+67  -3.28771e+67   4.73482e+67  -9.96226e+66  -3.22159e+67  -2.52141e+66
  -1.13242e+60   4.78016e+62    2.0241e+61   2.63776e+65 -2.68431e+135  3.07139e+202    5.1811e+67  -1.41489e+67  -3.28418e+67   4.72545e+67   9.89352e+66  -2.86988e+67  -2.63982e+66
  -4.24271e+60   4.78871e+62   7.36105e+61   2.78853e+68  9.43824e+135   5.2819e+202   2.61382e+68   1.10824e+67   3.14481e+67   2.36323e+68   9.86754e+66   -2.8443e+67  -7.40307e+66
  -2.82836e+60   4.29527e+62   6.94337e+61   2.84407e+68  1.04255e+136  7.17655e+202   2.65446e+68   1.33328e+67   3.31915e+67   2.37882e+68  -9.95797e+66   3.06517e+67  -6.75599e+66
  -7.56777e+59   4.28683e+62   1.91288e+61   2.76516e+66 -2.76728e+135  2.96233e+202   5.26775e+67  -1.33425e+67  -3.18027e+67   4.79103e+67  -9.93271e+66   3.03952e+67  -2.48074e+66
  -1.13241e+60   4.26009e+62    1.9008e+61   2.69125e+66 -2.98534e+135  2.94506e+202   5.47045e+67  -1.33596e+67  -3.17675e+67   4.78184e+67   9.86641e+66   3.38784e+67  -2.59723e+66
  -4.23354e+60   4.26851e+62   6.91239e+61   2.83715e+68  1.01054e+136  5.85348e+202   2.65309e+68   1.31731e+67    3.3084e+67   2.37458e+68   9.84116e+66   3.41341e+67  -7.24846e+66
  -7.56786e+59   4.80655e+62   2.03618e+61    1.2141e+68  2.78258e+135  1.00628e+202   1.09352e+68    1.3808e+67   3.23148e+67   7.52876e+67   -9.9706e+66  -3.20987e+67  -2.52141e+66
   1.32057e+60   4.80766e+62  -3.31925e+61  -1.57802e+68  4.22581e+135 -1.78588e+202    1.4379e+68  -1.15731e+67  -3.21188e+67   -1.1411e+68  -9.97432e+66  -3.20726e+67     1.859e+66
   1.97729e+60   4.78127e+62  -3.31224e+61  -1.57446e+68  4.40981e+135 -2.25111e+202   1.42756e+68  -1.14909e+67  -3.20442e+67  -1.13911e+68   9.87843e+66  -2.85558e+67   2.12262e+66
  -1.13242e+60   4.78016e+62    2.0241e+61   1.21138e+68  2.97771e+135  1.60053e+202   1.08152e+68   1.37452e+67   3.22445e+67   7.51486e+67   9.88215e+66   -2.8582e+67  -2.63982e+66
  -7.56777e+59   4.28683e+62   1.91288e+61   1.21992e+68  2.93571e+135  1.52891e+202     1.093e+68   1.41714e+67   3.23965e+67   7.54243e+67   -9.9408e+66   3.05086e+67  -2.48074e+66
   1.31438e+60   4.28793e+62  -3.11702e+61  -1.59644e+68  4.53948e+135 -2.46955e+202   1.44729e+68  -1.25083e+67  -3.25964e+67  -1.14539e+68  -9.94445e+66   3.05348e+67   1.79382e+66
   1.96815e+60   4.26119e+62   -3.1102e+61  -1.59294e+68  4.28551e+135 -1.92234e+202    1.4522e+68  -1.24275e+67  -3.25232e+67  -1.14343e+68   9.85171e+66   3.40175e+67   2.05319e+66
  -1.13241e+60   4.26009e+62    1.9008e+61   1.21724e+68  2.69293e+135  8.76703e+201   1.10108e+68   1.41096e+67   3.23271e+67   7.52875e+67   9.85536e+66   3.39914e+67  -2.59723e+66
  -4.46416e+50   5.38863e+62   7.86435e+61    2.8403e+68  9.53684e+135  4.78976e+202   2.66714e+68   1.08869e+67   3.20266e+67   2.41117e+68  -1.00141e+67  -3.25305e+67  -7.00927e+65
  -2.92511e+50   5.37992e+62    2.1712e+61   3.64678e+65 -3.00586e+135  3.38453e+202    5.4827e+67  -1.44905e+67  -3.34347e+67   4.82899e+67  -1.00097e+67  -3.27969e+67  -4.65707e+65
  -3.78958e+59   5.37471e+62   2.16877e+61   3.42749e+65   -2.992e+135   3.4325e+202   5.47002e+67  -1.44956e+67   -3.3431e+67   4.82693e+67   1.00333e+67  -3.25915e+67  -5.87207e+65
   -1.4212e+60   5.38342e+62   7.86071e+61   2.83961e+68  9.54065e+135  4.90458e+202   2.66633e+68   1.08708e+67   3.20193e+67   2.41071e+68    1.0029e+67  -3.23252e+67  -1.21547e+66
  -4.10087e+50   4.83623e+62   7.40787e+61   2.89052e+68  1.07023e+136  7.02562e+202   2.69905e+68   1.30579e+67   3.37181e+67   2.42276e+68  -9.98461e+66   3.11523e+67  -6.86086e+65
  -2.67526e+50   4.82766e+62   2.04586e+61   2.87291e+66 -2.85957e+135  3.00616e+202   5.35521e+67  -1.36727e+67  -3.23231e+67   4.88687e+67  -9.98036e+66    3.0886e+67   -4.5809e+65
  -3.78956e+59   4.82238e+62   2.04344e+61   2.85147e+66 -2.87173e+135   2.9576e+202   5.36644e+67  -1.36776e+67  -3.23195e+67   4.88485e+67   1.00037e+67   3.10884e+67  -5.77599e+65
  -1.41812e+60   4.83095e+62   7.40424e+61   2.88983e+68  1.06801e+136  6.86614e+202   2.69872e+68   1.30421e+67   3.37109e+67    2.4223e+68   9.99941e+66   3.13547e+67  -1.19219e+66
  -2.92511e+50   5.37992e+62    2.1712e+61    1.2344e+68  2.87395e+135  1.21849e+202   1.11192e+68   1.39116e+67   3.28368e+67    7.6692e+67  -1.00097e+67  -3.26753e+67  -4.65707e+65
  -1.38677e+50   5.38105e+62  -3.52133e+61  -1.60226e+68  4.32929e+135  -1.9754e+202   1.46093e+68  -1.14742e+67  -3.26247e+67  -1.16127e+68  -1.00101e+67   -3.2648e+67  -2.30587e+65
   6.63067e+59   5.37584e+62  -3.52253e+61  -1.60231e+68  4.34282e+135 -1.97472e+202   1.46052e+68  -1.14754e+67  -3.26266e+67  -1.16129e+68   1.00289e+67  -3.24427e+67   4.07449e+64
  -3.78958e+59   5.37471e+62   2.16877e+61   1.23388e+68  2.88302e+135  1.29825e+202   1.11092e+68   1.38994e+67    3.2824e+67   7.66643e+67   1.00292e+67    -3.247e+67  -5.87207e+65
  -2.67526e+50   4.82766e+62   2.04586e+61    1.2404e+68  3.03647e+135  1.50297e+202   1.11128e+68   1.42889e+67   3.29205e+67   7.68303e+67  -9.98036e+66   3.10036e+67   -4.5809e+65
  -1.24713e+50   4.82877e+62  -3.31554e+61  -1.62139e+68  4.66177e+135 -2.43206e+202   1.47062e+68  -1.24493e+67  -3.31206e+67  -1.16569e+68  -9.98073e+66   3.10309e+67  -2.30192e+65
   6.60008e+59    4.8235e+62  -3.31675e+61  -1.62144e+68  4.64936e+135 -2.42485e+202   1.47109e+68  -1.24504e+67  -3.31225e+67  -1.16571e+68   9.99934e+66   3.12333e+67   3.66916e+64
  -3.78956e+59   4.82238e+62   2.04344e+61   1.23988e+68  3.01961e+135  1.41294e+202   1.11146e+68   1.42769e+67   3.29078e+67    7.6803e+67    9.9997e+66   3.12059e+67  -5.77599e+65
   -1.4212e+60   5.38342e+62   7.86071e+61   2.84002e+68  9.53427e+135  4.66035e+202   2.66689e+68   1.09475e+67   3.20288e+67   2.41026e+68  -1.00021e+67  -3.26591e+67   -2.8463e+66
  -3.78958e+59   5.37471e+62   2.16877e+61   3.82789e+65 -3.01284e+135  3.32097e+202   5.48906e+67   -1.4443e+67  -3.34218e+67   4.82476e+67  -9.99086e+66  -3.29252e+67  -1.51703e+66
   -7.5679e+59   5.35909e+62   2.16151e+61   3.04715e+65 -2.95616e+135  3.44523e+202   5.43714e+67   -1.4461e+67  -3.34173e+67   4.81831e+67   1.00403e+67  -3.20779e+67  -1.63815e+66
  -2.84065e+60    5.3678e+62   7.84858e+61   2.83689e+68  9.54472e+135  5.03106e+202   2.66336e+68   1.08753e+67   3.19791e+67   2.40835e+68   1.00291e+67  -3.18122e+67  -3.35888e+66
  -1.41812e+60   4.83095e+62   7.40424e+61   2.89017e+68  1.07145e+136  7.18354e+202   2.69845e+68    1.3113e+67   3.37187e+67   2.42185e+68  -9.97292e+66   3.10218e+67  -2.77951e+66
  -3.78956e+59   4.82238e+62   2.04344e+61    2.8907e+66 -2.85006e+135  3.05262e+202   5.34642e+67   -1.3626e+67  -3.23104e+67   4.88271e+67  -9.96209e+66   3.07557e+67  -1.49219e+66
  -7.56786e+59   4.80655e+62   2.03618e+61   2.81367e+66 -2.90027e+135  2.92815e+202   5.39277e+67  -1.36438e+67  -3.23062e+67   4.87636e+67   1.00114e+67   3.15839e+67  -1.61132e+66
  -2.83458e+60   4.81512e+62   7.39222e+61   2.88709e+68   1.0618e+136  6.63779e+202   2.69694e+68   1.30419e+67   3.36696e+67   2.41997e+68   1.00006e+67   3.18497e+67  -3.28369e+66
  -3.78958e+59   5.37471e+62   2.16877e+61   1.23428e+68  2.86554e+135  1.13687e+202   1.11215e+68    1.3952e+67   3.28332e+67   7.66426e+67  -9.99495e+66  -3.28038e+67  -1.51703e+66
   6.63067e+59   5.37584e+62  -3.52253e+61  -1.60195e+68  4.31659e+135 -1.95894e+202   1.46102e+68  -1.14483e+67  -3.26182e+67  -1.16129e+68  -9.99403e+66  -3.27764e+67  -1.88303e+65
   1.32662e+60   5.36023e+62  -3.52492e+61  -1.60105e+68  4.36265e+135 -1.99572e+202   1.45846e+68  -1.14276e+67  -3.25957e+67  -1.16082e+68   1.00326e+67  -3.19294e+67    8.1857e+64
   -7.5679e+59   5.35909e+62   2.16151e+61   1.23283e+68  2.90901e+135   1.3998e+202   1.10859e+68   1.39185e+67   3.28016e+67   7.65626e+67   1.00317e+67  -3.19568e+67  -1.63815e+66
  -3.78956e+59   4.82238e+62   2.04344e+61   1.24027e+68  3.04452e+135  1.57756e+202   1.11077e+68   1.43285e+67   3.29168e+67   7.67816e+67  -9.96605e+66   3.08732e+67  -1.49219e+66
   6.60008e+59    4.8235e+62  -3.31675e+61  -1.62101e+68  4.66473e+135 -2.43764e+202   1.47011e+68  -1.24196e+67  -3.31128e+67  -1.16569e+68  -9.96514e+66   3.09005e+67  -2.05394e+65
   1.32057e+60   4.80766e+62  -3.31925e+61  -1.62013e+68  4.60414e+135  -2.3627e+202   1.47119e+68  -1.23993e+67  -3.30906e+67  -1.16523e+68    1.0004e+67   3.17284e+67    6.0337e+64
  -7.56786e+59   4.80655e+62   2.03618e+61   1.23884e+68  2.98146e+135  1.29109e+202   1.11202e+68   1.42956e+67   3.28858e+67    7.6703e+67   1.00031e+67   3.17011e+67  -1.61132e+66
  -2.84065e+60    5.3678e+62   7.84858e+61    2.8394e+68   9.5741e+135   4.4577e+202   2.66548e+68   1.12569e+67    3.2037e+67   2.40646e+68   -1.0018e+67  -3.24804e+67  -7.05167e+66
   -7.5679e+59   5.35909e+62   2.16151e+61   3.79344e+65 -2.99813e+135  3.22205e+202   5.47565e+67   -1.4359e+67  -3.34001e+67   4.81385e+67  -9.99127e+66  -3.27456e+67  -2.56335e+66
  -1.13242e+60   5.33306e+62   2.14944e+61   3.01354e+65 -2.77138e+135   3.2358e+202   5.26447e+67   -1.4377e+67  -3.33646e+67    4.8043e+67   9.92036e+66  -2.91854e+67  -2.68373e+66
  -4.25168e+60   5.34175e+62   7.81722e+61   2.83219e+68  9.69489e+135  5.47587e+202   2.65552e+68   1.10905e+67   3.19241e+67   2.40204e+68   9.89361e+66   -2.8921e+67  -7.55973e+66
  -2.83458e+60   4.81512e+62   7.39222e+61   2.88947e+68  1.07307e+136   7.4901e+202   2.69741e+68    1.3412e+67   3.37247e+67   2.41811e+68  -9.98824e+66   3.11834e+67  -6.89957e+66
  -7.56786e+59   4.80655e+62   2.03618e+61    2.8869e+66 -2.85719e+135  3.11756e+202   5.35306e+67  -1.35436e+67  -3.22893e+67   4.87197e+67  -9.96227e+66   3.09181e+67   -2.5213e+66
  -1.13242e+60   4.78016e+62    2.0241e+61   2.81084e+66 -3.08162e+135  3.10235e+202   5.55834e+67  -1.35611e+67   -3.2254e+67    4.8626e+67   9.89351e+66   3.44436e+67  -2.63971e+66
  -4.24271e+60   4.78871e+62   7.36105e+61   2.88239e+68     1.04e+136  6.11218e+202   2.69595e+68   1.32484e+67    3.3614e+67   2.41376e+68   9.86753e+66   3.47081e+67  -7.39931e+66
   -7.5679e+59   5.35909e+62   2.16151e+61   1.23357e+68  2.87326e+135  1.07461e+202   1.11103e+68   1.40205e+67   3.28188e+67   7.65181e+67  -9.99986e+66  -3.26245e+67  -2.56335e+66
   1.32662e+60   5.36023e+62  -3.52492e+61  -1.60198e+68  4.34037e+135 -1.85749e+202   1.46024e+68  -1.16004e+67   -3.2617e+67  -1.15981e+68  -1.00037e+67  -3.25973e+67   1.92425e+66
   1.98624e+60   5.33419e+62  -3.51772e+61  -1.59832e+68  4.52925e+135 -2.34204e+202   1.44972e+68  -1.15159e+67  -3.25402e+67  -1.15776e+68   9.90484e+66  -2.90376e+67   2.19144e+66
  -1.13242e+60   5.33306e+62   2.14944e+61   1.23081e+68  3.07399e+135  1.69285e+202   1.09886e+68   1.39566e+67   3.27473e+67   7.63767e+67   9.90867e+66  -2.90647e+67  -2.68373e+66
  -7.56786e+59   4.80655e+62   2.03618e+61   1.23958e+68  3.03056e+135  1.61748e+202   1.11063e+68   1.43958e+67   3.29027e+67   7.66591e+67  -9.97061e+66   3.10353e+67   -2.5213e+66
   1.32057e+60   4.80766e+62  -3.31925e+61  -1.62097e+68  4.66568e+135 -2.57624e+202   1.47002e+68  -1.25642e+67  -3.31099e+67  -1.16423e+68  -9.97433e+66   3.10625e+67   1.85628e+66
   1.97729e+60   4.78127e+62  -3.31224e+61  -1.61736e+68  4.40377e+135 -2.00496e+202   1.47495e+68   -1.2481e+67  -3.30343e+67  -1.16221e+68   9.87842e+66   3.45875e+67   2.11909e+66
  -1.13242e+60   4.78016e+62    2.0241e+61   1.23685e+68  2.78063e+135  9.38497e+201   1.11881e+68    1.4333e+67   3.28323e+67   7.65201e+67   9.88214e+66   3.45604e+67  -2.63971e+66
  -4.83871e+50   5.97442e+62   8.32861e+61   2.88563e+68  9.79963e+135  4.96687e+202   2.71052e+68    1.0889e+67   3.25215e+67   2.45153e+68  -1.00429e+67  -3.30958e+67  -7.16788e+65
  -3.17953e+50   5.96556e+62   2.29864e+61   4.03811e+65 -3.10609e+135  3.57195e+202   5.57338e+67  -1.47285e+67  -3.39768e+67   4.91091e+67  -1.00384e+67  -3.33714e+67  -4.73596e+65
  -3.78959e+59   5.96043e+62   2.29621e+61   3.81315e+65 -3.09163e+135  3.62131e+202   5.56038e+67  -1.47337e+67  -3.39731e+67   4.90881e+67   1.00624e+67  -3.31609e+67  -5.97115e+65
   -1.4242e+60   5.96928e+62   8.32495e+61   2.88489e+68  9.80317e+135   5.0856e+202   2.70966e+68   1.08719e+67   3.25132e+67   2.45104e+68   1.00579e+67  -3.28855e+67   -1.2388e+66
  -4.46416e+50   5.38863e+62   7.86435e+61   2.93747e+68  1.10223e+136  7.33895e+202   2.74345e+68   1.31294e+67    3.4269e+67   2.46349e+68  -1.00141e+67   3.16768e+67  -7.00925e+65
  -2.92511e+50   5.37992e+62    2.1712e+61   2.99788e+66 -2.95256e+135  3.16619e+202   5.44201e+67  -1.38828e+67   -3.2827e+67   4.97077e+67  -1.00097e+67   3.14013e+67  -4.65706e+65
  -3.78958e+59   5.37471e+62   2.16877e+61   2.97586e+66  -2.9652e+135  3.11619e+202   5.45349e+67  -1.38879e+67  -3.28234e+67   4.96871e+67   1.00333e+67   3.16083e+67  -5.87167e+65
   -1.4212e+60   5.38342e+62   7.86071e+61   2.93674e+68  1.09988e+136  7.17204e+202    2.7431e+68   1.31126e+67   3.42609e+67   2.46301e+68    1.0029e+67   3.18837e+67  -1.21424e+66
  -3.17953e+50   5.96556e+62   2.29864e+61   1.25455e+68  2.96759e+135  1.29519e+202   1.13011e+68   1.41296e+67   3.33586e+67   7.79672e+67  -1.00384e+67  -3.32457e+67  -4.73596e+65
  -1.52118e+50   5.96671e+62  -3.73069e+61  -1.62705e+68  4.44697e+135 -2.05523e+202   1.48411e+68  -1.14968e+67  -3.31399e+67  -1.18068e+68  -1.00388e+67  -3.32173e+67  -2.30509e+65
   6.66065e+59   5.96157e+62  -3.73187e+61  -1.62707e+68  4.46078e+135 -2.05472e+202   1.48367e+68  -1.14972e+67   -3.3141e+67  -1.18069e+68   1.00579e+67  -3.30069e+67   4.42502e+64
  -3.78959e+59   5.96043e+62   2.29621e+61   1.25402e+68  2.97709e+135   1.3783e+202   1.12909e+68   1.41172e+67   3.33456e+67    7.7939e+67   1.00582e+67  -3.30353e+67  -5.97115e+65
  -2.92511e+50   5.37992e+62    2.1712e+61   1.26074e+68  3.13793e+135  1.59622e+202   1.12945e+68   1.45193e+67   3.34445e+67   7.81098e+67  -1.00097e+67   3.15228e+67  -4.65706e+65
  -1.38677e+50   5.38105e+62  -3.52133e+61  -1.64676e+68  4.79508e+135 -2.53919e+202   1.49409e+68   -1.2501e+67  -3.36515e+67  -1.18523e+68  -1.00101e+67   3.15512e+67  -2.30588e+65
   6.63067e+59   5.37584e+62  -3.52253e+61  -1.64677e+68  4.78188e+135 -2.53087e+202   1.49455e+68  -1.25014e+67  -3.36526e+67  -1.18523e+68   1.00289e+67   3.17581e+67   3.95915e+64
  -3.78958e+59   5.37471e+62   2.16877e+61   1.26021e+68  3.12045e+135   1.5025e+202   1.12964e+68   1.45071e+67   3.34316e+67   7.80821e+67   1.00292e+67   3.17297e+67  -5.87167e+65
   -1.4242e+60   5.96928e+62   8.32495e+61   2.88537e+68  9.79821e+135  4.83402e+202   2.71026e+68   1.09536e+67   3.25243e+67   2.45059e+68  -1.00307e+67  -3.32203e+67  -2.91547e+66
  -3.78959e+59   5.96043e+62   2.29621e+61   4.22069e+65 -3.11288e+135  3.50547e+202   5.57948e+67  -1.46802e+67  -3.39637e+67    4.9066e+67   -1.0019e+67  -3.34956e+67   -1.5427e+66
   -7.5679e+59   5.94503e+62   2.28896e+61   3.42826e+65 -3.05352e+135  3.63226e+202   5.52597e+67  -1.46985e+67  -3.39591e+67   4.90004e+67   1.00687e+67  -3.26232e+67  -1.66585e+66
   -2.8466e+60   5.95388e+62   8.31271e+61    2.8821e+68  9.80857e+135   5.2196e+202   2.70659e+68   1.08782e+67   3.24718e+67    2.4486e+68   1.00571e+67  -3.23483e+67  -3.43569e+66
   -1.4212e+60   5.38342e+62   7.86071e+61   2.93716e+68  1.10357e+136  7.50614e+202   2.74287e+68   1.31892e+67   3.42704e+67   2.46256e+68  -1.00021e+67   3.15499e+67  -2.84507e+66
  -3.78958e+59   5.37471e+62   2.16877e+61    3.0159e+66 -2.94309e+135  3.21462e+202    5.4334e+67  -1.38353e+67  -3.28141e+67   4.96654e+67  -9.99086e+66   3.12746e+67  -1.51699e+66
   -7.5679e+59   5.35909e+62   2.16151e+61   2.93766e+66 -2.99561e+135  3.08743e+202   5.48109e+67  -1.38534e+67  -3.28097e+67   4.96008e+67   1.00403e+67   3.21265e+67  -1.63808e+66
  -2.84065e+60    5.3678e+62   7.84858e+61   2.93394e+68   1.0934e+136  6.93411e+202   2.74128e+68    1.3115e+67   3.42187e+67   2.46061e+68   1.00291e+67   3.24014e+67  -3.35661e+66
  -3.78959e+59   5.96043e+62   2.29621e+61   1.25443e+68  2.95931e+135  1.21092e+202   1.13033e+68   1.41707e+67    3.3355e+67   7.79169e+67  -1.00233e+67    -3.337e+67   -1.5427e+66
   6.66065e+59   5.96157e+62  -3.73187e+61  -1.62676e+68  4.43473e+135 -2.03833e+202   1.48421e+68  -1.14733e+67  -3.31339e+67  -1.18069e+68  -1.00223e+67  -3.33416e+67   -1.7049e+65
   1.33256e+60   5.94617e+62  -3.73414e+61  -1.62576e+68  4.48237e+135 -2.07911e+202   1.48151e+68  -1.14503e+67  -3.31091e+67  -1.18017e+68   1.00608e+67  -3.24695e+67   1.03239e+65
   -7.5679e+59   5.94503e+62   2.28896e+61   1.25295e+68  3.00498e+135  1.48556e+202   1.12667e+68   1.41366e+67   3.33227e+67   7.78354e+67   1.00599e+67   -3.2498e+67  -1.66585e+66
  -3.78958e+59   5.37471e+62   2.16877e+61   1.26061e+68  3.14592e+135   1.6732e+202   1.12896e+68   1.45597e+67   3.34409e+67   7.80604e+67  -9.99496e+66    3.1396e+67  -1.51699e+66
   6.63067e+59   5.37584e+62  -3.52253e+61  -1.64641e+68  4.79838e+135 -2.54662e+202    1.4936e+68  -1.24744e+67  -3.36443e+67  -1.18523e+68  -9.99403e+66   3.14244e+67   -1.8946e+65
   1.32662e+60   5.36023e+62  -3.52492e+61  -1.64543e+68  4.73439e+135 -2.46472e+202   1.49466e+68  -1.24517e+67  -3.36198e+67  -1.18472e+68   1.00326e+67   3.22761e+67   7.97073e+64
   -7.5679e+59   5.35909e+62   2.16151e+61   1.25916e+68  3.08009e+135  1.37415e+202   1.13025e+68   1.45262e+67   3.34092e+67   7.79803e+67   1.00317e+67   3.22476e+67  -1.63808e+66
   -2.8466e+60   5.95388e+62   8.31271e+61   2.88472e+68  9.84084e+135  4.62539e+202   2.70879e+68    1.1271e+67   3.25322e+67   2.44669e+68  -1.00474e+67  -3.30185e+67  -7.20725e+66
   -7.5679e+59   5.94503e+62   2.28896e+61   4.18769e+65 -3.09634e+135  3.40044e+202   5.56463e+67  -1.45948e+67  -3.39416e+67   4.89551e+67  -1.00198e+67  -3.32928e+67  -2.60676e+66
  -1.13242e+60   5.91935e+62   2.27688e+61   3.38948e+65 -2.86293e+135  3.41194e+202   5.35075e+67  -1.46132e+67  -3.39058e+67   4.88579e+67    9.9469e+66  -2.96898e+67  -2.72918e+66
   -4.2605e+60   5.92819e+62   8.28115e+61   2.87734e+68  9.96403e+135  5.68178e+202   2.69864e+68   1.11007e+67   3.24161e+67   2.44217e+68   9.91934e+66  -2.94162e+67  -7.72317e+66
  -2.84065e+60    5.3678e+62   7.84858e+61   2.93645e+68  1.10517e+136  7.82568e+202   2.74182e+68   1.34966e+67   3.42766e+67   2.45872e+68   -1.0018e+67   3.17332e+67  -7.04939e+66
   -7.5679e+59   5.35909e+62   2.16151e+61   3.01229e+66 -2.95165e+135  3.28361e+202   5.44126e+67  -1.37514e+67  -3.27925e+67   4.95562e+67  -9.99127e+66   3.14588e+67  -2.56329e+66
  -1.13242e+60   5.33306e+62   2.14944e+61   2.93436e+66 -3.18266e+135  3.27054e+202   5.64913e+67  -1.37694e+67   -3.2757e+67   4.94608e+67   9.92035e+66   3.50265e+67  -2.68367e+66
  -4.25168e+60   5.34175e+62   7.81722e+61    2.9292e+68  1.07101e+136  6.38971e+202   2.74029e+68   1.33293e+67   3.41627e+67   2.45428e+68   9.89361e+66   3.53001e+67  -7.55671e+66
   -7.5679e+59   5.94503e+62   2.28896e+61   1.25371e+68  2.96861e+135  1.14828e+202   1.12912e+68   1.42403e+67   3.33402e+67   7.77901e+67  -1.00287e+67  -3.31676e+67  -2.60676e+66
   1.33256e+60   5.94617e+62  -3.73414e+61  -1.62677e+68  4.46065e+135 -1.93394e+202   1.48334e+68  -1.16305e+67  -3.31322e+67  -1.17914e+68  -1.00326e+67  -3.31393e+67     1.993e+66
   1.99503e+60    5.9205e+62  -3.72674e+61    -1.623e+68  4.65456e+135 -2.43895e+202   1.47264e+68  -1.15436e+67  -3.30531e+67  -1.17703e+68   9.93091e+66  -2.95367e+67   2.26396e+66
  -1.13242e+60   5.91935e+62   2.27688e+61   1.25089e+68   3.1751e+135  1.79174e+202   1.11679e+68   1.41753e+67   3.32674e+67   7.76464e+67   9.93489e+66  -2.95649e+67  -2.72918e+66
   -7.5679e+59   5.35909e+62   2.16151e+61    1.2599e+68  3.13027e+135  1.71254e+202   1.12886e+68   1.46281e+67   3.34264e+67   7.79358e+67  -9.99987e+66   3.15799e+67  -2.56329e+66
   1.32662e+60   5.36023e+62  -3.52492e+61  -1.64636e+68  4.79833e+135 -2.69049e+202   1.49354e+68  -1.26246e+67  -3.36411e+67   -1.1837e+68  -1.00037e+67   3.16082e+67    1.9221e+66
   1.98624e+60   5.33419e+62  -3.51772e+61  -1.64265e+68  4.52824e+135 -2.09362e+202   1.49849e+68   -1.2539e+67  -3.35633e+67  -1.18163e+68   9.90483e+66   3.51754e+67   2.18853e+66
  -1.13242e+60   5.33306e+62   2.14944e+61   1.25714e+68  2.87292e+135  1.00526e+202   1.13715e+68   1.45643e+67   3.33549e+67   7.77945e+67   9.90866e+66   3.51472e+67  -2.68367e+66
  -5.22197e+50   6.59417e+62   8.80091e+61   2.93252e+68  1.00755e+136  5.15551e+202   2.75538e+68   1.08932e+67   3.30332e+67   2.49326e+68  -1.00713e+67  -3.36802e+67  -7.33667e+65
  -3.43865e+50   6.58516e+62   2.42826e+61    4.4253e+65 -3.21149e+135    3.773e+202   5.66717e+67  -1.49751e+67  -3.45383e+67   4.99559e+67  -1.00666e+67  -3.39654e+67  -4.81763e+65
  -3.78958e+59    6.5801e+62   2.42583e+61   4.19535e+65  -3.1964e+135  3.82379e+202   5.65383e+67  -1.49804e+67  -3.45346e+67   4.99345e+67   1.00911e+67  -3.37496e+67  -6.07398e+65
  -1.42716e+60   6.58911e+62   8.79722e+61   2.93174e+68  1.00788e+136  5.27849e+202   2.75449e+68    1.0875e+67    3.3024e+67   2.49275e+68   1.00865e+67  -3.34645e+67  -1.26368e+66
  -4.83871e+50   5.97442e+62   8.32861e+61    2.9861e+68  1.13596e+136  7.67596e+202   2.78941e+68   1.32075e+67   3.48399e+67   2.50562e+68  -1.00429e+67   3.22191e+67  -7.16785e+65
  -3.17953e+50   5.96556e+62   2.29864e+61   3.12688e+66 -3.05027e+135  3.33748e+202   5.53177e+67  -1.41001e+67  -3.33484e+67   5.05754e+67  -1.00384e+67   3.19339e+67  -4.73595e+65
  -3.78959e+59   5.96043e+62   2.29621e+61   3.10435e+66 -3.06343e+135  3.28601e+202   5.54352e+67  -1.41053e+67  -3.33448e+67   5.05544e+67   1.00624e+67   3.21458e+67  -5.97101e+65
   -1.4242e+60   5.96928e+62   8.32495e+61   2.98532e+68  1.13347e+136  7.50116e+202   2.78903e+68   1.31897e+67   3.48309e+67   2.50512e+68   1.00579e+67   3.24308e+67  -1.23782e+66
  -3.43865e+50   6.58516e+62   2.42826e+61    1.2754e+68  3.06607e+135  1.37773e+202   1.14893e+68   1.43551e+67   3.38987e+67    7.9286e+67  -1.00666e+67  -3.38353e+67  -4.81763e+65
  -1.65489e+50   6.58633e+62  -3.94372e+61  -1.65271e+68  4.57063e+135 -2.14064e+202   1.50811e+68  -1.15225e+67   -3.3673e+67  -1.20075e+68   -1.0067e+67  -3.38058e+67   -2.2997e+65
   6.69014e+59   6.58127e+62  -3.94488e+61   -1.6527e+68  4.58478e+135 -2.14043e+202   1.50762e+68  -1.15222e+67  -3.36734e+67  -1.20074e+68   1.00864e+67  -3.35901e+67   4.85511e+64
  -3.78958e+59    6.5801e+62   2.42583e+61   1.27485e+68  3.07604e+135   1.4644e+202   1.14789e+68   1.43425e+67   3.38855e+67   7.92574e+67   1.00867e+67  -3.36196e+67  -6.07398e+65
  -3.17953e+50   5.96556e+62   2.29864e+61   1.28178e+68  3.24475e+135  1.69665e+202   1.14826e+68    1.4758e+67    3.3987e+67   7.94334e+67  -1.00384e+67   3.20596e+67  -4.73595e+65
  -1.52118e+50   5.96671e+62  -3.73069e+61  -1.67304e+68  4.93554e+135 -2.65445e+202   1.51839e+68  -1.25581e+67  -3.42012e+67  -1.20545e+68  -1.00388e+67   3.20891e+67   -2.3051e+65
   6.66065e+59   5.96157e+62  -3.73187e+61  -1.67303e+68  4.92153e+135 -2.64486e+202   1.51884e+68  -1.25578e+67  -3.42016e+67  -1.20543e+68   1.00579e+67   3.23009e+67   4.32903e+64
  -3.78959e+59   5.96043e+62   2.29621e+61   1.28125e+68  3.22659e+135  1.59898e+202   1.14845e+68   1.47456e+67    3.3974e+67   7.94052e+67   1.00582e+67   3.22714e+67  -5.97101e+65
  -1.42716e+60   6.58911e+62   8.79722e+61   2.93228e+68  1.00752e+136  5.01878e+202   2.75513e+68   1.09617e+67   3.30365e+67    2.4923e+68  -1.00588e+67  -3.38003e+67  -2.98855e+66
  -3.78958e+59    6.5801e+62   2.42583e+61   4.60989e+65 -3.21808e+135   3.7034e+202     5.673e+67   -1.4926e+67  -3.45251e+67    4.9912e+67  -1.00467e+67  -3.40852e+67  -1.56929e+66
  -7.56789e+59   6.56492e+62   2.41858e+61   3.80724e+65 -3.15588e+135  3.83272e+202   5.61785e+67  -1.49445e+67  -3.45201e+67   4.98453e+67   1.00968e+67  -3.31869e+67  -1.69455e+66
  -2.85245e+60   6.57392e+62   8.78486e+61   2.92888e+68  1.00856e+136  5.42042e+202   2.75132e+68   1.08833e+67   3.29815e+67   2.49023e+68   1.00847e+67  -3.29024e+67  -3.51684e+66
   -1.4242e+60   5.96928e+62   8.32495e+61    2.9858e+68   1.1374e+136  7.85251e+202   2.78884e+68   1.32714e+67    3.4842e+67   2.50467e+68  -1.00307e+67    3.2096e+67  -2.91449e+66
  -3.78959e+59   5.96043e+62   2.29621e+61    3.1451e+66 -3.04086e+135  3.38802e+202   5.52336e+67  -1.40518e+67  -3.33354e+67   5.05322e+67   -1.0019e+67   3.18111e+67  -1.54269e+66
   -7.5679e+59   5.94503e+62   2.28896e+61   3.06582e+66 -3.09583e+135  3.25805e+202   5.57246e+67  -1.40701e+67  -3.33307e+67   5.04666e+67   1.00687e+67   3.26877e+67  -1.66582e+66
   -2.8466e+60   5.95388e+62   8.31271e+61   2.98246e+68   1.1267e+136  7.25256e+202   2.78718e+68   1.31942e+67   3.47877e+67   2.50264e+68   1.00571e+67   3.29722e+67  -3.43382e+66
  -3.78958e+59    6.5801e+62   2.42583e+61   1.27527e+68  3.05795e+135  1.29071e+202   1.14914e+68   1.43969e+67    3.3895e+67   7.92349e+67  -1.00511e+67  -3.39553e+67  -1.56929e+66
   6.69014e+59   6.58127e+62  -3.94488e+61  -1.65243e+68  4.55885e+135 -2.12314e+202   1.50819e+68  -1.15013e+67  -3.36673e+67  -1.20075e+68  -1.00502e+67  -3.39257e+67  -1.50616e+65
    1.3384e+60   6.56608e+62  -3.94703e+61  -1.65135e+68  4.60824e+135 -2.16847e+202   1.50536e+68  -1.14762e+67  -3.36405e+67  -1.20018e+68   1.00886e+67  -3.30278e+67   1.26948e+65
  -7.56789e+59   6.56492e+62   2.41858e+61   1.27376e+68  3.10595e+135  1.57776e+202   1.14537e+68   1.43621e+67    3.3862e+67    7.9152e+67   1.00877e+67  -3.30573e+67  -1.69455e+66
  -3.78959e+59   5.96043e+62   2.29621e+61   1.28166e+68  3.25263e+135  1.77608e+202   1.14777e+68   1.47991e+67   3.39834e+67   7.93831e+67  -1.00233e+67   3.19367e+67  -1.54269e+66
   6.66065e+59   5.96157e+62  -3.73187e+61  -1.67272e+68  4.93908e+135 -2.66372e+202   1.51792e+68   -1.2534e+67  -3.41945e+67  -1.20543e+68  -1.00223e+67   3.19662e+67  -1.71454e+65
   1.33256e+60   5.94617e+62  -3.73414e+61  -1.67165e+68  4.87156e+135 -2.57421e+202   1.51896e+68  -1.25092e+67  -3.41679e+67  -1.20487e+68   1.00608e+67   3.28425e+67   1.01406e+65
   -7.5679e+59   5.94503e+62   2.28896e+61   1.28018e+68  3.18388e+135  1.46361e+202   1.14911e+68    1.4765e+67   3.39511e+67   7.93016e+67   1.00599e+67    3.2813e+67  -1.66582e+66
  -2.85245e+60   6.57392e+62   8.78486e+61    2.9316e+68  1.01208e+136  4.80373e+202   2.75358e+68    1.1287e+67   3.30443e+67   2.48829e+68  -1.00764e+67  -3.35745e+67  -7.36928e+66
  -7.56789e+59   6.56492e+62   2.41858e+61   4.57992e+65 -3.19957e+135   3.5918e+202   5.65666e+67   -1.4839e+67  -3.45023e+67   4.97993e+67   -1.0048e+67  -3.38584e+67  -2.65168e+66
  -1.13242e+60   6.53961e+62    2.4065e+61   3.76402e+65 -2.95928e+135  3.60084e+202   5.44006e+67  -1.48578e+67  -3.44661e+67   4.97003e+67   9.97313e+66  -3.02124e+67  -2.77621e+66
  -4.26918e+60    6.5486e+62    8.7531e+61   2.92405e+68  1.02464e+136  5.90041e+202   2.74325e+68   1.11127e+67    3.2925e+67   2.48367e+68   9.94469e+66  -2.99293e+67  -7.89336e+66
   -2.8466e+60   5.95388e+62   8.31271e+61   2.98508e+68  1.13895e+136  8.18508e+202   2.78778e+68    1.3587e+67   3.48482e+67   2.50072e+68  -1.00474e+67   3.23021e+67  -7.20538e+66
   -7.5679e+59   5.94503e+62   2.28896e+61   3.14176e+66 -3.05099e+135  3.46138e+202    5.5325e+67  -1.39664e+67  -3.33132e+67   5.04213e+67  -1.00198e+67   3.20181e+67  -2.60673e+66
  -1.13242e+60   5.91935e+62   2.27688e+61   3.06206e+66  -3.2888e+135  3.45058e+202   5.74298e+67  -1.39848e+67  -3.32774e+67   5.03242e+67    9.9469e+66   3.56281e+67  -2.72915e+66
   -4.2605e+60   5.92819e+62   8.28115e+61   2.97766e+68  1.10367e+136   6.6876e+202   2.78617e+68   1.34158e+67   3.47311e+67   2.49619e+68   9.91933e+66   3.59113e+67  -7.72057e+66
  -7.56789e+59   6.56492e+62   2.41858e+61   1.27453e+68  3.06892e+135  1.22774e+202   1.14784e+68   1.44677e+67   3.38798e+67   7.91059e+67  -1.00571e+67  -3.37288e+67  -2.65168e+66
    1.3384e+60   6.56608e+62  -3.94703e+61  -1.65242e+68  4.58703e+135 -2.01562e+202   1.50725e+68  -1.16635e+67  -3.36653e+67  -1.19913e+68  -1.00612e+67  -3.36995e+67   2.06515e+66
    2.0037e+60   6.54077e+62  -3.93943e+61  -1.64855e+68  4.78613e+135  -2.5423e+202   1.49636e+68  -1.15741e+67  -3.35839e+67  -1.19697e+68   9.95663e+66  -3.00539e+67   2.34004e+66
  -1.13242e+60   6.53961e+62    2.4065e+61   1.27167e+68  3.28137e+135  1.89777e+202   1.13534e+68   1.44016e+67   3.38057e+67   7.89597e+67   9.96078e+66  -3.00831e+67  -2.77621e+66
   -7.5679e+59   5.94503e+62   2.28896e+61   1.28094e+68  3.23516e+135  1.81462e+202   1.14773e+68   1.48687e+67   3.39686e+67   7.92564e+67  -1.00287e+67   3.21434e+67  -2.60673e+66
   1.33256e+60   5.94617e+62  -3.73414e+61  -1.67265e+68  4.93784e+135 -2.81285e+202   1.51788e+68  -1.26894e+67  -3.41911e+67  -1.20384e+68  -1.00327e+67   3.21727e+67   1.99117e+66
   1.99503e+60    5.9205e+62  -3.72674e+61  -1.66884e+68  4.65926e+135  -2.1888e+202   1.52286e+68  -1.26015e+67   -3.4111e+67  -1.20171e+68   9.93091e+66   3.57822e+67    2.2614e+66
  -1.13242e+60   5.91935e+62   2.27688e+61   1.27812e+68  2.97011e+135  1.07744e+202   1.15611e+68   1.48038e+67   3.38958e+67   7.91127e+67   9.93489e+66    3.5753e+67  -2.72915e+66
  -5.60806e+50   7.24848e+62   9.28152e+61   2.98105e+68  1.03652e+136  5.35629e+202   2.80181e+68   1.08992e+67   3.35624e+67   2.53644e+68  -1.00992e+67  -3.42848e+67  -7.51601e+65
  -3.69614e+50   7.23932e+62   2.56013e+61   4.80889e+65 -3.32244e+135  3.98894e+202   5.76426e+67  -1.52307e+67  -3.51201e+67   5.08317e+67  -1.00944e+67  -3.45801e+67  -4.90225e+65
  -3.78958e+59   7.23434e+62   2.55771e+61    4.5739e+65 -3.30667e+135  4.04119e+202   5.75055e+67  -1.52361e+67  -3.51164e+67   5.08099e+67   1.01194e+67  -3.43586e+67  -6.18074e+65
  -1.43007e+60   7.24349e+62   9.27781e+61   2.98022e+68  1.03684e+136  5.48388e+202   2.80087e+68     1.088e+67   3.35524e+67    2.5359e+68   1.01146e+67  -3.40634e+67  -1.29007e+66
  -5.22197e+50   6.59417e+62   8.80091e+61   3.03646e+68  1.17152e+136  8.03825e+202     2.837e+68   1.32918e+67   3.54317e+67   2.54922e+68  -1.00713e+67     3.278e+67  -7.33664e+65
  -3.43865e+50   6.58516e+62   2.42826e+61   3.26033e+66 -3.15305e+135  3.52101e+202   5.62466e+67  -1.43248e+67   -3.3888e+67   5.14731e+67  -1.00666e+67   3.24846e+67  -4.81762e+65
  -3.78958e+59    6.5801e+62   2.42583e+61   3.23728e+66 -3.16676e+135  3.46802e+202    5.6367e+67  -1.43301e+67  -3.38844e+67   5.14517e+67   1.00911e+67   3.27018e+67  -6.07407e+65
  -1.42716e+60   6.58911e+62   8.79722e+61   3.03564e+68  1.16889e+136  7.85499e+202   2.83659e+68    1.3273e+67   3.54219e+67    2.5487e+68   1.00865e+67    3.2997e+67  -1.26285e+66
  -3.69614e+50   7.23932e+62   2.56013e+61   1.29697e+68  3.16971e+135  1.46661e+202   1.16841e+68   1.45885e+67    3.4458e+67   8.06509e+67  -1.00944e+67  -3.44455e+67  -4.90225e+65
  -1.78667e+50    7.2405e+62  -4.16056e+61  -1.67928e+68  4.70066e+135 -2.23202e+202   1.53295e+68  -1.15512e+67  -3.42249e+67  -1.22152e+68  -1.00947e+67  -3.44148e+67  -2.28968e+65
   6.71919e+59   7.23551e+62  -4.16169e+61  -1.67924e+68  4.71518e+135 -2.23224e+202   1.53243e+68  -1.15503e+67  -3.42246e+67  -1.22149e+68   1.01145e+67  -3.41934e+67   5.35653e+64
  -3.78958e+59   7.23434e+62   2.55771e+61   1.29642e+68  3.18018e+135  1.55705e+202   1.16734e+68   1.45757e+67   3.44445e+67   8.06218e+67   1.01148e+67  -3.42241e+67  -6.18074e+65
  -3.43865e+50   6.58516e+62   2.42826e+61   1.30358e+68  3.35729e+135  1.80486e+202   1.16773e+68   1.50054e+67    3.4549e+67   8.08033e+67  -1.00666e+67   3.26147e+67  -4.81762e+65
  -1.65489e+50   6.58633e+62  -3.94372e+61  -1.70028e+68  5.08356e+135 -2.77836e+202   1.54356e+68  -1.26202e+67  -3.47707e+67  -1.22637e+68   -1.0067e+67   3.26454e+67  -2.29972e+65
   6.69014e+59   6.58127e+62  -3.94488e+61  -1.70024e+68  5.06869e+135 -2.76732e+202     1.544e+68  -1.26193e+67  -3.47705e+67  -1.22634e+68   1.00864e+67   3.28624e+67   4.76905e+64
  -3.78958e+59    6.5801e+62   2.42583e+61   1.30303e+68   3.3384e+135  1.70298e+202   1.16793e+68   1.49928e+67   3.45357e+67   8.07746e+67   1.00867e+67   3.28318e+67  -6.07407e+65
  -1.43007e+60   7.24349e+62   9.27781e+61   2.98083e+68  1.03662e+136  5.21539e+202   2.80156e+68   1.09717e+67   3.35663e+67   2.53545e+68  -1.00865e+67  -3.44001e+67  -3.06557e+66
  -3.78958e+59   7.23434e+62   2.55771e+61   4.99609e+65 -3.32879e+135  3.91598e+202   5.76979e+67  -1.51807e+67  -3.51067e+67    5.0787e+67  -1.00739e+67  -3.46952e+67  -1.59684e+66
  -7.56789e+59   7.21937e+62   2.55045e+61   4.18323e+65  -3.2636e+135  4.04782e+202   5.71295e+67  -1.51995e+67  -3.51015e+67   5.07193e+67   1.01245e+67  -3.37701e+67  -1.72431e+66
  -2.85822e+60   7.22852e+62   9.26532e+61    2.9773e+68  1.03767e+136  5.63423e+202   2.79761e+68   1.08902e+67   3.35089e+67   2.53331e+68   1.01119e+67  -3.34755e+67  -3.60232e+66
  -1.42716e+60   6.58911e+62   8.79722e+61   3.03619e+68  1.17305e+136  8.22446e+202   2.83644e+68   1.33597e+67   3.54344e+67   2.54825e+68  -1.00588e+67   3.26612e+67  -2.98771e+66
  -3.78958e+59    6.5801e+62   2.42583e+61   3.27874e+66 -3.14372e+135  3.57382e+202   5.61647e+67  -1.42757e+67  -3.38748e+67   5.14292e+67  -1.00467e+67   3.23662e+67   -1.5693e+66
  -7.56789e+59   6.56492e+62   2.41858e+61   3.19841e+66  -3.2013e+135  3.44102e+202   5.66703e+67  -1.42942e+67  -3.38699e+67   5.13625e+67   1.00968e+67   3.32685e+67  -1.69456e+66
  -2.85245e+60   6.57392e+62   8.78486e+61   3.03271e+68  1.16181e+136  7.59473e+202    2.8347e+68   1.32796e+67   3.53777e+67   2.54614e+68   1.00847e+67   3.35631e+67   -3.5152e+66
  -3.78958e+59   7.23434e+62   2.55771e+61   1.29684e+68  3.16177e+135  1.37672e+202    1.1686e+68   1.46311e+67   3.44543e+67   8.05989e+67  -1.00785e+67  -3.45606e+67  -1.59684e+66
   6.71919e+59   7.23551e+62  -4.16169e+61  -1.67902e+68  4.68935e+135 -2.21379e+202   1.53303e+68  -1.15323e+67  -3.42195e+67   -1.2215e+68  -1.00776e+67  -3.45299e+67  -1.28741e+65
   1.34415e+60   7.22055e+62  -4.16372e+61  -1.67784e+68  4.74064e+135 -2.26423e+202   1.53006e+68  -1.15051e+67  -3.41906e+67  -1.22089e+68    1.0116e+67  -3.36052e+67   1.52869e+65
  -7.56789e+59   7.21937e+62   2.55045e+61    1.2953e+68  3.21223e+135  1.67695e+202   1.16473e+68   1.45956e+67   3.44205e+67   8.05144e+67   1.01151e+67  -3.36359e+67  -1.72431e+66
  -3.78958e+59    6.5801e+62   2.42583e+61   1.30345e+68  3.36502e+135  1.88681e+202   1.16725e+68   1.50472e+67   3.45453e+67   8.07521e+67  -1.00511e+67   3.24961e+67   -1.5693e+66
   6.69014e+59   6.58127e+62  -3.94488e+61  -1.69997e+68  5.08727e+135 -2.78954e+202   1.54311e+68  -1.25985e+67  -3.47644e+67  -1.22634e+68  -1.00502e+67   3.25268e+67   -1.5148e+65
    1.3384e+60   6.56608e+62  -3.94703e+61  -1.69881e+68  5.01606e+135 -2.69171e+202   1.54414e+68  -1.25716e+67  -3.47358e+67  -1.22574e+68   1.00886e+67   3.34288e+67   1.25275e+65
  -7.56789e+59   6.56492e+62   2.41858e+61   1.30194e+68  3.29316e+135  1.56003e+202   1.16864e+68   1.50124e+67   3.45122e+67   8.06692e+67   1.00877e+67   3.33981e+67  -1.69456e+66
  -2.85822e+60   7.22852e+62   9.26532e+61   2.98012e+68  1.04148e+136  4.99355e+202   2.79993e+68    1.1305e+67    3.3574e+67   2.53133e+68  -1.01051e+67  -3.41494e+67  -7.53789e+66
  -7.56789e+59   7.21937e+62   2.55045e+61   4.97009e+65 -3.30818e+135  3.79729e+202   5.75189e+67  -1.50921e+67  -3.50833e+67   5.06724e+67  -1.00757e+67  -3.44434e+67   -2.6982e+66
  -1.13242e+60   7.19443e+62   2.53837e+61   4.13605e+65 -3.06075e+135  3.80363e+202   5.53256e+67  -1.51114e+67  -3.50467e+67   5.05717e+67   9.99903e+66   -3.0754e+67  -2.82492e+66
  -4.27774e+60   7.20357e+62   9.23336e+61   2.97239e+68  1.05429e+136  6.13265e+202   2.78941e+68   1.11266e+67   3.34514e+67   2.52661e+68   9.96966e+66  -3.04609e+67  -8.07044e+66
  -2.85245e+60   6.57392e+62   8.78486e+61   3.03543e+68  1.17453e+136  8.57034e+202   2.83537e+68   1.36833e+67   3.54405e+67    2.5442e+68  -1.00764e+67   3.28911e+67  -7.36764e+66
  -7.56789e+59   6.56492e+62   2.41858e+61   3.27568e+66 -3.15552e+135  3.65187e+202   5.62695e+67  -1.41887e+67  -3.38521e+67   5.13165e+67   -1.0048e+67    3.2597e+67  -2.65169e+66
  -1.13242e+60   6.53961e+62    2.4065e+61   3.19419e+66 -3.40041e+135  3.64352e+202   5.84005e+67  -1.42075e+67  -3.38159e+67   5.12176e+67   9.97313e+66   3.62497e+67  -2.77622e+66
  -4.26918e+60    6.5486e+62    8.7531e+61   3.02784e+68  1.13808e+136  7.00762e+202   2.83368e+68   1.35081e+67   3.53203e+67   2.53956e+68   9.94468e+66   3.65428e+67    -7.891e+66
  -7.56789e+59   7.21937e+62   2.55045e+61   1.29609e+68  3.17455e+135  1.31353e+202   1.16722e+68    1.4703e+67   3.44386e+67   8.04675e+67  -1.00851e+67  -3.43092e+67   -2.6982e+66
   1.34415e+60   7.22055e+62  -4.16372e+61  -1.67899e+68   4.7199e+135 -2.10296e+202   1.53199e+68  -1.16994e+67   -3.4217e+67  -1.21982e+68  -1.00895e+67  -3.42787e+67   2.14067e+66
   2.01224e+60   7.19561e+62  -4.15592e+61  -1.67501e+68  4.92439e+135  -2.6526e+202   1.52093e+68  -1.16076e+67  -3.41334e+67   -1.2176e+68   9.98198e+66  -3.05899e+67   2.41967e+66
  -1.13242e+60   7.19443e+62   2.53837e+61   1.29318e+68  3.39315e+135  2.01157e+202   1.15455e+68   1.46357e+67   3.43631e+67   8.03188e+67   9.98632e+66  -3.06202e+67  -2.82492e+66
  -7.56789e+59   6.56492e+62   2.41858e+61   1.30271e+68  3.34559e+135  1.92434e+202   1.16726e+68   1.51179e+67   3.45301e+67   8.06231e+67  -1.00571e+67   3.27266e+67  -2.65169e+66
    1.3384e+60   6.56608e+62  -3.94703e+61  -1.69989e+68  5.08466e+135 -2.94401e+202    1.5431e+68  -1.27589e+67  -3.47606e+67  -1.22469e+68  -1.00612e+67   3.27571e+67   2.06347e+66
    2.0037e+60   6.54077e+62  -3.93943e+61  -1.69597e+68  4.79728e+135 -2.29104e+202   1.54809e+68  -1.26686e+67  -3.46784e+67   -1.2225e+68   9.95662e+66   3.64092e+67   2.33766e+66
  -1.13242e+60   6.53961e+62    2.4065e+61   1.29985e+68  3.07251e+135  1.15552e+202   1.17573e+68   1.50518e+67    3.4456e+67   8.04769e+67   9.96077e+66   3.63789e+67  -2.77622e+66
   -5.9907e+50   7.93797e+62   9.77074e+61   3.03131e+68  1.06697e+136  5.57002e+202   2.84989e+68   1.09069e+67   3.41102e+67   2.58114e+68  -1.01267e+67  -3.49107e+67  -7.70656e+65
  -3.95474e+50   7.92865e+62   2.69434e+61   5.18876e+65 -3.43934e+135  4.22115e+202   5.86482e+67  -1.54959e+67  -3.57234e+67   5.17382e+67  -1.01217e+67  -3.52167e+67   -4.9901e+65
   -3.7896e+59   7.92374e+62   2.69192e+61   4.94812e+65 -3.42284e+135  4.27489e+202   5.85072e+67  -1.55015e+67  -3.57197e+67    5.1716e+67   1.01472e+67  -3.49891e+67  -6.29175e+65
  -1.43295e+60   7.93305e+62     9.767e+61   3.03044e+68  1.06727e+136  5.70253e+202   2.84891e+68   1.08867e+67   3.40993e+67   2.58058e+68   1.01423e+67  -3.46832e+67  -1.31799e+66
  -5.60806e+50   7.24848e+62   9.28152e+61   3.08866e+68  1.20903e+136  8.42778e+202    2.8863e+68   1.33824e+67   3.60455e+67   2.59438e+68  -1.00992e+67   3.33606e+67  -7.51598e+65
  -3.69614e+50   7.23932e+62   2.56013e+61   3.39862e+66 -3.26124e+135  3.71788e+202   5.72083e+67  -1.45573e+67  -3.44468e+67   5.24028e+67  -1.00944e+67   3.30546e+67  -4.90224e+65
  -3.78958e+59   7.23434e+62   2.55771e+61   3.37499e+66 -3.27555e+135  3.66332e+202   5.73319e+67  -1.45628e+67  -3.44431e+67   5.23809e+67   1.01194e+67   3.32774e+67  -6.18106e+65
  -1.43007e+60   7.24349e+62   9.27781e+61    3.0878e+68  1.20625e+136  8.23545e+202   2.88587e+68   1.33625e+67   3.60348e+67   2.59382e+68   1.01146e+67   3.35832e+67  -1.28933e+66
  -3.95474e+50   7.92865e+62   2.69434e+61   1.31932e+68  3.27885e+135  1.56238e+202   1.18858e+68   1.48301e+67   3.50374e+67   8.20643e+67  -1.01217e+67  -3.50772e+67   -4.9901e+65
  -1.91824e+50   7.92984e+62  -4.38134e+61  -1.70682e+68  4.83747e+135 -2.32983e+202   1.55868e+68  -1.15831e+67  -3.47966e+67  -1.24302e+68  -1.01221e+67  -3.50453e+67  -2.27495e+65
   6.74781e+59   7.92493e+62  -4.38244e+61  -1.70675e+68  4.85241e+135  -2.3306e+202   1.55813e+68  -1.15814e+67  -3.47956e+67  -1.24298e+68   1.01422e+67  -3.48178e+67   5.92484e+64
   -3.7896e+59   7.92374e+62   2.69192e+61   1.31875e+68  3.28986e+135  1.65685e+202   1.18749e+68   1.48171e+67   3.50238e+67   8.20346e+67   1.01425e+67  -3.48497e+67  -6.29175e+65
  -3.69614e+50   7.23932e+62   2.56013e+61   1.32615e+68  3.47593e+135  1.92155e+202   1.18789e+68   1.52619e+67   3.51313e+67    8.2222e+67  -1.00944e+67   3.31892e+67  -4.90224e+65
  -1.78667e+50    7.2405e+62  -4.16056e+61  -1.72851e+68  5.23961e+135 -2.91156e+202   1.56965e+68  -1.26873e+67   -3.5361e+67  -1.24803e+68  -1.00947e+67   3.32211e+67  -2.28969e+65
   6.71919e+59   7.23551e+62  -4.16169e+61  -1.72845e+68  5.22383e+135  -2.8989e+202   1.57008e+68  -1.26858e+67  -3.53601e+67  -1.24799e+68   1.01145e+67   3.34438e+67   5.27435e+64
  -3.78958e+59   7.23434e+62   2.55771e+61    1.3256e+68  3.45626e+135  1.81517e+202    1.1881e+68   1.52491e+67   3.51178e+67   8.21928e+67   1.01148e+67   3.34119e+67  -6.18106e+65
  -1.43295e+60   7.93305e+62     9.767e+61   3.03111e+68   1.0672e+136   5.4247e+202   2.84963e+68   1.09835e+67   3.41147e+67   2.58012e+68  -1.01139e+67  -3.50208e+67  -3.14669e+66
   -3.7896e+59   7.92374e+62   2.69192e+61   5.37943e+65 -3.44542e+135  4.14458e+202   5.87002e+67   -1.5445e+67  -3.57097e+67   5.16927e+67  -1.01007e+67  -3.53266e+67  -1.62545e+66
  -7.56792e+59     7.909e+62   2.68466e+61   4.55498e+65 -3.37705e+135  4.27892e+202   5.81142e+67  -1.54641e+67  -3.57042e+67   5.16237e+67   1.01519e+67  -3.43737e+67   -1.7552e+66
  -2.86391e+60   7.91831e+62   9.75438e+61   3.02744e+68  1.06827e+136  5.86189e+202   2.84555e+68   1.08989e+67   3.40547e+67    2.5779e+68   1.01387e+67  -3.40684e+67  -3.69226e+66
  -1.43007e+60   7.24349e+62   9.27781e+61    3.0884e+68  1.21065e+136  8.62416e+202   2.88575e+68   1.34542e+67   3.60488e+67   2.59337e+68  -1.00866e+67   3.32465e+67  -3.06482e+66
  -3.78958e+59   7.23434e+62   2.55771e+61   3.41721e+66 -3.25204e+135   3.7731e+202   5.71289e+67  -1.45074e+67  -3.44334e+67    5.2358e+67  -1.00739e+67   3.29408e+67  -1.59687e+66
  -7.56789e+59   7.21937e+62   2.55045e+61   3.33569e+66 -3.31236e+135  3.63746e+202   5.76497e+67  -1.45262e+67  -3.44282e+67   5.22901e+67   1.01245e+67   3.38698e+67  -1.72435e+66
  -2.85822e+60   7.22852e+62   9.26532e+61   3.08479e+68  1.19883e+136  7.96256e+202   2.88394e+68    1.3371e+67   3.59895e+67   2.59119e+68   1.01119e+67    3.4175e+67  -3.60082e+66
   -3.7896e+59   7.92374e+62   2.69192e+61   1.31919e+68  3.27114e+135  1.46951e+202   1.18875e+68   1.48736e+67   3.50337e+67   8.20113e+67  -1.01055e+67  -3.51872e+67  -1.62545e+66
   6.74781e+59   7.92493e+62  -4.38244e+61  -1.70657e+68  4.82667e+135 -2.31076e+202   1.55876e+68  -1.15664e+67  -3.47915e+67  -1.24299e+68  -1.01046e+67  -3.51552e+67  -1.04877e+65
   1.34983e+60   7.91019e+62  -4.38434e+61   -1.7053e+68     4.88e+135 -2.36688e+202   1.55566e+68  -1.15372e+67  -3.47606e+67  -1.24233e+68   1.01431e+67  -3.42027e+67   1.80964e+65
  -7.56792e+59     7.909e+62   2.68466e+61   1.31762e+68  3.32419e+135  1.78376e+202   1.18477e+68   1.48373e+67   3.49991e+67   8.19251e+67   1.01422e+67  -3.42346e+67   -1.7552e+66
  -3.78958e+59   7.23434e+62   2.55771e+61   1.32602e+68  3.48349e+135   2.0061e+202   1.18742e+68   1.53044e+67   3.51276e+67   8.21699e+67  -1.00785e+67   3.30754e+67  -1.59687e+66
   6.71919e+59   7.23551e+62  -4.16169e+61  -1.72823e+68  5.24344e+135 -2.92478e+202   1.56921e+68  -1.26679e+67   -3.5355e+67    -1.248e+68  -1.00776e+67   3.31073e+67  -1.29567e+65
   1.34415e+60   7.22055e+62  -4.16372e+61  -1.72698e+68  5.16836e+135 -2.81787e+202   1.57023e+68   -1.2639e+67  -3.53245e+67  -1.24734e+68    1.0116e+67   3.40359e+67   1.51259e+65
  -7.56789e+59   7.21937e+62   2.55045e+61   1.32448e+68  3.40831e+135  1.66406e+202   1.18887e+68   1.52689e+67   3.50937e+67   8.20853e+67   1.01151e+67    3.4004e+67  -1.72435e+66
  -2.86391e+60   7.91831e+62   9.75438e+61   3.03037e+68  1.07238e+136  5.19574e+202   2.84794e+68    1.1325e+67   3.41223e+67   2.57589e+68  -1.01335e+67  -3.47442e+67  -7.71334e+66
  -7.56792e+59     7.909e+62   2.68466e+61   5.35799e+65 -3.42255e+135  4.01821e+202   5.85051e+67  -1.53546e+67  -3.56856e+67   5.15761e+67  -1.01032e+67  -3.50488e+67  -2.74642e+66
  -1.13242e+60   7.88443e+62   2.67258e+61   4.50447e+65 -3.16769e+135  4.02159e+202    5.6284e+67  -1.53743e+67  -3.56487e+67   5.14734e+67   1.00246e+67  -3.13157e+67  -2.87539e+66
  -4.28618e+60   7.89372e+62   9.72221e+61   3.02245e+68  1.08545e+136  6.37955e+202   2.83721e+68   1.11424e+67   3.39963e+67   2.57107e+68   9.99422e+66   -3.1012e+67  -8.25468e+66
  -2.85822e+60   7.22852e+62   9.26532e+61   3.08762e+68  1.21205e+136  8.98379e+202   2.88467e+68   1.37858e+67   3.60547e+67   2.58921e+68  -1.01051e+67   3.35011e+67  -7.53638e+66
  -7.56789e+59   7.21937e+62   2.55045e+61   3.41437e+66 -3.26563e+135   3.8562e+202   5.72476e+67  -1.44188e+67  -3.44101e+67   5.22433e+67  -1.00757e+67   3.31964e+67  -2.69825e+66
  -1.13242e+60   7.19443e+62   2.53837e+61   3.33095e+66 -3.51787e+135  3.85053e+202   5.94051e+67  -1.44381e+67  -3.43735e+67   5.21425e+67   9.99902e+66   3.68922e+67  -2.82495e+66
  -4.27774e+60   7.20357e+62   9.23336e+61   3.07985e+68  1.17437e+136  7.35178e+202   2.88289e+68   1.36065e+67   3.59312e+67   2.58447e+68   9.96965e+66   3.71959e+67  -8.06822e+66
  -7.56792e+59     7.909e+62   2.68466e+61   1.31842e+68  3.28585e+135  1.40622e+202   1.18728e+68   1.49468e+67   3.50176e+67   8.18775e+67  -1.01129e+67  -3.49098e+67  -2.74642e+66
   1.34983e+60   7.91019e+62  -4.38434e+61  -1.70651e+68  4.85971e+135 -2.19644e+202   1.55763e+68  -1.17383e+67  -3.47885e+67  -1.24125e+68  -1.01174e+67  -3.48781e+67   2.21964e+66
   2.02067e+60   7.88562e+62  -4.37633e+61  -1.70243e+68  5.06979e+135 -2.77043e+202   1.54638e+68   -1.1644e+67  -3.47026e+67  -1.23896e+68    1.0007e+67  -3.11456e+67   2.50291e+66
  -1.13242e+60   7.88443e+62   2.67258e+61   1.31545e+68  3.51084e+135  2.13385e+202   1.17444e+68   1.48782e+67   3.49406e+67    8.1726e+67   1.00115e+67  -3.11771e+67  -2.87539e+66
  -7.56789e+59   7.21937e+62   2.55045e+61   1.32527e+68  3.46193e+135  2.04239e+202   1.18749e+68   1.53763e+67   3.51119e+67   8.20384e+67  -1.00851e+67   3.33306e+67  -2.69825e+66
   1.34415e+60   7.22055e+62  -4.16372e+61  -1.72812e+68  5.23933e+135 -3.08471e+202   1.56922e+68  -1.28333e+67  -3.53509e+67  -1.24628e+68  -1.00895e+67   3.33624e+67   2.13906e+66
   2.01224e+60   7.19561e+62  -4.15592e+61   -1.7241e+68  4.94279e+135   -2.401e+202   1.57425e+68  -1.27406e+67  -3.52664e+67  -1.24403e+68   9.98198e+66   3.70575e+67   2.41735e+66
  -1.13242e+60   7.19443e+62   2.53837e+61   1.32235e+68   3.1805e+135  1.24005e+202   1.19606e+68    1.5309e+67   3.50363e+67   8.18896e+67   9.98631e+66    3.7026e+67  -2.82495e+66
  -6.35629e+50   8.66327e+62   1.02689e+62    3.0834e+68  1.09899e+136  5.79764e+202   2.89971e+68   1.09162e+67   3.46776e+67   2.62746e+68  -1.01539e+67   -3.5559e+67  -7.90931e+65
  -4.21064e+50   8.65378e+62   2.83096e+61   5.56493e+65 -3.56265e+135  4.47118e+202   5.96905e+67  -1.57713e+67  -3.63493e+67   5.26771e+67  -1.01487e+67  -3.58763e+67  -5.08164e+65
  -3.78964e+59   8.64895e+62   2.82854e+61   5.31731e+65 -3.54536e+135  4.52645e+202   5.95453e+67   -1.5777e+67  -3.63456e+67   5.26543e+67   1.01748e+67  -3.56422e+67  -6.40749e+65
  -1.43578e+60   8.65843e+62   1.02651e+62   3.08247e+68  1.09927e+136  5.93539e+202   2.89868e+68   1.08949e+67   3.46657e+67   2.62687e+68   1.01696e+67  -3.53251e+67  -1.34751e+66
   -5.9907e+50   7.93797e+62   9.77074e+61   3.14278e+68  1.24865e+136  8.84695e+202   2.93742e+68   1.34793e+67   3.66825e+67   2.64116e+68  -1.01267e+67   3.39619e+67  -7.70652e+65
  -3.95474e+50   7.92865e+62   2.69434e+61   3.54219e+66 -3.37525e+135  3.92929e+202   5.82048e+67  -1.47982e+67  -3.50257e+67   5.33661e+67  -1.01217e+67   3.36446e+67  -4.99009e+65
   -3.7896e+59   7.92374e+62   2.69192e+61   3.51782e+66 -3.39021e+135  3.87314e+202   5.83317e+67  -1.48038e+67  -3.50221e+67   5.33437e+67   1.01472e+67   3.38735e+67  -6.29226e+65
  -1.43295e+60   7.93305e+62     9.767e+61   3.14187e+68   1.2457e+136  8.64483e+202   2.93695e+68   1.34584e+67   3.66709e+67   2.64058e+68   1.01423e+67   3.41906e+67   -1.3173e+66
  -4.21064e+50   8.65378e+62   2.83096e+61   1.34247e+68   3.3939e+135  1.66568e+202   1.20948e+68   1.50804e+67   3.56381e+67   8.35289e+67  -1.01487e+67  -3.57316e+67  -5.08164e+65
   -2.0651e+50     8.655e+62  -4.60619e+61  -1.73537e+68  4.98155e+135 -2.43463e+202   1.58536e+68  -1.16182e+67  -3.53891e+67   -1.2653e+68   -1.0149e+67  -3.56985e+67  -2.25548e+65
     6.776e+59   8.65016e+62  -4.60727e+61  -1.73527e+68  4.99695e+135  -2.4361e+202   1.58476e+68  -1.16159e+67  -3.53875e+67  -1.26524e+68   1.01695e+67  -3.54645e+67   6.55764e+64
  -3.78964e+59   8.64895e+62   2.82854e+61    1.3419e+68  3.40548e+135  1.76444e+202   1.20836e+68   1.50671e+67   3.56242e+67   8.34985e+67   1.01699e+67  -3.54977e+67  -6.40749e+65
  -3.95474e+50   7.92865e+62   2.69434e+61   1.34955e+68  3.60113e+135  2.04751e+202   1.20879e+68   1.55279e+67   3.57351e+67   8.36922e+67  -1.01217e+67   3.37842e+67  -4.99009e+65
  -1.91824e+50   7.92984e+62  -4.38134e+61   -1.7578e+68  5.40425e+135 -3.05487e+202    1.5967e+68  -1.27596e+67  -3.59731e+67  -1.27048e+68  -1.01221e+67   3.38173e+67  -2.27496e+65
   6.74781e+59   7.92493e+62  -4.38244e+61  -1.75771e+68  5.38752e+135  -3.0404e+202   1.59712e+68  -1.27574e+67  -3.59715e+67  -1.27042e+68   1.01422e+67   3.40461e+67   5.84293e+64
   -3.7896e+59   7.92374e+62   2.69192e+61   1.34899e+68   3.5806e+135  1.93631e+202   1.20901e+68   1.55148e+67   3.57214e+67   8.36623e+67   1.01425e+67   3.40129e+67  -6.29226e+65
  -1.43578e+60   8.65843e+62   1.02651e+62   3.08321e+68  1.09936e+136  5.64771e+202   2.89945e+68   1.09972e+67   3.46826e+67   2.62641e+68  -1.01409e+67  -3.56636e+67  -3.23216e+66
  -3.78964e+59   8.64895e+62   2.82854e+61   5.76005e+65 -3.56841e+135  4.39069e+202   5.97389e+67  -1.57194e+67  -3.63353e+67   5.26307e+67  -1.01272e+67  -3.59806e+67  -1.65521e+66
  -7.56798e+59   8.63443e+62   2.82128e+61   4.92089e+65 -3.49666e+135  4.52753e+202   5.91346e+67  -1.57387e+67  -3.63294e+67   5.25603e+67   1.01789e+67  -3.49988e+67  -1.78735e+66
  -2.86953e+60   8.64391e+62   1.02523e+62    3.0794e+68  1.10045e+136  6.10442e+202   2.89521e+68   1.09094e+67   3.46201e+67   2.62411e+68   1.01651e+67  -3.46824e+67  -3.78691e+66
  -1.43295e+60   7.93305e+62     9.767e+61   3.14254e+68  1.25035e+136  9.05413e+202   2.93687e+68   1.35552e+67   3.66863e+67   2.64013e+68  -1.01139e+67    3.3853e+67  -3.14599e+66
   -3.7896e+59   7.92374e+62   2.69192e+61   3.56095e+66 -3.36619e+135  3.98709e+202   5.81281e+67  -1.47474e+67  -3.50121e+67   5.33205e+67  -1.01007e+67    3.3536e+67  -1.62549e+66
  -7.56792e+59     7.909e+62   2.68466e+61   3.47785e+66 -3.42944e+135   3.8486e+202   5.86646e+67  -1.47666e+67  -3.50067e+67   5.32511e+67   1.01519e+67   3.44927e+67  -1.75527e+66
  -2.86391e+60   7.91831e+62   9.75438e+61    3.1388e+68  1.23791e+136  8.35831e+202   2.93498e+68   1.34688e+67   3.66245e+67   2.63786e+68   1.01387e+67   3.48091e+67  -3.69083e+66
  -3.78964e+59   8.64895e+62   2.82854e+61   1.34234e+68  3.38646e+135  1.56972e+202   1.20964e+68   1.51248e+67   3.56344e+67   8.34749e+67  -1.01321e+67  -3.58361e+67  -1.65521e+66
     6.776e+59   8.65016e+62  -4.60727e+61  -1.73514e+68  4.97128e+135 -2.41461e+202   1.58542e+68  -1.16037e+67  -3.53843e+67  -1.26526e+68  -1.01312e+67  -3.58029e+67  -7.90251e+64
   1.35542e+60   8.63564e+62  -4.60903e+61  -1.73378e+68  5.02681e+135 -2.47702e+202   1.58219e+68  -1.15724e+67  -3.53514e+67  -1.26454e+68   1.01697e+67  -3.48215e+67   2.11216e+65
  -7.56798e+59   8.63443e+62   2.82128e+61   1.34073e+68  3.44224e+135  1.89888e+202   1.20555e+68   1.50877e+67   3.55989e+67   8.33867e+67   1.01688e+67  -3.48547e+67  -1.78735e+66
   -3.7896e+59   7.92374e+62   2.69192e+61   1.34942e+68  3.60848e+135  2.13475e+202   1.20834e+68   1.55712e+67   3.57313e+67   8.36391e+67  -1.01055e+67   3.36754e+67  -1.62549e+66
   6.74781e+59   7.92493e+62  -4.38244e+61  -1.75753e+68  5.40817e+135 -3.07026e+202   1.59627e+68  -1.27424e+67  -3.59674e+67  -1.27043e+68  -1.01046e+67   3.37086e+67    -1.057e+65
   1.34983e+60   7.91019e+62  -4.38434e+61   -1.7562e+68  5.32903e+135 -2.95349e+202   1.59729e+68  -1.27116e+67   -3.5935e+67  -1.26973e+68    1.0143e+67   3.46649e+67   1.79358e+65
  -7.56792e+59     7.909e+62   2.68466e+61   1.34784e+68  3.52975e+135  1.77639e+202   1.20983e+68   1.55348e+67   3.56966e+67   8.35525e+67   1.01422e+67   3.46317e+67  -1.75527e+66
  -2.86953e+60   8.64391e+62   1.02523e+62   3.08244e+68   1.1049e+136  5.41134e+202   2.89767e+68   1.13472e+67   3.46901e+67   2.62206e+68  -1.01616e+67    -3.536e+67  -7.89601e+66
  -7.56798e+59   8.63443e+62   2.82128e+61   5.74338e+65 -3.54312e+135    4.256e+202   5.95268e+67  -1.56271e+67  -3.63105e+67   5.25119e+67  -1.01302e+67  -3.56758e+67  -2.79648e+66
  -1.13242e+60   8.61024e+62    2.8092e+61   4.86757e+65  -3.2805e+135  4.25613e+202   5.72777e+67  -1.56473e+67  -3.62731e+67   5.24071e+67   1.00498e+67  -3.18985e+67  -2.92778e+66
  -4.29452e+60    8.6197e+62     1.022e+62   3.07433e+68  1.11822e+136  6.64226e+202   2.88674e+68   1.11601e+67   3.45607e+67   2.61712e+68   1.00184e+67  -3.15836e+67  -8.44646e+66
  -2.86391e+60   7.91831e+62   9.75438e+61   3.14172e+68  1.25165e+136  9.42805e+202   2.93577e+68   1.38948e+67    3.6692e+67   2.63585e+68  -1.01335e+67   3.41334e+67  -7.71191e+66
  -7.56792e+59     7.909e+62   2.68466e+61   3.55815e+66 -3.38172e+135  4.07564e+202   5.82613e+67  -1.46571e+67  -3.49882e+67   5.32035e+67  -1.01032e+67   3.38175e+67  -2.74649e+66
  -1.13242e+60   7.88443e+62   2.67258e+61   3.47244e+66 -3.64159e+135  4.07291e+202   6.04454e+67  -1.46769e+67  -3.49513e+67   5.31006e+67   1.00246e+67   3.75569e+67  -2.87545e+66
  -4.28618e+60   7.89372e+62   9.72221e+61   3.13377e+68  1.21268e+136  7.72233e+202   2.93391e+68   1.37112e+67   3.65651e+67     2.631e+68   9.99421e+66   3.78717e+67  -8.25253e+66
  -7.56798e+59   8.63443e+62   2.82128e+61   1.34156e+68  3.40325e+135  1.50646e+202   1.20808e+68   1.51994e+67   3.56179e+67   8.33383e+67  -1.01403e+67  -3.55317e+67  -2.79648e+66
   1.35542e+60   8.63564e+62  -4.60903e+61  -1.73505e+68  5.00697e+135 -2.29662e+202   1.58421e+68  -1.17805e+67  -3.53808e+67  -1.26344e+68   -1.0145e+67  -3.54987e+67   2.30212e+66
   2.02897e+60   8.61145e+62  -4.60081e+61  -1.73086e+68  5.22286e+135 -2.89644e+202   1.57276e+68  -1.16836e+67  -3.52925e+67  -1.26109e+68   1.00315e+67   -3.1722e+67   2.58982e+66
  -1.13242e+60   8.61024e+62    2.8092e+61   1.33853e+68  3.63486e+135   2.2654e+202   1.19506e+68   1.51295e+67   3.55394e+67   8.31839e+67   1.00362e+67  -3.17548e+67  -2.92778e+66
  -7.56792e+59     7.909e+62   2.68466e+61   1.34864e+68  3.58463e+135  2.16954e+202   1.20846e+68   1.56443e+67   3.57151e+67   8.35049e+67  -1.01129e+67   3.39565e+67  -2.74649e+66
   1.34983e+60   7.91019e+62  -4.38434e+61   -1.7574e+68  5.40242e+135 -3.23582e+202   1.59632e+68  -1.29128e+67  -3.59629e+67  -1.26865e+68  -1.01174e+67   3.39896e+67   2.21803e+66
   2.02067e+60   7.88562e+62  -4.37633e+61  -1.75328e+68  5.09634e+135 -2.51941e+202   1.60136e+68  -1.28177e+67  -3.58762e+67  -1.26634e+68    1.0007e+67   3.77283e+67    2.5006e+66
  -1.13242e+60   7.88443e+62   2.67258e+61   1.34567e+68  3.29446e+135  1.33164e+202   1.21712e+68   1.55756e+67    3.5638e+67   8.33532e+67   1.00115e+67   3.76955e+67  -2.87545e+66
  -6.70701e+50   9.42504e+62   1.07763e+62    3.1374e+68  1.13271e+136  6.04034e+202   2.95137e+68   1.09273e+67   3.52654e+67   2.67547e+68  -1.01807e+67  -3.62311e+67  -8.12557e+65
  -4.45951e+50   9.41539e+62    2.9701e+61   5.93912e+65 -3.69284e+135  4.74071e+202   6.07717e+67  -1.60574e+67  -3.69991e+67   5.36503e+67  -1.01753e+67  -3.65603e+67  -5.17756e+65
  -3.78971e+59   9.41063e+62   2.96768e+61   5.68257e+65 -3.67469e+135  4.79756e+202   6.06219e+67  -1.60633e+67  -3.69953e+67   5.36268e+67    1.0202e+67  -3.63193e+67  -6.52832e+65
  -1.43859e+60   9.42028e+62   1.07724e+62   3.13643e+68  1.13297e+136  6.18367e+202   2.95029e+68   1.09048e+67   3.52526e+67   2.67485e+68   1.01966e+67  -3.59903e+67  -1.37874e+66
  -6.35629e+50   8.66327e+62   1.02689e+62   3.19894e+68  1.29051e+136  9.29851e+202   2.99044e+68   1.35828e+67   3.73441e+67   2.68968e+68  -1.01539e+67   3.45852e+67  -7.90927e+65
  -4.21064e+50   8.65378e+62   2.83096e+61    3.6915e+66 -3.49552e+135  4.15661e+202    5.9238e+67  -1.50478e+67  -3.56258e+67   5.43652e+67  -1.01487e+67    3.4256e+67  -5.08163e+65
  -3.78964e+59   8.64895e+62   2.82854e+61   3.66616e+66 -3.51117e+135  4.09883e+202   5.93685e+67  -1.50537e+67  -3.56222e+67   5.43421e+67   1.01748e+67   3.44913e+67  -6.40783e+65
  -1.43578e+60   8.65843e+62   1.02651e+62   3.19799e+68  1.28738e+136  9.08578e+202   2.98994e+68   1.35607e+67   3.73314e+67   2.68907e+68   1.01696e+67   3.48203e+67  -1.34681e+66
  -4.45951e+50   9.41539e+62    2.9701e+61   1.36649e+68   3.5153e+135  1.77723e+202   1.23116e+68   1.53399e+67   3.62612e+67   8.50476e+67  -1.01753e+67  -3.64101e+67  -5.17756e+65
  -2.21246e+50   9.41662e+62  -4.83527e+61  -1.76499e+68  5.13339e+135 -2.54703e+202   1.61303e+68  -1.16566e+67  -3.60036e+67  -1.28839e+68  -1.01756e+67  -3.63756e+67  -2.23136e+65
   6.80377e+59   9.41186e+62  -4.83632e+61  -1.76486e+68  5.14932e+135 -2.54934e+202   1.61239e+68  -1.16537e+67  -3.60013e+67  -1.28831e+68   1.01965e+67  -3.61348e+67   7.25556e+64
  -3.78971e+59   9.41063e+62   2.96768e+61    1.3659e+68  3.52749e+135  1.88058e+202   1.23001e+68   1.53263e+67   3.62471e+67   8.50164e+67   1.01968e+67  -3.61693e+67  -6.52832e+65
  -4.21064e+50   8.65378e+62   2.83096e+61   1.37382e+68  3.73338e+135  2.18364e+202   1.23047e+68   1.58039e+67   3.63616e+67   8.52169e+67  -1.01487e+67   3.44007e+67  -5.08163e+65
   -2.0651e+50     8.655e+62  -4.60619e+61   -1.7882e+68   5.5781e+135  -3.2092e+202   1.62476e+68  -1.28373e+67  -3.66082e+67  -1.29374e+68   -1.0149e+67   3.44351e+67  -2.25549e+65
     6.776e+59   8.65016e+62  -4.60727e+61  -1.78808e+68  5.56035e+135 -3.19271e+202   1.62517e+68  -1.28345e+67   -3.6606e+67  -1.29367e+68   1.01695e+67   3.46703e+67   6.47657e+64
  -3.78964e+59   8.64895e+62   2.82854e+61   1.37324e+68  3.71191e+135  2.06726e+202   1.23069e+68   1.57905e+67   3.63475e+67   8.51862e+67   1.01699e+67   3.46358e+67  -6.40783e+65
  -1.43859e+60   9.42028e+62   1.07724e+62   3.13723e+68  1.13323e+136  5.88557e+202    2.9511e+68   1.10128e+67   3.52712e+67   2.67439e+68  -1.01677e+67  -3.63297e+67  -3.32232e+66
  -3.78971e+59   9.41063e+62   2.96768e+61   6.13886e+65 -3.69823e+135  4.65597e+202   6.08162e+67  -1.60043e+67  -3.69848e+67   5.36029e+67  -1.01532e+67  -3.66585e+67  -1.68631e+66
  -7.56807e+59   9.39634e+62   2.96041e+61    5.2798e+65 -3.62288e+135  4.79532e+202   6.01927e+67  -1.60241e+67  -3.69786e+67   5.35306e+67   1.02056e+67  -3.56468e+67   -1.8209e+66
  -2.87508e+60   9.40598e+62   1.07595e+62   3.13327e+68  1.13434e+136  6.36303e+202    2.9467e+68   1.09215e+67   3.52059e+67     2.672e+68   1.01911e+67  -3.53186e+67   -3.8866e+66
  -1.43578e+60   8.65843e+62   1.02651e+62   3.19872e+68   1.2923e+136  9.51727e+202    2.9899e+68    1.3663e+67   3.73484e+67   2.68861e+68   -1.0141e+67   3.44818e+67  -3.23145e+66
  -3.78964e+59   8.64895e+62   2.82854e+61   3.71044e+66 -3.48663e+135  4.21715e+202   5.91642e+67   -1.4996e+67   -3.5612e+67   5.43185e+67  -1.01272e+67   3.41529e+67  -1.65525e+66
  -7.56798e+59   8.63443e+62   2.82128e+61   3.62511e+66 -3.55297e+135  4.07582e+202   5.97169e+67  -1.50157e+67  -3.56064e+67   5.42473e+67   1.01789e+67   3.51384e+67  -1.78739e+66
  -2.86953e+60   8.64391e+62   1.02523e+62   3.19483e+68   1.2792e+136  8.78457e+202   2.98793e+68   1.35731e+67   3.72837e+67   2.68626e+68   1.01651e+67   3.54667e+67  -3.78547e+66
  -3.78971e+59   9.41063e+62   2.96768e+61   1.36635e+68  3.50818e+135  1.67806e+202    1.2313e+68   1.53853e+67   3.62576e+67   8.49925e+67  -1.01584e+67  -3.65086e+67  -1.68631e+66
   6.80377e+59   9.41186e+62  -4.83632e+61  -1.76477e+68   5.1237e+135 -2.52594e+202   1.61308e+68  -1.16443e+67  -3.59991e+67  -1.28833e+68  -1.01575e+67   -3.6474e+67  -5.11919e+64
   1.36092e+60   9.39757e+62  -4.83794e+61  -1.76333e+68  5.18162e+135 -2.59532e+202   1.60971e+68   -1.1611e+67  -3.59642e+67  -1.28757e+68    1.0196e+67  -3.54628e+67   2.43626e+65
  -7.56807e+59   9.39634e+62   2.96041e+61    1.3647e+68  3.56682e+135  2.02311e+202   1.22708e+68   1.53472e+67   3.62211e+67   8.49019e+67   1.01951e+67  -3.54973e+67   -1.8209e+66
  -3.78964e+59   8.64895e+62   2.82854e+61   1.37369e+68  3.74048e+135  2.27366e+202   1.23003e+68   1.58482e+67   3.63578e+67   8.51626e+67  -1.01321e+67   3.42975e+67  -1.65525e+66
     6.776e+59   8.65016e+62  -4.60727e+61  -1.78794e+68  5.58208e+135 -3.22692e+202   1.62435e+68  -1.28223e+67  -3.66029e+67  -1.29369e+68  -1.01312e+67    3.4332e+67  -7.98398e+64
   1.35542e+60   8.63564e+62  -4.60903e+61  -1.78653e+68  5.49869e+135 -3.09944e+202   1.62536e+68  -1.27897e+67  -3.65686e+67  -1.29294e+68   1.01697e+67   3.53171e+67   2.09618e+65
  -7.56798e+59   8.63443e+62   2.82128e+61   1.37206e+68  3.65794e+135   1.8978e+202   1.23157e+68   1.58107e+67   3.63219e+67   8.50737e+67   1.01688e+67   3.52825e+67  -1.78739e+66
  -2.87508e+60   9.40598e+62   1.07595e+62   3.13642e+68  1.13914e+136  5.64149e+202   2.94924e+68   1.13716e+67   3.52786e+67   2.66992e+68  -1.01895e+67  -3.59979e+67  -8.08637e+66
  -7.56807e+59   9.39634e+62   2.96041e+61   6.12605e+65 -3.67032e+135  4.51224e+202   6.05863e+67  -1.59099e+67   -3.6959e+67   5.34815e+67  -1.01569e+67  -3.63256e+67  -2.84856e+66
  -1.13243e+60   9.37252e+62   2.94833e+61   5.22209e+65 -3.39961e+135  4.50883e+202   5.83085e+67  -1.59308e+67  -3.69212e+67   5.33742e+67   1.00746e+67  -3.25034e+67  -2.98226e+66
  -4.30274e+60   9.38215e+62    1.0727e+62   3.12812e+68  1.15271e+136  6.92209e+202    2.9381e+68   1.11799e+67   3.51456e+67   2.66486e+68    1.0042e+67  -3.21769e+67  -8.64624e+66
  -2.86953e+60   8.64391e+62   1.02523e+62   3.19786e+68  1.29349e+136  9.90609e+202   2.98878e+68   1.40109e+67   3.73538e+67   2.68421e+68  -1.01616e+67   3.47891e+67  -7.89457e+66
  -7.56798e+59   8.63443e+62   2.82128e+61   3.70736e+66 -3.50422e+135  4.31157e+202   5.93124e+67   -1.4904e+67  -3.55875e+67   5.41989e+67  -1.01302e+67   3.44614e+67  -2.79652e+66
  -1.13242e+60   8.61024e+62    2.8092e+61   3.61854e+66 -3.77203e+135   4.3121e+202   6.15234e+67  -1.49245e+67  -3.55504e+67   5.40934e+67   1.00498e+67   3.82449e+67  -2.92778e+66
  -4.29452e+60    8.6197e+62     1.022e+62    3.1897e+68  1.25315e+136  8.12176e+202   2.98681e+68   1.38227e+67   3.72231e+67   2.67925e+68   1.00183e+67   3.85715e+67  -8.44426e+66
  -7.56807e+59   9.39634e+62   2.96041e+61   1.36555e+68  3.52719e+135  1.61499e+202   1.22964e+68   1.54614e+67   3.62406e+67   8.48528e+67  -1.01674e+67  -3.61761e+67  -2.84856e+66
   1.36092e+60   9.39757e+62  -4.83794e+61  -1.76466e+68  5.16219e+135 -2.40409e+202   1.61177e+68   -1.1826e+67  -3.59949e+67  -1.28645e+68  -1.01722e+67  -3.61417e+67   2.38815e+66
   2.03716e+60   9.37375e+62  -4.82951e+61  -1.76035e+68  5.38415e+135 -3.03135e+202   1.60013e+68  -1.17266e+67  -3.59043e+67  -1.28404e+68   1.00558e+67  -3.23202e+67   2.68048e+66
  -1.13243e+60   9.37252e+62   2.94833e+61   1.36245e+68  3.76566e+135  2.40706e+202   1.21644e+68     1.539e+67   3.61605e+67   8.46949e+67   1.00606e+67  -3.23544e+67  -2.98226e+66
  -7.56798e+59   8.63443e+62   2.82128e+61   1.37289e+68  3.71415e+135  2.30665e+202    1.2302e+68   1.59224e+67   3.63409e+67   8.50253e+67  -1.01403e+67   3.46055e+67  -2.79652e+66
   1.35542e+60   8.63564e+62  -4.60903e+61   -1.7878e+68  5.57454e+135  -3.3983e+202   1.62443e+68  -1.29978e+67   -3.6598e+67  -1.29184e+68   -1.0145e+67   3.46399e+67   2.30052e+66
   2.02897e+60   8.61145e+62  -4.60081e+61  -1.78357e+68  5.25858e+135 -2.64714e+202    1.6295e+68  -1.29003e+67  -3.65091e+67  -1.28948e+68   1.00315e+67   3.84229e+67   2.58753e+66
  -1.13242e+60   8.61024e+62    2.8092e+61   1.36985e+68   3.4148e+135  1.43097e+202   1.23895e+68   1.58522e+67   3.62621e+67   8.48702e+67   1.00362e+67   3.83886e+67  -2.92778e+66
  -7.04875e+50    1.0224e+63   1.12932e+62   3.19344e+68  1.16825e+136  6.29988e+202   3.00497e+68   1.09407e+67    3.5875e+67   2.72529e+68  -1.02071e+67  -3.69281e+67  -8.35661e+65
  -4.69749e+50   1.02141e+63   3.11184e+61   6.31833e+65 -3.83045e+135  5.03148e+202   6.18939e+67  -1.63541e+67   -3.7674e+67     5.466e+67  -1.02015e+67    -3.727e+67   -5.2785e+65
  -3.78971e+59   1.02095e+63   3.10941e+61   6.05176e+65 -3.81137e+135  5.08993e+202   6.17392e+67  -1.63603e+67  -3.76702e+67   5.46357e+67   1.02288e+67  -3.70216e+67  -6.65354e+65
  -1.44135e+60   1.02193e+63   1.12894e+62   3.19241e+68  1.16849e+136  6.44919e+202   3.00383e+68    1.0917e+67   3.58613e+67   2.72463e+68   1.02232e+67    -3.668e+67  -1.41165e+66
  -6.70701e+50   9.42504e+62   1.07763e+62   3.25726e+68  1.33479e+136  9.78562e+202   3.04548e+68   1.36934e+67   3.80315e+67   2.74001e+68  -1.01807e+67   3.52316e+67  -8.12553e+65
  -4.45951e+50   9.41539e+62    2.9701e+61   3.84694e+66 -3.62251e+135  4.40132e+202   6.03101e+67  -1.53066e+67  -3.62484e+67   5.54019e+67  -1.01753e+67   3.48898e+67  -5.17754e+65
  -3.78971e+59   9.41063e+62   2.96768e+61   3.82048e+66 -3.63891e+135  4.34189e+202   6.04442e+67  -1.53127e+67  -3.62448e+67    5.5378e+67    1.0202e+67    3.5132e+67  -6.52712e+65
  -1.43859e+60   9.42028e+62   1.07724e+62   3.25625e+68  1.33147e+136  9.56145e+202   3.04495e+68   1.36701e+67   3.80178e+67   2.73937e+68   1.01966e+67   3.54736e+67  -1.37787e+66
  -4.69749e+50   1.02141e+63   3.11184e+61   1.39141e+68  3.64361e+135  1.89794e+202   1.25366e+68   1.56096e+67   3.69081e+67   8.66238e+67  -1.02015e+67   -3.7114e+67   -5.2785e+65
  -2.35405e+50   1.02154e+63  -5.06874e+61  -1.79573e+68  5.29349e+135 -2.66755e+202   1.64174e+68  -1.16981e+67  -3.66414e+67  -1.31234e+68  -1.02017e+67  -3.70781e+67  -2.20257e+65
   6.83119e+59   1.02107e+63  -5.06975e+61  -1.79558e+68  5.30998e+135 -2.67086e+202   1.64107e+68  -1.16946e+67  -3.66383e+67  -1.31225e+68   1.02231e+67  -3.68299e+67   8.03113e+64
  -3.78971e+59   1.02095e+63   3.10941e+61   1.39081e+68  3.65647e+135  2.00622e+202   1.25248e+68   1.55956e+67   3.68937e+67   8.65916e+67   1.02233e+67  -3.68658e+67  -6.65354e+65
  -4.45951e+50   9.41539e+62    2.9701e+61   1.39902e+68   3.8732e+135  2.33092e+202   1.25297e+68   1.60906e+67   3.70119e+67   8.67992e+67  -1.01753e+67   3.50399e+67  -5.17754e+65
  -2.21246e+50   9.41662e+62  -4.83527e+61  -1.81977e+68  5.76186e+135  -3.3756e+202   1.65389e+68  -1.29207e+67  -3.72677e+67  -1.31788e+68  -1.01756e+67   3.50757e+67  -2.23137e+65
   6.80377e+59   9.41186e+62  -4.83632e+61  -1.81962e+68  5.74303e+135 -3.35685e+202    1.6543e+68  -1.29173e+67  -3.72649e+67   -1.3178e+68   1.01965e+67   3.53178e+67   7.18651e+64
  -3.78971e+59   9.41063e+62   2.96768e+61   1.39842e+68  3.85072e+135  2.20899e+202    1.2532e+68   1.60768e+67   3.69976e+67   8.67676e+67   1.01968e+67    3.5282e+67  -6.52712e+65
  -1.44135e+60   1.02193e+63   1.12894e+62   3.19329e+68  1.16894e+136  6.13974e+202   3.00469e+68   1.10308e+67   3.58814e+67   2.72416e+68  -1.01941e+67  -3.70203e+67  -3.41746e+66
  -3.78971e+59   1.02095e+63   3.10941e+61   6.51867e+65 -3.83541e+135  4.94221e+202   6.19341e+67     -1.63e+67  -3.76594e+67   5.46113e+67  -1.01788e+67  -3.73617e+67  -1.71883e+66
  -7.56805e+59   1.01954e+63   3.10215e+61   5.63431e+65 -3.75621e+135  5.08405e+202   6.12905e+67  -1.63204e+67  -3.76528e+67   5.45367e+67   1.02319e+67  -3.63189e+67  -1.85589e+66
  -2.88054e+60   1.02052e+63   1.12763e+62   3.18917e+68  1.17005e+136  6.63932e+202   3.00012e+68   1.09358e+67   3.58133e+67   2.72168e+68   1.02167e+67  -3.59782e+67  -3.99156e+66
  -1.43859e+60   9.42028e+62   1.07724e+62   3.25705e+68  1.33668e+136  1.00168e+203   3.04495e+68   1.37781e+67   3.80363e+67   2.73891e+68  -1.01677e+67   3.51342e+67  -3.32144e+66
  -3.78971e+59   9.41063e+62   2.96768e+61   3.86611e+66 -3.61383e+135  4.46478e+202   6.02393e+67  -1.52537e+67  -3.62343e+67   5.53541e+67  -1.01532e+67   3.47928e+67  -1.68618e+66
  -7.56807e+59   9.39634e+62   2.96041e+61   3.77781e+66 -3.68343e+135  4.32065e+202   6.08087e+67  -1.52741e+67  -3.62286e+67   5.52805e+67   1.02056e+67   3.58082e+67   -1.8207e+66
  -2.87508e+60   9.40598e+62   1.07595e+62     3.253e+68  1.32286e+136  9.24442e+202   3.04288e+68   1.36845e+67   3.79687e+67   2.73646e+68   1.01911e+67   3.61489e+67  -3.88491e+66
  -3.78971e+59   1.02095e+63   3.10941e+61   1.39128e+68  3.63682e+135  1.79537e+202   1.25378e+68   1.56559e+67   3.69044e+67   8.65673e+67  -1.01843e+67  -3.72059e+67  -1.71883e+66
   6.83119e+59   1.02107e+63  -5.06975e+61  -1.79552e+68   5.2845e+135 -2.64539e+202   1.64178e+68  -1.16883e+67  -3.66371e+67  -1.31227e+68  -1.01832e+67    -3.717e+67  -2.13065e+64
   1.36635e+60   1.01966e+63  -5.07123e+61    -1.794e+68  5.34498e+135 -2.72244e+202   1.63827e+68  -1.16531e+67  -3.66001e+67  -1.31147e+68   1.02219e+67  -3.61277e+67   2.78326e+65
  -7.56805e+59   1.01954e+63   3.10215e+61   1.38957e+68  3.69847e+135  2.15739e+202   1.24943e+68   1.56166e+67    3.6867e+67   8.64738e+67   1.02209e+67  -3.61637e+67  -1.85589e+66
  -3.78971e+59   9.41063e+62   2.96768e+61   1.39888e+68  3.88003e+135  2.42384e+202   1.25254e+68   1.61359e+67   3.70081e+67   8.67436e+67  -1.01584e+67   3.49427e+67  -1.68618e+66
   6.80377e+59   9.41186e+62  -4.83632e+61  -1.81952e+68  5.76585e+135 -3.39584e+202    1.6535e+68  -1.29079e+67  -3.72626e+67  -1.31782e+68  -1.01575e+67   3.49786e+67  -5.18863e+64
   1.36092e+60   9.39757e+62  -4.83794e+61  -1.81803e+68  5.67801e+135 -3.25672e+202   1.65452e+68  -1.28735e+67  -3.72266e+67  -1.31703e+68    1.0196e+67   3.59936e+67   2.42198e+65
  -7.56807e+59   9.39634e+62   2.96041e+61    1.3972e+68  3.79338e+135  2.02922e+202   1.25413e+68   1.60972e+67   3.69711e+67   8.66518e+67   1.01951e+67   3.59576e+67   -1.8207e+66
  -2.88054e+60   1.02052e+63   1.12763e+62   3.19244e+68  1.17523e+136  5.88749e+202   3.00274e+68   1.13986e+67   3.58888e+67   2.71957e+68  -1.02172e+67  -3.66593e+67  -8.28494e+66
  -7.56805e+59   1.01954e+63   3.10215e+61   6.50591e+65 -3.80467e+135  4.78869e+202   6.16854e+67  -1.62036e+67  -3.76327e+67   5.44869e+67  -1.01832e+67  -3.69994e+67  -2.90291e+66
  -1.13242e+60    1.0172e+63   3.09006e+61   5.56226e+65 -3.52547e+135  4.78143e+202   5.93783e+67  -1.62254e+67  -3.75944e+67    5.4376e+67   1.00992e+67  -3.31318e+67  -3.03904e+66
  -4.31083e+60   1.01818e+63   1.12435e+62   3.18391e+68  1.18904e+136  7.22044e+202   2.99136e+68   1.12018e+67   3.57521e+67   2.71437e+68   1.00652e+67   -3.2793e+67  -8.85456e+66
  -2.87508e+60   9.40598e+62   1.07595e+62   3.25615e+68  1.33774e+136  1.04213e+203   3.04381e+68   1.41346e+67   3.80415e+67   2.73439e+68  -1.01895e+67   3.54696e+67  -8.08467e+66
  -7.56807e+59   9.39634e+62   2.96041e+61   3.86244e+66 -3.63361e+135   4.5655e+202    6.0403e+67  -1.51599e+67  -3.62091e+67   5.52314e+67  -1.01569e+67   3.51294e+67  -2.84836e+66
  -1.13243e+60   9.37252e+62   2.94833e+61   3.76894e+66 -3.90967e+135  4.56971e+202   6.26409e+67  -1.51815e+67   -3.6172e+67   5.51224e+67   1.00746e+67   3.89577e+67  -2.98197e+66
  -4.30274e+60   9.38215e+62    1.0727e+62   3.24777e+68  1.29595e+136  8.55288e+202   3.04172e+68   1.39412e+67   3.79068e+67   2.72929e+68    1.0042e+67   3.92966e+67  -8.64374e+66
  -7.56805e+59   1.01954e+63   3.10215e+61   1.39045e+68   3.6582e+135  1.73263e+202   1.25201e+68   1.57335e+67   3.68871e+67    8.6424e+67  -1.01942e+67  -3.68442e+67  -2.90291e+66
   1.36635e+60   1.01966e+63  -5.07123e+61  -1.79539e+68  5.32597e+135 -2.51953e+202   1.64038e+68  -1.18749e+67  -3.66322e+67  -1.31032e+68   -1.0199e+67  -3.68084e+67   2.47779e+66
   2.04523e+60   1.01732e+63  -5.06259e+61  -1.79098e+68  5.55432e+135 -3.17598e+202   1.62856e+68  -1.17732e+67   -3.6539e+67  -1.30786e+68   1.00796e+67  -3.29414e+67   2.77495e+66
  -1.13242e+60    1.0172e+63   3.09006e+61   1.38727e+68  3.90373e+135   2.5598e+202   1.23861e+68   1.56603e+67   3.68054e+67   8.62617e+67   1.00845e+67  -3.29772e+67  -3.03904e+66
  -7.56807e+59   9.39634e+62   2.96041e+61   1.39805e+68  3.85101e+135  2.45469e+202   1.25277e+68   1.62114e+67   3.69906e+67   8.66027e+67  -1.01674e+67   3.52789e+67  -2.84836e+66
   1.36092e+60   9.39757e+62  -4.83794e+61  -1.81936e+68  5.75637e+135 -3.57322e+202   1.65362e+68  -1.30884e+67  -3.72573e+67  -1.31591e+68  -1.01722e+67   3.53147e+67   2.38672e+66
   2.03716e+60   9.37375e+62  -4.82951e+61  -1.81505e+68   5.4302e+135 -2.78514e+202   1.65873e+68  -1.29889e+67  -3.71665e+67   -1.3135e+68   1.00558e+67   3.91425e+67   2.67838e+66
  -1.13243e+60   9.37252e+62   2.94833e+61   1.39492e+68  3.54198e+135  1.53876e+202   1.26159e+68   1.61393e+67   3.69098e+67   8.64431e+67   1.00606e+67   3.91067e+67  -2.98197e+66
  -7.36997e+50   1.10608e+63   1.18201e+62   3.25166e+68  1.20584e+136  6.57949e+202   3.06063e+68   1.09586e+67   3.65078e+67     2.777e+68  -1.02332e+67  -3.76516e+67   -8.6024e+65
  -4.92545e+50   1.10508e+63   3.25627e+61   6.72163e+65 -3.97601e+135  5.34498e+202   6.30592e+67  -1.66606e+67  -3.83754e+67   5.57082e+67  -1.02272e+67  -3.80069e+67  -5.38396e+65
  -3.78937e+59   1.10462e+63   3.25385e+61   6.45042e+65 -3.95593e+135  5.40497e+202   6.28995e+67  -1.66669e+67  -3.83714e+67   5.56833e+67   1.02553e+67  -3.77507e+67  -6.77875e+65
  -1.44403e+60   1.10562e+63   1.18163e+62   3.25059e+68  1.20607e+136  6.73539e+202   3.05945e+68   1.09337e+67   3.64933e+67   2.77632e+68   1.02493e+67  -3.73956e+67  -1.44582e+66
  -7.04875e+50    1.0224e+63   1.12932e+62   3.31785e+68  1.38168e+136  1.03119e+203   3.10265e+68   1.38118e+67   3.87459e+67   2.79227e+68  -1.02071e+67   3.59026e+67  -8.35656e+65
  -4.69749e+50   1.02141e+63   3.11184e+61   4.00829e+66 -3.75671e+135  4.66503e+202    6.1423e+67  -1.55749e+67  -3.68948e+67   5.64781e+67  -1.02015e+67   3.55473e+67  -5.27849e+65
  -3.78971e+59   1.02095e+63   3.10941e+61   3.98128e+66 -3.77393e+135  4.60387e+202   6.15612e+67  -1.55812e+67  -3.68911e+67   5.64535e+67   1.02288e+67   3.57969e+67  -6.64696e+65
  -1.44135e+60   1.02193e+63   1.12894e+62   3.31679e+68  1.37817e+136  1.00757e+203   3.10208e+68   1.37873e+67   3.87314e+67    2.7916e+68   1.02232e+67    3.6152e+67  -1.41019e+66
  -4.92545e+50   1.10508e+63   3.25627e+61   1.41733e+68  3.77962e+135  2.02913e+202   1.27705e+68   1.58919e+67   3.75804e+67   8.82607e+67  -1.02272e+67  -3.78446e+67  -5.38396e+65
  -2.49133e+50    1.1052e+63  -5.30675e+61  -1.82764e+68  5.46215e+135 -2.79636e+202   1.67154e+68  -1.17413e+67  -3.73035e+67  -1.33719e+68  -1.02274e+67  -3.78075e+67  -2.16776e+65
    6.8585e+59   1.10474e+63  -5.30772e+61  -1.82745e+68   5.4792e+135 -2.80076e+202   1.67082e+68   -1.1737e+67  -3.72994e+67  -1.33708e+68   1.02492e+67  -3.75514e+67   8.93685e+64
  -3.78937e+59   1.10462e+63   3.25385e+61   1.41671e+68  3.79324e+135  2.14271e+202   1.27583e+68   1.58776e+67   3.75658e+67   8.82278e+67   1.02494e+67  -3.75886e+67  -6.77875e+65
  -4.69749e+50   1.02141e+63   3.11184e+61   1.42518e+68  4.02117e+135  2.49048e+202   1.27633e+68   1.63888e+67   3.76873e+67   8.84418e+67  -1.02015e+67   3.57033e+67  -5.27849e+65
  -2.35405e+50   1.02154e+63  -5.06874e+61  -1.85258e+68  5.95636e+135  -3.5553e+202   1.68416e+68    -1.301e+67  -3.79532e+67  -1.34294e+68  -1.02017e+67   3.57404e+67  -2.20259e+65
   6.83119e+59   1.02107e+63  -5.06975e+61   -1.8524e+68  5.93628e+135 -3.53387e+202   1.68456e+68  -1.30059e+67  -3.79495e+67  -1.34284e+68   1.02231e+67   3.59899e+67   8.01096e+64
  -3.78971e+59   1.02095e+63   3.10941e+61   1.42457e+68  3.99764e+135  2.36268e+202   1.27657e+68   1.63748e+67   3.76728e+67   8.84095e+67   1.02233e+67   3.59527e+67  -6.64696e+65
  -1.44403e+60   1.10562e+63   1.18163e+62    3.2515e+68  1.20664e+136  6.41238e+202   3.06033e+68   1.10521e+67   3.65144e+67   2.77584e+68  -1.02202e+67  -3.77368e+67  -3.51744e+66
  -3.78937e+59   1.10462e+63   3.25385e+61   6.90538e+65  -3.9805e+135  5.25125e+202    6.3095e+67  -1.66065e+67  -3.83609e+67    5.5658e+67  -1.02039e+67  -3.80917e+67  -1.75252e+66
  -7.56751e+59   1.10323e+63   3.24658e+61   5.99974e+65 -3.89721e+135   5.3954e+202   6.24305e+67  -1.66274e+67  -3.83536e+67    5.5581e+67    1.0258e+67  -3.70165e+67  -1.89185e+66
  -2.88586e+60   1.10423e+63    1.1803e+62   3.24722e+68  1.20778e+136  6.93583e+202    3.0556e+68   1.09534e+67   3.64439e+67   2.77325e+68   1.02418e+67  -3.66625e+67  -4.10146e+66
  -1.44135e+60   1.02193e+63   1.12894e+62   3.31766e+68  1.38367e+136  1.05565e+203   3.10213e+68   1.39012e+67   3.87516e+67   2.79113e+68  -1.01941e+67   3.58117e+67  -3.41599e+66
  -3.78971e+59   1.02095e+63   3.10941e+61   4.02797e+66 -3.74828e+135  4.73161e+202   6.13556e+67  -1.55209e+67  -3.68803e+67   5.64292e+67  -1.01788e+67   3.54568e+67  -1.71817e+66
  -7.56805e+59   1.01954e+63   3.10215e+61   3.93701e+66 -3.82135e+135  4.58468e+202   6.19423e+67  -1.55419e+67  -3.68743e+67   5.63532e+67   1.02319e+67   3.65033e+67  -1.85487e+66
  -2.88054e+60   1.02052e+63   1.12763e+62   3.31344e+68  1.36911e+136  9.74176e+202   3.09997e+68   1.38038e+67   3.86812e+67   2.78859e+68   1.02167e+67   3.68574e+67  -3.98898e+66
  -3.78937e+59   1.10462e+63   3.25385e+61   1.41717e+68  3.77302e+135  1.92275e+202   1.27713e+68    1.5938e+67   3.75763e+67   8.82025e+67  -1.02098e+67  -3.79295e+67  -1.75252e+66
    6.8585e+59   1.10474e+63  -5.30772e+61  -1.82746e+68  5.45419e+135 -2.77349e+202   1.67159e+68  -1.17351e+67  -3.72998e+67  -1.33711e+68  -1.02085e+67  -3.78923e+67   1.11377e+64
   1.37175e+60   1.10336e+63  -5.30905e+61  -1.82585e+68  5.51732e+135 -2.85887e+202   1.66793e+68  -1.16978e+67  -3.72603e+67  -1.33626e+68   1.02475e+67  -3.68177e+67   3.16007e+65
  -7.56751e+59   1.10323e+63   3.24658e+61   1.41542e+68   3.8379e+135  2.30295e+202   1.27264e+68   1.58976e+67   3.75381e+67    8.8106e+67   1.02462e+67  -3.68551e+67  -1.89185e+66
  -3.78971e+59   1.02095e+63   3.10941e+61   1.42504e+68  4.02768e+135  2.58636e+202   1.27592e+68    1.6435e+67   3.76835e+67   8.83851e+67  -1.01843e+67   3.56126e+67  -1.71817e+66
   6.83119e+59   1.02107e+63  -5.06975e+61  -1.85234e+68   5.9603e+135 -3.57827e+202   1.68379e+68  -1.29995e+67  -3.79483e+67  -1.34286e+68  -1.01832e+67   3.56498e+67  -2.15121e+64
   1.36635e+60   1.01966e+63  -5.07123e+61  -1.85077e+68  5.86765e+135 -3.42625e+202   1.68481e+68  -1.29632e+67  -3.79101e+67  -1.34203e+68   1.02219e+67   3.66959e+67   2.77605e+65
  -7.56805e+59   1.01954e+63   3.10215e+61   1.42331e+68  3.93672e+135  2.17177e+202   1.27755e+68   1.63952e+67   3.76455e+67   8.82903e+67   1.02209e+67   3.66585e+67  -1.85487e+66
  -2.88586e+60   1.10423e+63    1.1803e+62    3.2506e+68  1.21331e+136  6.15073e+202   3.05828e+68   1.14284e+67   3.65218e+67    2.7711e+68  -1.02447e+67  -3.73454e+67  -8.49214e+66
  -7.56751e+59   1.10323e+63   3.24658e+61   6.88192e+65 -3.94673e+135  5.08732e+202   6.28267e+67  -1.65086e+67  -3.83333e+67   5.55301e+67   -1.0209e+67  -3.76988e+67  -2.95964e+66
  -1.13235e+60   1.10093e+63   3.23448e+61    5.8795e+65 -3.65859e+135   5.0759e+202   6.04891e+67  -1.65318e+67  -3.82944e+67   5.54142e+67   1.01235e+67  -3.37851e+67  -3.09822e+66
  -4.31875e+60   1.10193e+63     1.177e+62   3.24183e+68  1.22735e+136  7.53883e+202   3.04665e+68   1.12259e+67   3.63812e+67   2.76575e+68   1.00878e+67  -3.34332e+67  -9.07185e+66
  -2.88054e+60   1.02052e+63   1.12763e+62   3.31672e+68  1.38461e+136  1.09777e+203   3.10097e+68   1.42667e+67   3.87567e+67   2.78648e+68  -1.02172e+67   3.61763e+67  -8.28235e+66
  -7.56805e+59   1.01954e+63   3.10215e+61   4.02418e+66 -3.77042e+135  4.83908e+202   6.15354e+67   -1.5425e+67  -3.68542e+67   5.63034e+67  -1.01832e+67   3.58228e+67  -2.90189e+66
  -1.13242e+60    1.0172e+63   3.09006e+61   3.92355e+66 -4.05503e+135   4.8475e+202   6.37999e+67  -1.54483e+67  -3.68174e+67   5.61892e+67   1.00992e+67   3.96965e+67  -3.03785e+66
  -4.31083e+60   1.01818e+63   1.12435e+62   3.30808e+68  1.34126e+136  9.01906e+202   3.09873e+68   1.40674e+67   3.86176e+67   2.78123e+68   1.00652e+67   4.00485e+67  -8.85111e+66
  -7.56751e+59   1.10323e+63   3.24658e+61    1.4163e+68  3.79681e+135  1.86031e+202   1.27523e+68   1.60164e+67   3.75584e+67   8.80551e+67  -1.02207e+67  -3.75373e+67  -2.95964e+66
   1.37175e+60   1.10336e+63  -5.30905e+61  -1.82731e+68  5.49895e+135 -2.64372e+202   1.67008e+68  -1.19274e+67  -3.72942e+67   -1.3351e+68  -1.02253e+67  -3.75001e+67   2.57122e+66
   2.05324e+60   1.10105e+63   -5.3002e+61  -1.82282e+68  5.73408e+135 -3.33128e+202   1.65809e+68  -1.18237e+67  -3.71983e+67   -1.3326e+68   1.01032e+67  -3.35868e+67   2.87343e+66
  -1.13235e+60   1.10093e+63   3.23448e+61   1.41303e+68  4.04957e+135  2.72466e+202   1.26162e+68   1.59408e+67    3.7475e+67   8.78868e+67   1.01078e+67  -3.36243e+67  -3.09822e+66
  -7.56805e+59   1.01954e+63   3.10215e+61   1.42418e+68  3.99584e+135  2.61478e+202   1.27621e+68    1.6512e+67   3.76656e+67   8.82405e+67  -1.01942e+67    3.5978e+67  -2.90189e+66
   1.36635e+60   1.01966e+63  -5.07123e+61  -1.85216e+68   5.9486e+135 -3.76171e+202   1.68393e+68   -1.3185e+67  -3.79422e+67  -1.34089e+68   -1.0199e+67   3.60152e+67   2.47706e+66
   2.04523e+60   1.01732e+63  -5.06259e+61  -1.84777e+68  5.61195e+135 -2.93442e+202    1.6891e+68  -1.30838e+67  -3.78496e+67  -1.33844e+68   1.00796e+67   3.98886e+67   2.77357e+66
  -1.13242e+60    1.0172e+63   3.09006e+61   1.42095e+68   3.6765e+135  1.65589e+202   1.28508e+68   1.64374e+67   3.75824e+67   8.80748e+67   1.00845e+67   3.98511e+67  -3.03785e+66
  -7.65739e+50   1.19362e+63   1.23574e+62   3.31223e+68  1.24579e+136  6.88587e+202   3.11851e+68   1.09858e+67   3.71661e+67   2.83071e+68  -1.02587e+67  -3.84029e+67  -8.85753e+65
  -5.14646e+50    1.1926e+63   3.40351e+61   7.18939e+65    -4.13e+135  5.68182e+202   6.42691e+67  -1.69731e+67  -3.91042e+67   5.67962e+67  -1.02525e+67  -3.87727e+67  -5.48864e+65
  -3.78796e+59   1.19215e+63   3.40109e+61   6.94102e+65 -4.10889e+135  5.74297e+202   6.41044e+67  -1.69789e+67  -3.90994e+67   5.67724e+67   1.02812e+67  -3.85082e+67  -6.88972e+65
  -1.44655e+60   1.19317e+63   1.23535e+62   3.31114e+68  1.24606e+136  7.04949e+202    3.1173e+68   1.09605e+67   3.71513e+67   2.83002e+68   1.02751e+67  -3.81386e+67   -1.4797e+66
  -7.36997e+50   1.10608e+63   1.18201e+62   3.38081e+68  1.43138e+136  1.08818e+203   3.16205e+68   1.39391e+67   3.94883e+67   2.84654e+68  -1.02332e+67   3.65995e+67  -8.60237e+65
  -4.92545e+50   1.10508e+63   3.25627e+61   4.17331e+66 -3.89858e+135  4.94932e+202   6.25779e+67  -1.58526e+67  -3.75675e+67   5.75934e+67  -1.02272e+67   3.62297e+67  -5.38396e+65
  -3.78937e+59   1.10462e+63   3.25385e+61   4.14892e+66 -3.91671e+135  4.88624e+202    6.2721e+67  -1.58583e+67  -3.75628e+67     5.757e+67   1.02553e+67   3.64872e+67   -6.7581e+65
  -1.44403e+60   1.10562e+63   1.18163e+62   3.37974e+68  1.42772e+136   1.0634e+203   3.16147e+68   1.39143e+67   3.94738e+67   2.84586e+68   1.02493e+67   3.68568e+67  -1.44276e+66
  -5.14646e+50    1.1926e+63   3.40351e+61   1.44433e+68  3.92451e+135  2.17281e+202    1.3014e+68   1.61916e+67   3.82802e+67    8.9961e+67  -1.02525e+67  -3.86035e+67  -5.48864e+65
  -2.63723e+50   1.19273e+63  -5.54949e+61  -1.86074e+68  5.63924e+135 -2.93247e+202   1.70247e+68  -1.17822e+67  -3.79905e+67  -1.36301e+68  -1.02527e+67  -3.85651e+67  -2.12036e+65
   6.88642e+59   1.19228e+63  -5.55042e+61  -1.86048e+68  5.65659e+135 -2.93797e+202   1.70168e+68  -1.17763e+67  -3.79849e+67  -1.36287e+68   1.02749e+67  -3.83007e+67   1.01315e+65
  -3.78796e+59   1.19215e+63   3.40109e+61   1.44373e+68  3.93919e+135  2.29219e+202   1.30017e+68   1.61778e+67    3.8266e+67    8.9929e+67   1.02752e+67  -3.83391e+67  -6.88972e+65
  -4.92545e+50   1.10508e+63   3.25627e+61   1.45234e+68  4.17778e+135  2.66343e+202   1.30058e+68   1.66998e+67   3.83883e+67   9.01459e+67  -1.02272e+67   3.63921e+67  -5.38396e+65
  -2.49133e+50    1.1052e+63  -5.30675e+61  -1.88673e+68  6.16262e+135 -3.74973e+202   1.71566e+68  -1.31052e+67  -3.86673e+67  -1.36901e+68  -1.02274e+67   3.64305e+67  -2.16781e+65
    6.8585e+59   1.10474e+63  -5.30772e+61  -1.88648e+68  6.14084e+135 -3.72464e+202   1.71602e+68  -1.30994e+67  -3.86618e+67  -1.36887e+68   1.02492e+67   3.66878e+67   9.05445e+64
  -3.78937e+59   1.10462e+63   3.25385e+61   1.45175e+68   4.1534e+135   2.5298e+202   1.30086e+68   1.66862e+67   3.83744e+67   9.01145e+67   1.02494e+67   3.66494e+67   -6.7581e+65
  -1.44655e+60   1.19317e+63   1.23535e+62   3.31201e+68  1.24654e+136  6.70724e+202   3.11815e+68   1.10788e+67   3.71714e+67   2.82951e+68  -1.02459e+67  -3.84807e+67  -3.62055e+66
  -3.78796e+59   1.19215e+63   3.40109e+61   7.30657e+65 -4.13406e+135  5.58477e+202   6.43008e+67  -1.69226e+67   -3.9091e+67   5.67442e+67  -1.02286e+67    -3.885e+67  -1.78575e+66
  -7.56535e+59   1.19079e+63   3.39381e+61    6.4241e+65 -4.04651e+135  5.73049e+202   6.36154e+67   -1.6943e+67   -3.9082e+67   5.66674e+67   1.02837e+67  -3.77415e+67  -1.92673e+66
  -2.89093e+60   1.19181e+63   1.23401e+62   3.30762e+68  1.24781e+136  7.25745e+202   3.11329e+68   1.09776e+67   3.70995e+67   2.82685e+68   1.02665e+67   -3.7373e+67  -4.21411e+66
  -1.44403e+60   1.10562e+63   1.18163e+62   3.38066e+68  1.43347e+136  1.11401e+203   3.16154e+68   1.40327e+67   3.94949e+67   2.84538e+68  -1.02202e+67   3.65157e+67  -3.51438e+66
  -3.78937e+59   1.10462e+63   3.25385e+61   4.19444e+66 -3.89051e+135  5.01938e+202   6.25148e+67  -1.57979e+67  -3.75523e+67   5.75446e+67  -1.02039e+67   3.61463e+67  -1.75045e+66
  -7.56751e+59   1.10323e+63   3.24658e+61   4.10597e+66 -3.96732e+135  4.86942e+202   6.31204e+67  -1.58183e+67  -3.75445e+67   5.74688e+67    1.0258e+67   3.72252e+67  -1.88873e+66
  -2.88586e+60   1.10423e+63    1.1803e+62   3.37634e+68  1.41823e+136  1.02824e+203   3.15934e+68   1.39331e+67   3.94234e+67   2.84277e+68   1.02418e+67   3.75938e+67  -4.09652e+66
  -3.78796e+59   1.19215e+63   3.40109e+61   1.44409e+68  3.91755e+135  2.06171e+202    1.3014e+68    1.6234e+67   3.82745e+67   8.99008e+67  -1.02347e+67  -3.86809e+67  -1.78575e+66
   6.88642e+59   1.19228e+63  -5.55042e+61  -1.86065e+68  5.63325e+135 -2.91033e+202   1.70255e+68  -1.17834e+67  -3.79888e+67  -1.36292e+68  -1.02333e+67  -3.86425e+67   4.81536e+64
   1.37721e+60   1.19092e+63  -5.55159e+61  -1.85889e+68  5.69869e+135 -3.00449e+202    1.6987e+68  -1.17428e+67  -3.79457e+67    -1.362e+68   1.02726e+67  -3.75342e+67   3.59115e+65
  -7.56535e+59   1.19079e+63   3.39381e+61   1.44234e+68  3.98626e+135  2.46152e+202   1.29681e+68   1.61935e+67   3.82363e+67   8.98038e+67   1.02712e+67  -3.75728e+67  -1.92673e+66
  -3.78937e+59   1.10462e+63   3.25385e+61   1.45221e+68  4.18396e+135   2.7623e+202   1.30019e+68   1.67466e+67   3.83849e+67   9.00891e+67  -1.02098e+67   3.63084e+67  -1.75045e+66
    6.8585e+59   1.10474e+63  -5.30772e+61   -1.8865e+68  6.16646e+135 -3.77585e+202   1.71529e+68  -1.30976e+67  -3.86621e+67   -1.3689e+68  -1.02085e+67   3.63468e+67   1.23083e+64
   1.37175e+60   1.10336e+63  -5.30905e+61  -1.88478e+68  6.06808e+135 -3.60854e+202   1.71627e+68  -1.30579e+67  -3.86202e+67    -1.368e+68   1.02475e+67   3.74252e+67   3.17289e+65
  -7.56751e+59   1.10323e+63   3.24658e+61   1.45048e+68  4.08884e+135   2.3271e+202   1.30192e+68   1.67067e+67   3.83471e+67   8.99938e+67   1.02462e+67   3.73867e+67  -1.88873e+66
  -2.89093e+60   1.19181e+63   1.23401e+62   3.31103e+68  1.25352e+136  6.43261e+202   3.11599e+68   1.14611e+67   3.71781e+67   2.82464e+68  -1.02722e+67  -3.80576e+67  -8.70758e+66
  -7.56535e+59   1.19079e+63   3.39381e+61   7.24838e+65 -4.09716e+135  5.41054e+202   6.40132e+67  -1.68257e+67   -3.9063e+67   5.66135e+67  -1.02344e+67  -3.84254e+67  -3.01821e+66
   -1.1321e+60   1.18852e+63    3.3817e+61   6.16751e+65 -3.79961e+135  5.39449e+202    6.1644e+67  -1.68506e+67  -3.90236e+67    5.6491e+67   1.01477e+67  -3.44649e+67  -3.15929e+66
  -4.32637e+60   1.18954e+63   1.23068e+62   3.30198e+68  1.26777e+136  7.87883e+202   3.10408e+68   1.12523e+67   3.70336e+67   2.81912e+68   1.01098e+67  -3.40989e+67  -9.29778e+66
  -2.88586e+60   1.10423e+63    1.1803e+62   3.37971e+68  1.43434e+136  1.15801e+203    3.1604e+68   1.44081e+67   3.95013e+67   2.84062e+68  -1.02447e+67   3.69109e+67  -8.48719e+66
  -7.56751e+59   1.10323e+63   3.24658e+61   4.19421e+66 -3.91523e+135  5.13402e+202   6.27122e+67  -1.56995e+67  -3.75242e+67   5.74179e+67   -1.0209e+67    3.6543e+67  -2.95651e+66
  -1.13235e+60   1.10093e+63   3.23448e+61   4.08456e+66 -4.20873e+135  5.14725e+202   6.50032e+67  -1.57248e+67  -3.74875e+67   5.72969e+67   1.01235e+67   4.04629e+67  -3.09487e+66
  -4.31875e+60   1.10193e+63     1.177e+62    3.3708e+68  1.38934e+136  9.52504e+202     3.158e+68   1.42025e+67   3.93577e+67    2.8352e+68   1.00878e+67    4.0829e+67  -9.06604e+66
  -7.56535e+59   1.19079e+63   3.39381e+61   1.44316e+68  3.94359e+135   1.9991e+202   1.29937e+68   1.63107e+67   3.82554e+67     8.975e+67  -1.02469e+67  -3.82567e+67  -3.01821e+66
   1.37721e+60   1.19092e+63  -5.55159e+61   -1.8605e+68  5.68196e+135 -2.77761e+202   1.70096e+68  -1.19838e+67  -3.79829e+67  -1.36083e+68   -1.0251e+67  -3.82184e+67   2.66945e+66
   2.06127e+60   1.18865e+63  -5.54254e+61  -1.85593e+68  5.92424e+135 -3.49841e+202    1.6888e+68  -1.18783e+67  -3.78843e+67   -1.3583e+68   1.01266e+67   -3.4258e+67   2.97687e+66
   -1.1321e+60   1.18852e+63    3.3817e+61   1.43977e+68  4.20376e+135  2.90271e+202   1.28552e+68   1.62324e+67   3.81701e+67   8.95741e+67   1.01306e+67  -3.42969e+67  -3.15929e+66
  -7.56751e+59   1.10323e+63   3.24658e+61   1.45136e+68  4.14935e+135  2.78823e+202   1.30058e+68   1.68255e+67   3.83675e+67   8.99429e+67  -1.02208e+67   3.67044e+67  -2.95651e+66
   1.37175e+60   1.10336e+63  -5.30905e+61  -1.88624e+68   6.1519e+135 -3.96494e+202   1.71544e+68  -1.32874e+67  -3.86541e+67  -1.36683e+68  -1.02253e+67   3.67428e+67    2.5725e+66
   2.05324e+60   1.10105e+63   -5.3002e+61   -1.8818e+68  5.80436e+135 -3.09565e+202   1.72067e+68  -1.31848e+67  -3.85594e+67  -1.36436e+68   1.01032e+67   4.06625e+67   2.87401e+66
  -1.13235e+60   1.10093e+63   3.23448e+61   1.44799e+68   3.8191e+135  1.78362e+202   1.30949e+68   1.67478e+67   3.82819e+67   8.97695e+67   1.01078e+67   4.06237e+67  -3.09487e+66
   -7.9243e+50    1.2851e+63   1.29054e+62   3.37537e+68  1.28868e+136  7.23242e+202   3.17875e+68   1.10332e+67   3.78531e+67   2.88651e+68  -1.02832e+67  -3.91839e+67  -9.10103e+65
  -5.35303e+50   1.28406e+63   3.55364e+61   7.78128e+65 -4.29262e+135  6.04075e+202   6.55227e+67  -1.72838e+67  -3.98605e+67   5.79224e+67  -1.02771e+67  -3.95689e+67  -5.57333e+65
  -3.78395e+59   1.28361e+63   3.55123e+61   7.64111e+65 -4.27063e+135   6.1019e+202   6.53545e+67   -1.7287e+67  -3.98537e+67   5.79048e+67   1.03064e+67  -3.92958e+67   -6.9516e+65
  -1.44874e+60   1.28465e+63   1.29014e+62   3.37435e+68  1.28914e+136  7.40622e+202    3.1776e+68   1.10097e+67   3.78397e+67   2.88586e+68   1.03003e+67  -3.89107e+67   -1.5093e+66
  -7.65739e+50   1.19362e+63   1.23574e+62   3.44622e+68  1.48406e+136  1.15005e+203   3.22372e+68   1.40779e+67    4.0258e+67   2.90286e+68  -1.02587e+67   3.73236e+67  -8.85756e+65
  -5.14646e+50    1.1926e+63   3.40351e+61    4.3346e+66 -4.04837e+135  5.25544e+202   6.37743e+67  -1.61387e+67  -3.82698e+67   5.87431e+67  -1.02525e+67   3.69386e+67  -5.48871e+65
  -3.78796e+59   1.19215e+63   3.40109e+61    4.3229e+66 -4.06765e+135  5.18991e+202   6.39245e+67  -1.61414e+67   -3.8262e+67   5.87263e+67   1.02812e+67   3.72045e+67  -6.83996e+65
  -1.44655e+60   1.19317e+63   1.23535e+62   3.44524e+68  1.48044e+136  1.12445e+203   3.22323e+68   1.40554e+67    4.0246e+67   2.90223e+68   1.02751e+67   3.75896e+67   -1.4732e+66
  -5.35303e+50   1.28406e+63   3.55364e+61   1.47254e+68  4.08009e+135   2.3323e+202   1.32679e+68   1.65184e+67   3.90111e+67   9.17245e+67  -1.02771e+67  -3.93928e+67  -5.57333e+65
  -2.77904e+50   1.28419e+63  -5.79716e+61  -1.89504e+68  5.82377e+135 -3.07275e+202   1.73459e+68  -1.18118e+67  -3.87023e+67   -1.3899e+68  -1.02778e+67  -3.93529e+67  -2.03877e+65
   6.91653e+59   1.28374e+63  -5.79804e+61  -1.89462e+68  5.84058e+135 -3.07901e+202   1.73365e+68  -1.18022e+67  -3.86937e+67  -1.38966e+68   1.03001e+67  -3.90796e+67    1.2003e+65
  -3.78395e+59   1.28361e+63   3.55123e+61   1.47204e+68   4.0966e+135  2.45812e+202   1.32561e+68   1.65068e+67   3.89985e+67   9.16986e+67   1.03007e+67  -3.91191e+67   -6.9516e+65
  -5.14646e+50    1.1926e+63   3.40351e+61   1.48049e+68  4.34333e+135   2.8508e+202   1.32571e+68    1.7026e+67   3.91146e+67   9.19079e+67  -1.02525e+67   3.71078e+67  -5.48871e+65
  -2.63723e+50   1.19273e+63  -5.54949e+61   -1.9224e+68   6.3821e+135 -3.96062e+202   1.74855e+68  -1.32054e+67  -3.94136e+67  -1.39621e+68  -1.02527e+67   3.71477e+67  -2.12047e+65
   6.88642e+59   1.19228e+63  -5.55042e+61  -1.92197e+68  6.35739e+135 -3.92945e+202   1.74878e+68  -1.31954e+67   -3.9404e+67  -1.39598e+68   1.02749e+67   3.74132e+67   1.05509e+65
  -3.78796e+59   1.19215e+63   3.40109e+61   1.48002e+68  4.31886e+135  2.71234e+202   1.32611e+68   1.70152e+67   3.91034e+67   9.18829e+67   1.02752e+67   3.73736e+67  -6.83996e+65
  -1.44874e+60   1.28465e+63   1.29014e+62   3.37495e+68  1.28893e+136  7.03109e+202   3.17826e+68   1.11152e+67   3.78533e+67   2.88526e+68  -1.02705e+67  -3.92535e+67  -3.72088e+66
  -3.78395e+59   1.28361e+63   3.55123e+61     7.719e+65 -4.29654e+135  5.94415e+202   6.55525e+67  -1.72455e+67  -3.98519e+67   5.78693e+67   -1.0253e+67  -3.96384e+67  -1.81333e+66
  -7.55932e+59   1.28228e+63   3.54397e+61   7.02301e+65 -4.20488e+135  6.08908e+202   6.48488e+67  -1.72616e+67  -3.98387e+67   5.78026e+67   1.03087e+67  -3.84957e+67  -1.95463e+66
  -2.89548e+60   1.28332e+63   1.28879e+62   3.37064e+68  1.29063e+136  7.61366e+202   3.17342e+68    1.1016e+67   3.77833e+67   2.88265e+68   1.02912e+67  -3.81111e+67  -4.32275e+66
  -1.44655e+60   1.19317e+63   1.23535e+62   3.44611e+68  1.48622e+136  1.17713e+203   3.22327e+68   1.41737e+67   4.02661e+67   2.90171e+68  -1.02459e+67   3.72476e+67  -3.61404e+66
  -3.78796e+59   1.19215e+63   3.40109e+61   4.35952e+66 -4.04092e+135  5.32981e+202   6.37175e+67  -1.60851e+67  -3.82535e+67   5.86982e+67  -1.02286e+67   3.68626e+67  -1.78077e+66
  -7.56535e+59   1.19079e+63   3.39381e+61   4.29345e+66 -4.12201e+135  5.17585e+202   6.43463e+67  -1.61004e+67  -3.82395e+67   5.86333e+67   1.02837e+67   3.79752e+67   -1.9193e+66
  -2.89093e+60   1.19181e+63   1.23401e+62   3.44192e+68  1.47067e+136  1.08762e+203    3.2212e+68   1.40769e+67   4.01986e+67   2.89916e+68   1.02665e+67   3.83599e+67  -4.20411e+66
  -3.78395e+59   1.28361e+63   3.55123e+61   1.47212e+68  4.07138e+135  2.21457e+202   1.32665e+68   1.65483e+67   3.90003e+67   9.16631e+67  -1.02586e+67  -3.94618e+67  -1.81333e+66
   6.91653e+59   1.28374e+63  -5.79804e+61  -1.89516e+68  5.82202e+135 -3.05508e+202   1.73477e+68    -1.183e+67   -3.8706e+67   -1.3898e+68  -1.02579e+67  -3.94222e+67   9.57452e+64
   1.38297e+60   1.28241e+63  -5.79903e+61  -1.89306e+68  5.88819e+135 -3.15783e+202   1.73057e+68  -1.17817e+67  -3.86564e+67  -1.38868e+68    1.0297e+67  -3.82791e+67   4.14441e+65
  -7.55932e+59   1.28228e+63   3.54397e+61   1.47051e+68  4.14546e+135  2.63576e+202   1.32207e+68   1.65112e+67   3.89645e+67   9.15754e+67   1.02962e+67  -3.83181e+67  -1.95463e+66
  -3.78796e+59   1.19215e+63   3.40109e+61   1.48038e+68  4.34914e+135  2.95243e+202   1.32537e+68   1.70715e+67   3.91119e+67   9.18548e+67  -1.02347e+67   3.70318e+67  -1.78077e+66
   6.88642e+59   1.19228e+63  -5.55042e+61  -1.92214e+68  6.38586e+135 -3.99096e+202   1.74815e+68  -1.32026e+67  -3.94078e+67  -1.39603e+68  -1.02333e+67   3.70714e+67   5.23345e+64
   1.37721e+60   1.19092e+63  -5.55159e+61  -1.92005e+68   6.2791e+135 -3.80279e+202   1.74891e+68  -1.31543e+67  -3.93571e+67  -1.39493e+68   1.02726e+67    3.8183e+67   3.64782e+65
  -7.56535e+59   1.19079e+63   3.39381e+61   1.47885e+68  4.25126e+135  2.49796e+202   1.32735e+68    1.7036e+67   3.90789e+67   9.17697e+67   1.02712e+67   3.81439e+67   -1.9193e+66
  -2.89548e+60   1.28332e+63   1.28879e+62   3.37385e+68  1.29595e+136  6.73427e+202   3.17599e+68    1.1496e+67   3.78572e+67   2.88032e+68  -1.02993e+67  -3.87974e+67  -8.92824e+66
  -7.55932e+59   1.28228e+63   3.54397e+61   7.58405e+65 -4.25682e+135  5.76169e+202   6.52487e+67  -1.71565e+67  -3.98258e+67   5.77407e+67  -1.02597e+67  -3.91813e+67  -3.07591e+66
  -1.13147e+60   1.28005e+63   3.53184e+61   6.44394e+65  -3.9495e+135  5.74003e+202   6.28484e+67  -1.71828e+67   -3.9786e+67   5.76132e+67   1.01712e+67  -3.51733e+67  -3.21981e+66
  -4.33343e+60   1.28109e+63   1.28544e+62   3.36455e+68  1.31045e+136  8.24211e+202   3.16382e+68   1.12815e+67   3.77088e+67   2.87465e+68   1.01316e+67  -3.47909e+67  -9.52959e+66
  -2.89093e+60   1.19181e+63   1.23401e+62   3.44532e+68   1.4872e+136  1.22342e+203   3.22228e+68   1.45604e+67   4.02772e+67   2.89695e+68  -1.02722e+67   3.76753e+67  -8.69756e+66
  -7.56535e+59   1.19079e+63   3.39381e+61   4.37595e+66 -4.06878e+135  5.45206e+202   6.39369e+67  -1.59831e+67  -3.82204e+67   5.85795e+67  -1.02344e+67   3.72913e+67  -3.01076e+66
   -1.1321e+60   1.18852e+63    3.3817e+61   4.26262e+66  -4.3716e+135  5.47037e+202   6.62554e+67  -1.60092e+67  -3.81823e+67   5.84541e+67   1.01477e+67   4.12583e+67  -3.15184e+66
  -4.32637e+60   1.18954e+63   1.23068e+62    3.4362e+68  1.44059e+136  1.00791e+203   3.21976e+68   1.43497e+67   4.01309e+67   2.89139e+68   1.01098e+67   4.16407e+67  -9.28712e+66
  -7.55932e+59   1.28228e+63   3.54397e+61   1.47107e+68  4.09897e+135  2.15018e+202   1.32445e+68   1.66163e+67   3.89775e+67   9.15135e+67  -1.02721e+67  -3.90037e+67  -3.07591e+66
   1.38297e+60   1.28241e+63  -5.79903e+61  -1.89503e+68  5.87615e+135 -2.92243e+202   1.73307e+68  -1.20456e+67  -3.87019e+67  -1.38756e+68  -1.02761e+67  -3.89648e+67   2.77607e+66
   2.06955e+60   1.28018e+63  -5.78977e+61  -1.89035e+68  6.12562e+135 -3.67879e+202   1.72071e+68  -1.19375e+67  -3.86004e+67  -1.38497e+68   1.01493e+67  -3.49568e+67   3.08857e+66
  -1.13147e+60   1.28005e+63   3.53184e+61   1.46757e+68    4.367e+135  3.09507e+202   1.31037e+68   1.65355e+67     3.889e+67   9.13315e+67   1.01533e+67  -3.49957e+67  -3.21981e+66
  -7.56535e+59   1.19079e+63   3.39381e+61   1.47967e+68  4.31248e+135  2.97666e+202   1.32596e+68   1.71533e+67   3.90979e+67   9.17159e+67  -1.02469e+67     3.746e+67  -3.01076e+66
   1.37721e+60   1.19092e+63  -5.55159e+61  -1.92166e+68  6.36692e+135 -4.18415e+202   1.74816e+68  -1.33953e+67  -3.93943e+67  -1.39376e+68   -1.0251e+67   3.74988e+67   2.67513e+66
   2.06127e+60   1.18865e+63  -5.54254e+61  -1.91708e+68  6.00721e+135 -3.26836e+202   1.75342e+68  -1.32896e+67  -3.92955e+67  -1.39123e+68   1.01265e+67   4.14652e+67   2.98151e+66
   -1.1321e+60   1.18852e+63    3.3817e+61   1.47622e+68  3.97126e+135  1.92421e+202   1.33496e+68   1.70738e+67   3.90115e+67   9.15372e+67   1.01306e+67   4.14263e+67  -3.15184e+66
  -8.16573e+50    1.3806e+63   1.34644e+62    3.4413e+68  1.33531e+136  7.64123e+202   3.24148e+68    1.1117e+67   3.85744e+67   2.94438e+68  -1.03054e+67  -3.99965e+67  -9.27794e+65
  -5.54374e+50   1.37954e+63   3.70673e+61   8.51376e+65 -4.46347e+135  6.41854e+202   6.68147e+67  -1.75816e+67  -4.06437e+67   5.90767e+67  -1.03008e+67  -4.03965e+67  -5.58682e+65
   -3.7751e+59    1.3791e+63   3.70436e+61   8.68639e+65  -4.4411e+135  6.47678e+202   6.66472e+67  -1.75776e+67  -4.06322e+67   5.90784e+67   1.03296e+67  -4.01147e+67    -6.898e+65
  -1.45029e+60   1.38016e+63   1.34605e+62   3.44059e+68  1.33633e+136  7.82993e+202   3.24057e+68   1.11005e+67   3.85654e+67   2.94393e+68    1.0325e+67  -3.97135e+67  -1.52681e+66
   -7.9243e+50    1.2851e+63   1.29054e+62   3.51403e+68   1.5399e+136  1.21754e+203   3.28762e+68   1.42329e+67   4.10528e+67   2.96117e+68  -1.02832e+67   3.80754e+67  -9.10126e+65
  -5.35303e+50   1.28406e+63   3.55364e+61   4.47447e+66  -4.2059e+135  5.58377e+202   6.50071e+67  -1.64308e+67  -3.90075e+67   5.99128e+67  -1.02771e+67   3.76753e+67  -5.57357e+65
  -3.78395e+59   1.28361e+63   3.55123e+61   4.50018e+66 -4.22682e+135  5.51449e+202   6.51696e+67  -1.64249e+67  -3.89915e+67   5.99165e+67   1.03064e+67     3.795e+67  -6.85853e+65
  -1.44874e+60   1.28465e+63   1.29014e+62   3.51341e+68  1.53678e+136  1.19208e+203   3.28745e+68   1.42188e+67   4.10488e+67   2.96074e+68   1.03003e+67   3.83513e+67  -1.49717e+66
  -5.54374e+50   1.37954e+63   3.70673e+61   1.50206e+68  4.24835e+135  2.51194e+202   1.35327e+68   1.68848e+67   3.97778e+67    9.3543e+67  -1.03008e+67  -4.02152e+67  -5.58682e+65
  -2.91716e+50   1.37967e+63  -6.05002e+61   -1.9306e+68  6.01419e+135 -3.21158e+202   1.76799e+68  -1.18172e+67  -3.94373e+67  -1.41805e+68  -1.03032e+67  -4.01724e+67    -1.868e+65
   6.95133e+59   1.37923e+63  -6.05081e+61   -1.9298e+68  6.02843e+135 -3.21778e+202   1.76672e+68  -1.17988e+67  -3.94229e+67  -1.41758e+68   1.03245e+67  -3.98899e+67   1.52901e+65
   -3.7751e+59    1.3791e+63   3.70436e+61   1.50186e+68  4.26846e+135  2.64512e+202    1.3523e+68   1.68802e+67   3.97692e+67   9.35362e+67    1.0327e+67  -3.99311e+67    -6.898e+65
  -5.35303e+50   1.28406e+63   3.55364e+61    1.5095e+68  4.51765e+135  3.05316e+202   1.35161e+68   1.73713e+67   3.98641e+67   9.37149e+67  -1.02771e+67   3.78514e+67  -5.57357e+65
  -2.77904e+50   1.28419e+63  -5.79716e+61  -1.95988e+68  6.61699e+135 -4.19014e+202   1.78309e+68  -1.33081e+67  -4.01985e+67  -1.42481e+68  -1.02777e+67   3.78942e+67  -2.03907e+65
   6.91653e+59   1.28374e+63  -5.79804e+61    -1.959e+68   6.5865e+135 -4.14742e+202   1.78299e+68   -1.3288e+67  -4.01794e+67  -1.42433e+68   1.03001e+67    3.8168e+67      1.29e+65
  -3.78395e+59   1.28361e+63   3.55123e+61    1.5094e+68  4.49512e+135  2.91302e+202   1.35232e+68   1.73689e+67   3.98606e+67   9.37103e+67   1.03007e+67   3.81267e+67  -6.85853e+65
  -1.45029e+60   1.38016e+63   1.34605e+62   3.44043e+68  1.33417e+136  7.39549e+202   3.24073e+68   1.11678e+67   3.85618e+67   2.94313e+68  -1.02923e+67  -4.00571e+67  -3.80383e+66
   -3.7751e+59    1.3791e+63   3.70436e+61   8.07737e+65 -4.46802e+135  6.33088e+202   6.68481e+67  -1.75726e+67  -4.06463e+67   5.90266e+67  -1.02776e+67  -4.04582e+67  -1.82267e+66
  -7.54617e+59   1.37779e+63   3.69718e+61   8.00182e+65 -4.37329e+135  6.46908e+202   6.61357e+67  -1.75744e+67   -4.0624e+67   5.89985e+67   1.03316e+67  -3.92814e+67  -1.96241e+66
  -2.89907e+60   1.37885e+63   1.34469e+62   3.43672e+68  1.33709e+136  8.02154e+202   3.23634e+68   1.10822e+67   3.85002e+67   2.94089e+68   1.03168e+67   -3.8878e+67  -4.41159e+66
  -1.44874e+60   1.28465e+63   1.29014e+62   3.51401e+68  1.54196e+136  1.24527e+203   3.28729e+68   1.43245e+67   4.10625e+67   2.96014e+68  -1.02706e+67   3.80084e+67  -3.70877e+66
  -3.78395e+59   1.28361e+63   3.55123e+61    4.5081e+66 -4.19971e+135  5.66452e+202   6.49618e+67  -1.63833e+67  -3.89897e+67   5.98811e+67   -1.0253e+67   3.76074e+67  -1.80405e+66
  -7.55932e+59   1.28228e+63   3.54397e+61   4.51907e+66 -4.28625e+135  5.50364e+202   6.56253e+67  -1.63808e+67  -3.89579e+67   5.98578e+67   1.03087e+67   3.87547e+67  -1.94099e+66
  -2.89548e+60   1.28332e+63   1.28879e+62   3.51056e+68  1.52713e+136   1.1541e+203   3.28586e+68   1.42448e+67    4.1012e+67   2.95799e+68   1.02911e+67    3.9158e+67  -4.30437e+66
   -3.7751e+59    1.3791e+63   3.70436e+61   1.50125e+68   4.2352e+135  2.38439e+202   1.35286e+68   1.68851e+67   3.97551e+67   9.34844e+67  -1.02802e+67  -4.02746e+67  -1.82267e+66
   6.95133e+59   1.37923e+63  -6.05081e+61  -1.93113e+68  6.02103e+135  -3.2056e+202   1.76837e+68  -1.18708e+67  -3.94535e+67  -1.41788e+68  -1.02834e+67  -4.02333e+67   1.68233e+65
   1.38939e+60   1.37792e+63  -6.05153e+61  -1.92821e+68  6.08351e+135 -3.31551e+202   1.76342e+68  -1.18034e+67  -3.93914e+67  -1.41626e+68   1.03197e+67  -3.90542e+67   4.97181e+65
  -7.54617e+59   1.37779e+63   3.69718e+61   1.50022e+68  4.31847e+135   2.8293e+202   1.34863e+68   1.68615e+67   3.97263e+67   9.34343e+67   1.03229e+67  -3.90921e+67  -1.96241e+66
  -3.78395e+59   1.28361e+63   3.55123e+61   1.50948e+68  4.52293e+135  3.15674e+202   1.35138e+68   1.74105e+67   3.98625e+67   9.36749e+67  -1.02586e+67    3.7784e+67  -1.80405e+66
   6.91653e+59   1.28374e+63  -5.79804e+61  -1.95953e+68  6.62109e+135 -4.22749e+202    1.7826e+68  -1.33157e+67  -4.01916e+67  -1.42446e+68  -1.02579e+67   3.78254e+67   1.04679e+65
   1.38297e+60   1.28241e+63  -5.79903e+61  -1.95647e+68   6.4993e+135 -4.00554e+202   1.78265e+68   -1.3245e+67  -4.01196e+67  -1.42282e+68    1.0297e+67   3.89705e+67   4.27048e+65
  -7.55932e+59   1.28228e+63   3.54397e+61   1.50868e+68  4.42665e+135  2.68914e+202   1.35405e+68    1.7392e+67   3.98453e+67   9.36306e+67   1.02962e+67   3.89324e+67  -1.94099e+66
  -2.89907e+60   1.37885e+63   1.34469e+62   3.43915e+68  1.34055e+136  7.05509e+202    3.2384e+68   1.15293e+67   3.85564e+67   2.93829e+68  -1.03245e+67   -3.9566e+67  -9.14431e+66
  -7.54617e+59   1.37779e+63   3.69718e+61   7.82994e+65  -4.4269e+135  6.14636e+202   6.65396e+67  -1.75061e+67  -4.06279e+67    5.8917e+67  -1.02861e+67  -3.99686e+67  -3.12438e+66
  -1.13019e+60    1.3756e+63   3.68505e+61    6.8265e+65 -4.11013e+135  6.11637e+202   6.41139e+67  -1.75292e+67  -4.05883e+67   5.88001e+67    1.0193e+67  -3.59122e+67  -3.27241e+66
  -4.33956e+60   1.37666e+63   1.34131e+62   3.42982e+68  1.35558e+136  8.62993e+202   3.22616e+68    1.1314e+67   3.84039e+67   2.93264e+68   1.01545e+67  -3.55086e+67  -9.75841e+66
  -2.89548e+60   1.28332e+63   1.28879e+62   3.51376e+68  1.54352e+136  1.29466e+203   3.28679e+68   1.47249e+67    4.1086e+67   2.95565e+68  -1.02993e+67   3.84717e+67  -8.90981e+66
  -7.55932e+59   1.28228e+63   3.54397e+61   4.57534e+66   -4.232e+135  5.79525e+202   6.52145e+67  -1.62756e+67  -3.89449e+67   5.97959e+67  -1.02597e+67   3.80691e+67  -3.06223e+66
  -1.13147e+60   1.28005e+63   3.53184e+61   4.49164e+66 -4.54517e+135  5.81703e+202   6.75673e+67  -1.62949e+67  -3.88982e+67   5.96848e+67   1.01712e+67   4.20843e+67  -3.20731e+66
  -4.33343e+60   1.28109e+63   1.28544e+62   3.50476e+68  1.49581e+136  1.06975e+203   3.28444e+68   1.45173e+67   4.09445e+67   2.95015e+68   1.01316e+67   4.24878e+67  -9.51163e+66
  -7.54617e+59   1.37779e+63   3.69718e+61   1.50005e+68  4.26297e+135  2.31485e+202    1.3505e+68   1.69297e+67   3.97223e+67   9.33528e+67  -1.02948e+67  -3.97794e+67  -3.12438e+66
   1.38939e+60   1.37792e+63  -6.05153e+61  -1.93105e+68  6.08352e+135 -3.08005e+202   1.76653e+68  -1.21172e+67   -3.9457e+67  -1.41531e+68  -1.03021e+67  -3.97416e+67   2.90126e+66
   2.07837e+60   1.37573e+63  -6.04203e+61  -1.92603e+68  6.33871e+135 -3.87443e+202   1.75377e+68  -1.20012e+67  -3.93529e+67  -1.41249e+68   1.01702e+67  -3.56861e+67   3.21782e+66
  -1.13019e+60    1.3756e+63   3.68505e+61   1.49662e+68  4.54049e+135  3.30284e+202   1.33634e+68   1.68506e+67   3.96313e+67   9.31799e+67   1.01775e+67  -3.57212e+67  -3.27241e+66
  -7.55932e+59   1.28228e+63   3.54397e+61   1.50924e+68  4.48638e+135  3.18197e+202   1.35247e+68   1.74972e+67   3.98583e+67   9.35687e+67  -1.02722e+67   3.82467e+67  -3.06223e+66
   1.38297e+60   1.28241e+63  -5.79903e+61  -1.95844e+68  6.59431e+135  -4.4208e+202   1.78215e+68  -1.35089e+67  -4.01651e+67   -1.4217e+68  -1.02761e+67   3.82847e+67   2.78871e+66
   2.06955e+60   1.28018e+63  -5.78977e+61  -1.95335e+68  6.21811e+135 -3.44883e+202   1.78711e+68  -1.33914e+67  -4.00543e+67  -1.41889e+68   1.01493e+67    4.2297e+67   3.09894e+66
  -1.13147e+60   1.28005e+63   3.53184e+61   1.50604e+68   4.1364e+135  2.08246e+202   1.36181e+68   1.74234e+67   3.97778e+67   9.34031e+67   1.01533e+67   4.22618e+67  -3.20731e+66
  -8.39959e+50   1.48019e+63   1.40349e+62   3.50998e+68  1.38624e+136   8.1309e+202   3.30662e+68   1.12462e+67   3.93356e+67   3.00416e+68  -1.03227e+67  -4.08434e+67  -9.27328e+65
  -5.72297e+50   1.47911e+63   3.86279e+61   9.07752e+65 -4.64127e+135  6.81639e+202   6.81329e+67  -1.78695e+67  -4.14545e+67   6.02318e+67  -1.03228e+67  -4.12553e+67   -5.4251e+65
  -3.76065e+59   1.47868e+63   3.86053e+61   9.93303e+65 -4.61966e+135   6.8664e+202   6.79753e+67  -1.78498e+67   -4.1435e+67   6.02781e+67   1.03486e+67  -4.09654e+67  -6.65389e+65
  -1.45097e+60   1.47977e+63   1.40311e+62      3.51e+68  1.38846e+136  8.34252e+202   3.30631e+68   1.12467e+67   3.93359e+67   3.00418e+68   1.03487e+67  -4.05496e+67  -1.52178e+66
  -8.16573e+50    1.3806e+63   1.34644e+62   3.58407e+68  1.59906e+136  1.29169e+203   3.35358e+68   1.44117e+67   4.18691e+67   3.02126e+68  -1.03054e+67   3.88538e+67  -9.27856e+65
  -5.54374e+50   1.37954e+63   3.70673e+61   4.56311e+66 -4.37026e+135  5.93326e+202   6.62653e+67  -1.67251e+67  -3.97872e+67   6.10753e+67  -1.03008e+67   3.84419e+67  -5.58741e+65
   -3.7751e+59    1.3791e+63   3.70436e+61   4.67195e+66 -4.39381e+135  5.85792e+202   6.64503e+67  -1.66999e+67  -3.97545e+67   6.11264e+67   1.03296e+67   3.87258e+67  -6.79113e+65
  -1.45029e+60   1.38016e+63   1.34605e+62   3.58434e+68  1.59733e+136  1.26834e+203   3.35413e+68    1.4418e+67   4.18829e+67   3.02133e+68    1.0325e+67   3.91415e+67  -1.51018e+66
  -5.72297e+50   1.47911e+63   3.86279e+61   1.53267e+68  4.42849e+135  2.71297e+202   1.38066e+68   1.72903e+67   4.05851e+67   9.53916e+67  -1.03228e+67  -4.10757e+67   -5.4251e+65
  -3.05425e+50   1.47925e+63  -6.30839e+61  -1.96778e+68  6.21216e+135 -3.34768e+202   1.80304e+68  -1.17978e+67  -4.01946e+67  -1.44786e+68  -1.03305e+67  -4.10253e+67  -1.49828e+65
   6.99205e+59   1.47882e+63  -6.30901e+61  -1.96622e+68  6.22022e+135 -3.35282e+202   1.80111e+68  -1.17617e+67  -4.01708e+67  -1.44689e+68   1.03478e+67  -4.07333e+67   2.08599e+65
  -3.76065e+59   1.47868e+63   3.86053e+61   1.53313e+68  4.45532e+135  2.85433e+202    1.3802e+68   1.73009e+67   4.05834e+67   9.54288e+67   1.03555e+67  -4.07794e+67  -6.65389e+65
  -5.54374e+50   1.37954e+63   3.70673e+61   1.53917e+68  4.70004e+135  3.27053e+202   1.37806e+68   1.77413e+67   4.06344e+67   9.55417e+67  -1.03008e+67   3.86233e+67  -5.58741e+65
  -2.91716e+50   1.37967e+63  -6.05002e+61  -1.99959e+68  6.87029e+135 -4.44087e+202    1.8197e+68  -1.34095e+67  -4.10294e+67   -1.4552e+68  -1.03032e+67   3.86737e+67  -1.86868e+65
   6.95133e+59   1.37923e+63  -6.05081e+61  -1.99779e+68   6.8288e+135 -4.37661e+202   1.81887e+68  -1.33681e+67  -4.09919e+67  -1.45419e+68   1.03246e+67   3.89556e+67   1.64244e+65
   -3.7751e+59    1.3791e+63   3.70436e+61   1.53989e+68  4.68331e+135  3.13501e+202   1.37947e+68   1.77578e+67   4.06469e+67   9.55842e+67    1.0327e+67   3.89094e+67  -6.79113e+65
  -1.45097e+60   1.47977e+63   1.40311e+62   3.50839e+68  1.38244e+136  7.81031e+202    3.3055e+68   1.12372e+67   3.92987e+67   3.00303e+68  -1.03069e+67  -4.08939e+67  -3.84219e+66
  -3.76065e+59   1.47868e+63   3.86053e+61   8.11851e+65 -4.64801e+135  6.74993e+202   6.81812e+67    -1.791e+67  -4.14768e+67   6.01987e+67  -1.03038e+67  -4.13096e+67   -1.7904e+66
  -7.52515e+59   1.47739e+63    3.8536e+61    9.5778e+65 -4.55308e+135  6.86918e+202   6.74833e+67  -1.78763e+67  -4.14382e+67   6.02723e+67   1.03491e+67  -4.00997e+67  -1.92856e+66
  -2.90138e+60   1.47848e+63   1.40175e+62    3.5063e+68  1.38809e+136  8.49825e+202   3.30243e+68   1.11889e+67   3.92553e+67   3.00186e+68    1.0346e+67  -3.96745e+67  -4.45435e+66
  -1.45029e+60   1.38016e+63   1.34605e+62   3.58418e+68  1.60062e+136   1.3186e+203   3.35347e+68   1.44854e+67   4.18792e+67   3.02054e+68  -1.02924e+67   3.87979e+67  -3.78727e+66
   -3.7751e+59    1.3791e+63   3.70436e+61   4.61123e+66 -4.36667e+135  6.02533e+202   6.62415e+67  -1.66949e+67  -3.97685e+67   6.10746e+67  -1.02776e+67   3.83824e+67  -1.81206e+66
  -7.54617e+59   1.37779e+63   3.69718e+61   4.81671e+66 -4.46117e+135  5.85086e+202   6.69654e+67  -1.66475e+67  -3.96971e+67   6.11612e+67   1.03316e+67    3.9565e+67   -1.9474e+66
  -2.89907e+60   1.37885e+63   1.34469e+62   3.58276e+68  1.58872e+136  1.23046e+203   3.35372e+68   1.44526e+67   4.18704e+67   3.01953e+68   1.03168e+67   3.99899e+67  -4.38693e+66
  -3.76065e+59   1.47868e+63   3.86053e+61   1.53132e+68  4.40809e+135  2.57336e+202    1.3799e+68   1.72407e+67   4.05415e+67   9.53494e+67  -1.02968e+67  -4.11237e+67   -1.7904e+66
   6.99205e+59   1.47882e+63  -6.30901e+61  -1.96889e+68  6.23263e+135   -3.361e+202   1.80369e+68  -1.19086e+67  -4.02326e+67  -1.44748e+68  -1.03134e+67  -4.10777e+67   2.91403e+65
   1.39664e+60   1.47753e+63  -6.30929e+61  -1.96419e+68  6.28266e+135 -3.47592e+202   1.79715e+68  -1.17999e+67  -4.01504e+67  -1.44468e+68   1.03382e+67  -3.98624e+67   6.31906e+65
  -7.52515e+59   1.47739e+63    3.8536e+61   1.53175e+68  4.50814e+135   3.0447e+202   1.37676e+68   1.72508e+67   4.05251e+67   9.53995e+67   1.03547e+67  -3.98974e+67  -1.92856e+66
   -3.7751e+59    1.3791e+63   3.70436e+61   1.53928e+68  4.70414e+135  3.37391e+202   1.37803e+68   1.77629e+67   4.06329e+67   9.55324e+67  -1.02802e+67    3.8566e+67  -1.81206e+66
   6.95133e+59   1.37923e+63  -6.05081e+61  -1.99912e+68  6.87616e+135 -4.49143e+202   1.81902e+68  -1.34399e+67  -4.10224e+67  -1.45449e+68  -1.02834e+67   3.86121e+67   1.79482e+65
   1.38939e+60   1.37792e+63  -6.05153e+61  -1.99383e+68  6.72581e+135 -4.21027e+202   1.81735e+68  -1.33178e+67  -4.09056e+67  -1.45159e+68   1.03197e+67   3.97897e+67   5.13036e+65
  -7.54617e+59   1.37779e+63   3.69718e+61   1.54039e+68  4.61923e+135  2.90791e+202   1.38234e+68   1.77884e+67   4.06532e+67   9.55971e+67   1.03228e+67   3.97543e+67   -1.9474e+66
  -2.90138e+60   1.47848e+63   1.40175e+62   3.50703e+68   1.3872e+136  7.39541e+202   3.30334e+68    1.1554e+67   3.92722e+67   2.99877e+68  -1.03426e+67  -4.03641e+67  -9.33314e+66
  -7.52515e+59   1.47739e+63    3.8536e+61   7.84536e+65 -4.60903e+135  6.57545e+202   6.78944e+67  -1.78885e+67  -4.14782e+67   6.01513e+67  -1.03166e+67  -4.07886e+67  -3.14416e+66
  -1.12839e+60   1.47525e+63    3.8416e+61   7.68203e+65 -4.28524e+135  6.52999e+202   6.54662e+67  -1.78923e+67  -4.14405e+67    6.0101e+67   1.02081e+67   -3.6683e+67  -3.30052e+66
  -4.34454e+60   1.47633e+63   1.39837e+62   3.49841e+68  1.40364e+136  9.04789e+202   3.29169e+68    1.1355e+67   3.91146e+67   2.99371e+68   1.01822e+67  -3.62483e+67  -9.96278e+66
  -2.89907e+60   1.37885e+63   1.34469e+62    3.5852e+68  1.60345e+136  1.37207e+203   3.35413e+68   1.48998e+67   4.19267e+67   3.01693e+68  -1.03246e+67   3.93018e+67  -9.11959e+66
  -7.54617e+59   1.37779e+63   3.69718e+61    4.7998e+66 -4.40632e+135    6.167e+202   6.65534e+67   -1.6579e+67   -3.9701e+67   6.10798e+67  -1.02861e+67   3.88778e+67  -3.10932e+66
  -1.13019e+60    1.3756e+63   3.68505e+61     4.856e+66  -4.7325e+135  6.18455e+202   6.89643e+67   -1.6566e+67  -3.96252e+67   6.10472e+67   1.01929e+67   4.29426e+67  -3.26249e+66
  -4.33956e+60   1.37666e+63   1.34131e+62   3.57747e+68  1.55645e+136  1.14106e+203   3.35289e+68   1.47215e+67   4.18112e+67   3.01214e+68   1.01544e+67   4.33767e+67  -9.73637e+66
  -7.52515e+59   1.47739e+63    3.8536e+61   1.53002e+68  4.43428e+135  2.49376e+202   1.37751e+68   1.72386e+67   4.04851e+67   9.52784e+67  -1.03111e+67  -4.05863e+67  -3.14416e+66
   1.39664e+60   1.47753e+63  -6.30929e+61  -1.96877e+68   6.3075e+135 -3.25318e+202   1.80147e+68  -1.22093e+67  -4.02562e+67  -1.44411e+68  -1.03331e+67  -4.05514e+67   3.06788e+66
   2.08775e+60   1.47538e+63  -6.29941e+61   -1.9626e+68  6.56206e+135 -4.08631e+202   1.78762e+68  -1.20671e+67  -4.01492e+67  -1.44044e+68   1.01858e+67  -3.64507e+67   3.38564e+66
  -1.12839e+60   1.47525e+63    3.8416e+61   1.52736e+68  4.72691e+135  3.52755e+202   1.36387e+68   1.71772e+67   4.03884e+67   9.51706e+67   1.02079e+67  -3.64734e+67  -3.30052e+66
  -7.54617e+59   1.37779e+63   3.69718e+61   1.54022e+68  4.67222e+135  3.40629e+202   1.38023e+68   1.78568e+67   4.06493e+67   9.55156e+67  -1.02948e+67    3.9067e+67  -3.10932e+66
   1.38939e+60   1.37792e+63  -6.05153e+61  -1.99667e+68  6.83573e+135 -4.67808e+202   1.81745e+68  -1.36314e+67  -4.09711e+67  -1.45064e+68   -1.0302e+67   3.91023e+67   2.91715e+66
   2.07837e+60   1.37573e+63  -6.04203e+61  -1.98989e+68   6.4305e+135 -3.62752e+202   1.82116e+68   -1.3475e+67  -4.08266e+67  -1.44687e+68   1.01702e+67   4.31572e+67   3.22843e+66
  -1.13019e+60    1.3756e+63   3.68505e+61   1.53835e+68  4.32211e+135  2.26832e+202    1.3908e+68   1.78137e+67   4.05943e+67    9.5427e+67   1.01774e+67   4.31337e+67  -3.26249e+66
  -8.59347e+50   1.58398e+63   1.46171e+62   3.58034e+68  1.43912e+136  8.64267e+202   3.37339e+68   1.13575e+67   4.01336e+67   3.06543e+68  -1.03314e+67  -4.17291e+67  -8.95504e+65
  -5.90009e+50   1.58287e+63   4.02179e+61   8.01685e+65 -4.82497e+135  7.27001e+202   6.94666e+67  -1.82305e+67  -4.23048e+67    6.1337e+67  -1.03424e+67  -4.21419e+67  -4.94606e+65
  -3.75087e+59   1.58245e+63   4.01977e+61   9.95278e+65 -4.80571e+135  7.30609e+202   6.93304e+67  -1.81859e+67  -4.22773e+67   6.14585e+67    1.0359e+67  -4.18435e+67  -6.29265e+65
  -1.45156e+60   1.58356e+63   1.46135e+62   3.58144e+68  1.44298e+136  8.87989e+202   3.37398e+68   1.13829e+67   4.01417e+67    3.0662e+68   1.03699e+67  -4.14219e+67  -1.50057e+66
  -8.39959e+50   1.48019e+63   1.40349e+62   3.65634e+68  1.66216e+136  1.37448e+203    3.4215e+68    1.4624e+67   4.27132e+67   3.08297e+68  -1.03227e+67    3.9655e+67  -9.27437e+65
  -5.72297e+50   1.47911e+63   3.86279e+61   4.57952e+66 -4.54062e+135  6.30355e+202   6.75396e+67  -1.70221e+67  -4.06072e+67   6.22088e+67  -1.03228e+67   3.92421e+67  -5.42621e+65
  -3.76065e+59   1.47868e+63   3.86053e+61   4.82339e+66 -4.56817e+135  6.21967e+202   6.77602e+67  -1.69658e+67  -4.05511e+67   6.23403e+67   1.03485e+67   3.95346e+67  -6.74474e+65
  -1.45097e+60   1.47977e+63   1.40311e+62   3.65796e+68  1.66258e+136  1.35501e+203   3.42317e+68   1.46614e+67   4.27504e+67   3.08385e+68   1.03486e+67   3.99561e+67   -1.5199e+66
  -5.90009e+50   1.58287e+63   4.02179e+61   1.56302e+68  4.60559e+135  2.91493e+202     1.408e+68   1.76542e+67   4.14262e+67   9.72217e+67  -1.03424e+67  -4.19814e+67  -4.94606e+65
  -3.21039e+50   1.58301e+63  -6.57269e+61  -2.00822e+68  6.43919e+135 -3.51926e+202   1.84094e+68  -1.18374e+67  -4.09871e+67  -1.47998e+68  -1.03616e+67   -4.1911e+67  -8.01413e+64
   7.02842e+59   1.58259e+63  -6.57302e+61  -2.00558e+68  6.43844e+135 -3.52536e+202   1.83807e+68  -1.17763e+67  -4.09563e+67  -1.47825e+68   1.03678e+67  -4.16113e+67   2.77339e+65
  -3.75087e+59   1.58245e+63   4.01977e+61   1.56453e+68  4.64236e+135  3.06417e+202   1.40838e+68   1.76891e+67   4.14309e+67   9.73334e+67    1.0387e+67  -4.16723e+67  -6.29265e+65
  -5.72297e+50   1.47911e+63   3.86279e+61   1.56939e+68  4.89083e+135  3.50381e+202   1.40495e+68   1.81378e+67   4.14324e+67   9.73686e+67  -1.03228e+67   3.94217e+67  -5.42621e+65
  -3.05425e+50   1.47925e+63  -6.30839e+61  -2.04184e+68  7.14325e+135 -4.71383e+202   1.85871e+68  -1.35069e+67  -4.19036e+67  -1.48774e+68  -1.03304e+67   3.94921e+67  -1.49942e+65
   6.99205e+59   1.47882e+63  -6.30901e+61  -2.03869e+68  7.08615e+135 -4.61892e+202   1.85678e+68  -1.34341e+67  -4.18432e+67  -1.48592e+68   1.03478e+67   3.97818e+67   2.00091e+65
  -3.76065e+59   1.47868e+63   3.86053e+61   1.57143e+68  4.88422e+135  3.37969e+202   1.40747e+68   1.81849e+67   4.14673e+67    9.7491e+67   1.03555e+67   3.97206e+67  -6.74474e+65
  -1.45156e+60   1.58356e+63   1.46135e+62    3.5785e+68  1.43328e+136  8.26761e+202   3.37229e+68    1.1301e+67   4.00736e+67   3.06475e+68  -1.03052e+67  -4.17665e+67   -3.8062e+66
  -3.75087e+59   1.58245e+63   4.01977e+61    7.0551e+65 -4.83563e+135  7.22371e+202   6.95423e+67  -1.83064e+67  -4.23442e+67   6.13561e+67  -1.03338e+67  -4.21884e+67  -1.69356e+66
  -7.51271e+59   1.58119e+63   4.01343e+61   1.12695e+66 -4.74589e+135  7.30956e+202   6.88997e+67  -1.82092e+67   -4.2292e+67   6.16281e+67   1.03519e+67  -4.09495e+67  -1.84236e+66
   -2.9034e+60   1.58229e+63   1.46004e+62   3.57949e+68  1.44361e+136  9.03696e+202   3.37181e+68   1.13239e+67   4.00515e+67   3.06573e+68   1.03806e+67  -4.05022e+67  -4.42791e+66
  -1.45097e+60   1.47977e+63   1.40311e+62   3.65635e+68  1.66196e+136   1.3969e+203   3.42154e+68   1.46518e+67   4.27131e+67    3.0827e+68   -1.0307e+67   3.96118e+67  -3.84051e+66
  -3.76065e+59   1.47868e+63   3.86053e+61   4.64189e+66 -4.54157e+135  6.41557e+202   6.75509e+67   -1.7026e+67   -4.0593e+67   6.22609e+67  -1.03038e+67   3.91904e+67  -1.79966e+66
  -7.52515e+59   1.47739e+63    3.8536e+61   5.21388e+66 -4.64829e+135  6.21704e+202   6.83774e+67   -1.6894e+67  -4.04561e+67    6.2564e+67   1.03491e+67   4.04081e+67  -1.94536e+66
  -2.90138e+60   1.47848e+63   1.40175e+62   3.65892e+68   1.6563e+136  1.31905e+203   3.42511e+68   1.47111e+67   4.27772e+67   3.08403e+68   1.03459e+67   4.08544e+67  -4.44926e+66
  -3.75087e+59   1.58245e+63   4.01977e+61   1.56164e+68  4.58226e+135    2.773e+202    1.4073e+68   1.75685e+67    4.1364e+67   9.72311e+67  -1.03057e+67  -4.20172e+67  -1.69356e+66
   7.02842e+59   1.58259e+63  -6.57302e+61  -2.00931e+68  6.46687e+135   -3.536e+202   1.84136e+68  -1.19841e+67  -4.10423e+67  -1.47904e+68  -1.03546e+67  -4.19566e+67   4.87619e+65
    1.4032e+60   1.58132e+63  -6.57248e+61  -2.00151e+68  6.49325e+135 -3.65623e+202   1.83214e+68  -1.18043e+67  -4.09392e+67  -1.47408e+68   1.03482e+67  -4.07067e+67    8.3046e+65
  -7.51271e+59   1.58119e+63   4.01343e+61   1.56482e+68   4.7099e+135  3.27294e+202    1.4063e+68    1.7642e+67   4.13608e+67   9.74793e+67    1.0397e+67  -4.07414e+67  -1.84236e+66
  -3.76065e+59   1.47868e+63   3.86053e+61   1.56962e+68  4.89193e+135  3.60337e+202   1.40517e+68   1.81247e+67   4.14254e+67   9.74116e+67  -1.02969e+67   3.93764e+67  -1.79966e+66
   6.99205e+59   1.47882e+63  -6.30901e+61  -2.04137e+68   7.1554e+135 -4.78919e+202   1.85786e+68  -1.35811e+67   -4.1905e+67  -1.48651e+68  -1.03133e+67   3.94375e+67   2.82686e+65
   1.39664e+60   1.47753e+63  -6.30929e+61  -2.03216e+68  6.95839e+135 -4.41611e+202   1.85306e+68  -1.33686e+67  -4.17191e+67  -1.48128e+68   1.03382e+67   4.06462e+67   6.18385e+65
  -7.52515e+59   1.47739e+63    3.8536e+61   1.57431e+68   4.8327e+135  3.15955e+202   1.41251e+68   1.82331e+67   4.15073e+67   9.76911e+67   1.03547e+67   4.06104e+67  -1.94536e+66
   -2.9034e+60   1.58229e+63   1.46004e+62   3.57725e+68  1.43487e+136  7.73558e+202   3.37073e+68   1.15387e+67   3.99998e+67   3.06186e+68  -1.03423e+67   -4.1193e+67  -9.45533e+66
  -7.51271e+59   1.58119e+63   4.01343e+61   7.41632e+65   -4.805e+135  7.06738e+202   6.93221e+67  -1.83327e+67  -4.23809e+67   6.14553e+67  -1.03578e+67  -4.16399e+67  -3.10187e+66
  -1.12816e+60   1.57908e+63   4.00195e+61   1.00729e+66 -4.48136e+135  6.98816e+202   6.69506e+67  -1.82714e+67  -4.23441e+67   6.16228e+67     1.021e+67  -3.74804e+67  -3.27566e+66
  -4.34982e+60   1.58019e+63   1.45669e+62   3.57125e+68  1.45513e+136  9.49079e+202   3.36136e+68   1.14003e+67    3.9837e+67   3.05888e+68   1.02255e+67  -3.70003e+67  -1.01098e+67
  -2.90138e+60   1.47848e+63   1.40175e+62   3.65965e+68  1.66676e+136  1.45525e+203   3.42437e+68   1.50764e+67   4.27943e+67   3.08095e+68  -1.03427e+67   4.01648e+67  -9.32805e+66
  -7.52515e+59   1.47739e+63    3.8536e+61   5.04083e+66 -4.59377e+135   6.5771e+202   6.79646e+67  -1.69061e+67   -4.0496e+67    6.2443e+67  -1.03167e+67   3.97193e+67    -3.161e+66
  -1.12839e+60   1.47525e+63    3.8416e+61   5.51349e+66 -4.93967e+135  6.56778e+202   7.04987e+67  -1.67971e+67  -4.03455e+67    6.2656e+67   1.02081e+67   4.38376e+67  -3.33116e+66
  -4.34454e+60   1.47633e+63   1.39837e+62   3.65591e+68   1.6249e+136  1.22675e+203   3.42648e+68     1.499e+67   4.27493e+67   3.07852e+68    1.0182e+67   4.43156e+67  -9.96884e+66
  -7.51271e+59   1.58119e+63   4.01343e+61   1.56097e+68  4.61115e+135  2.68861e+202   1.40553e+68   1.75185e+67   4.12719e+67   9.73065e+67  -1.03127e+67  -4.14317e+67  -3.10187e+66
    1.4032e+60   1.58132e+63  -6.57248e+61  -2.00852e+68  6.55341e+135 -3.44569e+202   1.83815e+68  -1.23474e+67  -4.11009e+67  -1.47404e+68  -1.03825e+67  -4.13978e+67   3.31243e+66
   2.09579e+60   1.57921e+63  -6.56181e+61  -1.99933e+68  6.79241e+135 -4.31759e+202   1.82156e+68  -1.21354e+67  -4.09985e+67  -1.46799e+68   1.01844e+67  -3.72598e+67   3.62414e+66
  -1.12816e+60   1.57908e+63   4.00195e+61   1.56086e+68  4.93271e+135  3.77351e+202   1.39392e+68   1.75159e+67   4.11598e+67   9.74101e+67   1.02542e+67  -3.72555e+67  -3.27566e+66
  -7.52515e+59   1.47739e+63    3.8536e+61   1.57258e+68  4.86933e+135  3.64967e+202   1.40929e+68    1.8221e+67   4.14673e+67   9.75701e+67  -1.03111e+67   3.99216e+67    -3.161e+66
   1.39664e+60   1.47753e+63  -6.30929e+61  -2.03674e+68  7.09672e+135 -4.96517e+202   1.85435e+68  -1.37779e+67  -4.18247e+67  -1.48071e+68   -1.0333e+67   3.99572e+67   3.05431e+66
   2.08775e+60   1.47538e+63  -6.29941e+61   -2.0254e+68  6.63258e+135 -3.78902e+202   1.85446e+68  -1.35164e+67  -4.15985e+67  -1.47426e+68   1.01859e+67   4.40452e+67   3.35953e+66
  -1.12839e+60   1.47525e+63    3.8416e+61   1.57482e+68  4.54224e+135  2.49863e+202   1.42331e+68   1.82725e+67   4.14835e+67   9.77256e+67   1.02078e+67   4.40471e+67  -3.33116e+66
  -8.78293e+50   1.69204e+63   1.52114e+62   3.64828e+68   1.4814e+136  8.82325e+202   3.43926e+68   1.11427e+67   4.09232e+67   3.12762e+68  -1.03282e+67  -4.26483e+67  -8.26141e+65
  -6.06473e+50   1.69091e+63   4.18385e+61   9.01991e+64 -5.01972e+135  7.94438e+202     7.085e+67   -1.9017e+67  -4.32471e+67   6.23543e+67  -1.03594e+67  -4.30374e+67  -4.23776e+65
  -3.79532e+59    1.6905e+63   4.18216e+61   2.95119e+65 -5.00338e+135  7.98596e+202   7.07352e+67  -1.89697e+67  -4.32478e+67   6.25126e+67   1.03462e+67  -4.27423e+67  -6.67906e+65
  -1.45622e+60   1.69162e+63   1.52081e+62   3.65026e+68  1.48612e+136  9.07561e+202   3.44068e+68   1.11884e+67   4.09208e+67   3.12916e+68   1.03775e+67  -4.23373e+67  -1.52466e+66
  -8.59347e+50   1.58398e+63   1.46171e+62   3.73153e+68  1.73017e+136  1.46621e+203   3.49201e+68   1.48473e+67   4.36224e+67   3.14683e+68  -1.03314e+67   4.04704e+67  -8.95637e+65
  -5.90009e+50   1.58287e+63   4.02179e+61    4.6448e+66 -4.72116e+135  6.70431e+202   6.88675e+67  -1.73426e+67  -4.14179e+67   6.34053e+67  -1.03424e+67   4.00813e+67  -4.94687e+65
  -3.75087e+59   1.58245e+63   4.01977e+61   4.94209e+66 -4.75254e+135   6.6189e+202   6.91156e+67   -1.7274e+67  -4.13665e+67   6.35827e+67    1.0359e+67   4.03823e+67  -7.33623e+65
  -1.45156e+60   1.58356e+63   1.46135e+62   3.73443e+68  1.73241e+136  1.44965e+203   3.49479e+68   1.49143e+67   4.36722e+67   3.14857e+68   1.03699e+67    4.0787e+67  -1.57929e+66
  -6.06473e+50   1.69091e+63   4.18385e+61   1.58866e+68  4.72039e+135  3.02078e+202   1.43241e+68   1.76234e+67   4.22473e+67   9.89947e+67  -1.03594e+67  -4.29365e+67  -4.23776e+65
   -3.3468e+50   1.69106e+63  -6.84315e+61   -2.0571e+68  6.78801e+135 -3.92599e+202    1.8849e+68  -1.23296e+67  -4.18854e+67  -1.51495e+68   -1.0393e+67  -4.28217e+67   4.75985e+63
   7.00541e+59   1.69064e+63  -6.84313e+61  -2.05445e+68  6.79026e+135 -3.94783e+202   1.88195e+68  -1.22684e+67  -4.18757e+67  -1.51301e+68   1.03777e+67  -4.25177e+67   2.53374e+65
  -3.79532e+59    1.6905e+63   4.18216e+61   1.59059e+68  4.76088e+135  3.17284e+202   1.43314e+68   1.76681e+67   4.22406e+67   9.91505e+67   1.04112e+67  -4.26213e+67  -6.67906e+65
  -5.90009e+50   1.58287e+63   4.02179e+61   1.60145e+68  5.10026e+135  3.76538e+202   1.43339e+68   1.85421e+67   4.23131e+67     9.929e+67  -1.03424e+67   4.02419e+67  -4.94687e+65
  -3.21039e+50   1.58301e+63  -6.57269e+61  -2.08519e+68  7.42328e+135 -4.99931e+202   1.89886e+68  -1.36126e+67  -4.27632e+67  -1.52143e+68  -1.03616e+67   4.03567e+67   -8.0195e+64
   7.02842e+59   1.58259e+63  -6.57302e+61  -2.08194e+68  7.36518e+135 -4.90178e+202   1.89683e+68  -1.35376e+67  -4.27185e+67  -1.51938e+68   1.03678e+67   4.06574e+67   1.63129e+65
  -3.75087e+59   1.58245e+63   4.01977e+61     1.604e+68  5.09579e+135  3.63701e+202    1.4364e+68   1.86009e+67   4.23417e+67   9.94576e+67    1.0387e+67   4.05535e+67  -7.33623e+65
  -1.45622e+60   1.69162e+63   1.52081e+62    3.6488e+68   1.4804e+136  8.57047e+202   3.43996e+68   1.11838e+67   4.08872e+67   3.12809e+68  -1.02878e+67  -4.26817e+67  -3.73812e+66
  -3.79532e+59    1.6905e+63   4.18216e+61   3.06569e+65 -5.03311e+135  7.82828e+202   7.09451e+67  -1.89332e+67  -4.32452e+67    6.2485e+67  -1.03747e+67  -4.30876e+67  -1.57771e+66
  -7.58384e+59   1.68926e+63   4.17685e+61   1.01801e+66 -4.95242e+135  7.88739e+202   7.03808e+67   -1.8769e+67  -4.32146e+67   6.30016e+67   1.03329e+67  -4.18149e+67  -1.78737e+66
  -2.91187e+60   1.69039e+63    1.5196e+62   3.65269e+68  1.49419e+136  9.39138e+202   3.44208e+68   1.12735e+67   4.08432e+67   3.13152e+68   1.04198e+67  -4.13633e+67  -4.41971e+66
  -1.45156e+60   1.58356e+63   1.46135e+62   3.73147e+68  1.72802e+136  1.48432e+203   3.49226e+68   1.48319e+67   4.36039e+67   3.14712e+68  -1.03053e+67   4.04424e+67   -3.8852e+66
  -3.75087e+59   1.58245e+63   4.01977e+61   4.65087e+66 -4.72674e+135  6.84814e+202   6.89084e+67  -1.73954e+67  -4.14337e+67     6.348e+67  -1.03338e+67   4.00374e+67  -1.79825e+66
  -7.51271e+59   1.58119e+63   4.01343e+61   5.62576e+66 -4.84974e+135  6.62314e+202   6.98669e+67  -1.71704e+67  -4.12538e+67     6.405e+67   1.03519e+67   4.12897e+67  -2.00346e+66
   -2.9034e+60   1.58229e+63   1.46004e+62   3.73806e+68  1.72797e+136  1.41475e+203    3.4993e+68   1.49839e+67   4.37109e+67   3.15111e+68   1.03804e+67   4.17394e+67  -4.55228e+66
  -3.79532e+59    1.6905e+63   4.18216e+61   1.59071e+68  4.73519e+135  2.94104e+202   1.43417e+68   1.77046e+67   4.22432e+67   9.91228e+67  -1.03097e+67  -4.29666e+67  -1.57771e+66
   7.00541e+59   1.69064e+63  -6.84313e+61  -2.05404e+68  6.75505e+135 -3.80658e+202   1.88244e+68  -1.22607e+67  -4.18664e+67  -1.51277e+68   -1.0423e+67  -4.28644e+67   6.77611e+65
   1.40106e+60    1.6894e+63  -6.84142e+61  -2.04452e+68  6.77638e+135 -3.97099e+202   1.87147e+68  -1.20409e+67  -4.18206e+67   -1.5059e+68   1.03341e+67  -4.15986e+67   9.73479e+65
  -7.58384e+59   1.68926e+63   4.17685e+61   1.59651e+68  4.88642e+135  3.45927e+202   1.43534e+68   1.78385e+67   4.22029e+67   9.96092e+67   1.04474e+67  -4.16503e+67  -1.78737e+66
  -3.75087e+59   1.58245e+63   4.01977e+61   1.60109e+68  5.09126e+135  3.85422e+202   1.43331e+68   1.84796e+67   4.22745e+67   9.93549e+67  -1.03058e+67   4.02086e+67  -1.79825e+66
   7.02842e+59   1.58259e+63  -6.57302e+61  -2.08569e+68  7.45278e+135 -5.11172e+202   1.89863e+68  -1.37464e+67  -4.28049e+67  -1.52017e+68  -1.03545e+67    4.0312e+67   3.73102e+65
    1.4032e+60   1.58132e+63  -6.57248e+61  -2.07332e+68  7.21935e+135   -4.671e+202   1.89122e+68   -1.3461e+67  -4.25962e+67  -1.51275e+68   1.03482e+67   4.15517e+67   6.62676e+65
  -7.51271e+59   1.58119e+63   4.01343e+61   1.60981e+68  5.05982e+135   3.4259e+202   1.44413e+68   1.86808e+67    4.2399e+67   9.99012e+67    1.0397e+67   4.14978e+67  -2.00346e+66
  -2.91187e+60   1.69039e+63    1.5196e+62   3.65089e+68  1.48684e+136  8.15052e+202   3.44124e+68   1.15149e+67   4.08018e+67   3.12772e+68  -1.03006e+67  -4.20539e+67  -9.48855e+66
  -7.58384e+59   1.68926e+63   4.17685e+61   6.33969e+65 -5.01415e+135   7.6484e+202   7.08135e+67  -1.88964e+67  -4.33032e+67   6.28335e+67  -1.04171e+67  -4.25065e+67  -2.98012e+66
  -1.13801e+60   1.68719e+63   4.16678e+61   1.53922e+66 -4.70549e+135  7.51095e+202   6.86138e+67  -1.86875e+67  -4.32736e+67   6.35003e+67   1.01671e+67  -3.82892e+67   -3.1913e+66
  -4.36187e+60   1.68833e+63   1.51636e+62   3.65119e+68  1.51551e+136   1.0068e+203   3.43739e+68   1.15218e+67   4.06293e+67   3.12967e+68   1.02836e+67  -3.77573e+67  -1.01636e+67
   -2.9034e+60   1.58229e+63   1.46004e+62   3.73581e+68  1.73035e+136  1.53682e+203   3.49656e+68   1.51981e+67   4.36589e+67   3.14724e+68  -1.03426e+67   4.10486e+67  -9.58009e+66
  -7.51271e+59   1.58119e+63   4.01343e+61   5.23968e+66 -4.79681e+135  7.05101e+202   6.94569e+67  -1.72943e+67  -4.13429e+67   6.38769e+67  -1.03579e+67   4.05994e+67  -3.26336e+66
  -1.12816e+60   1.57908e+63   4.00195e+61   6.61645e+66 -5.17531e+135  6.96685e+202   7.22433e+67  -1.69766e+67  -4.10496e+67   6.46427e+67   1.02099e+67   4.47765e+67  -3.47004e+66
  -4.34982e+60   1.58019e+63   1.45669e+62   3.74101e+68  1.70179e+136  1.32689e+203   3.50619e+68    1.5318e+67   4.37544e+67   3.15028e+68   1.02252e+67   4.53034e+67  -1.02408e+67
  -7.58384e+59   1.68926e+63   4.17685e+61   1.59267e+68  4.78714e+135  2.88901e+202   1.43453e+68   1.77112e+67   4.21143e+67   9.94411e+67  -1.03026e+67  -4.23419e+67  -2.98012e+66
   1.40106e+60    1.6894e+63  -6.84142e+61  -2.05053e+68  6.82031e+135 -3.65261e+202   1.87688e+68  -1.25433e+67  -4.19595e+67  -1.50551e+68  -1.04671e+67  -4.22919e+67   3.64207e+66
   2.09433e+60   1.68732e+63  -6.82904e+61  -2.03405e+68  7.00443e+135 -4.53154e+202    1.8539e+68   -1.2163e+67  -4.18319e+67   -1.4941e+68   1.01655e+67  -3.81166e+67   3.94508e+66
  -1.13801e+60   1.68719e+63   4.16678e+61   1.59933e+68  5.17388e+135  4.05845e+202   1.42845e+68   1.78649e+67   4.20154e+67   1.00053e+68     1.033e+67  -3.80922e+67   -3.1913e+66
  -7.51271e+59   1.58119e+63   4.01343e+61   1.60595e+68  5.07302e+135  3.90884e+202   1.43937e+68   1.85569e+67   4.23099e+67   9.97281e+67  -1.03128e+67   4.08075e+67  -3.26336e+66
    1.4032e+60   1.58132e+63  -6.57248e+61  -2.08033e+68  7.39809e+135 -5.31398e+202    1.8942e+68  -1.40047e+67  -4.27582e+67  -1.51271e+68  -1.03824e+67   4.08606e+67   3.14414e+66
   2.09579e+60   1.57921e+63  -6.56181e+61  -2.05973e+68  6.82566e+135  -3.9466e+202   1.88677e+68  -1.35291e+67  -4.23922e+67  -1.50051e+68   1.01845e+67   4.49818e+67   3.44071e+66
  -1.12816e+60   1.57908e+63   4.00195e+61   1.61695e+68  4.80913e+135  2.78353e+202   1.46069e+68   1.88107e+67   4.24542e+67    1.0043e+68   1.02541e+67   4.50014e+67  -3.47004e+66
  -8.97659e+50   1.80446e+63   1.58192e+62    3.7028e+68  1.46859e+136  7.34265e+202   3.49888e+68   9.54419e+66    4.1514e+67   3.19222e+68  -1.03303e+67  -4.36089e+67  -8.93602e+65
  -6.20799e+50   1.80332e+63   4.35011e+61  -2.31788e+66 -5.26089e+135  9.37998e+202    7.2569e+67  -2.12573e+67  -4.44702e+67   6.34097e+67  -1.03592e+67  -4.39426e+67  -4.31651e+65
  -4.04209e+59   1.80291e+63   4.34843e+61  -2.49916e+66 -5.23182e+135  9.48603e+202   7.23745e+67  -2.12992e+67  -4.45553e+67   6.33553e+67   1.03359e+67  -4.35957e+67  -1.07889e+66
  -1.48036e+60   1.80406e+63   1.58157e+62   3.69801e+68  1.46106e+136  7.41614e+202   3.49488e+68   9.43359e+66   4.13601e+67   3.19007e+68   1.03648e+67  -4.32639e+67   -1.9902e+66
  -8.78293e+50   1.69204e+63   1.52114e+62   3.81747e+68  1.81342e+136  1.57825e+203   3.57206e+68    1.5051e+67   4.48275e+67   3.21868e+68  -1.03282e+67   4.13052e+67  -8.25643e+65
  -6.06473e+50   1.69091e+63   4.18385e+61    5.3388e+66 -4.93786e+135  7.20287e+202   7.04725e+67  -1.78019e+67  -4.20358e+67   6.51766e+67  -1.03595e+67   4.09715e+67   -4.2349e+65
  -3.79532e+59    1.6905e+63   4.18216e+61   5.14288e+66 -4.96593e+135  7.15486e+202   7.06568e+67  -1.78472e+67  -4.21291e+67   6.51191e+67   1.03461e+67   4.12802e+67  -1.05666e+66
  -1.45622e+60   1.69162e+63   1.52081e+62   3.81259e+68  1.79967e+136  1.52319e+203   3.56878e+68   1.49385e+67    4.4667e+67   3.21654e+68   1.03775e+67   4.16121e+67   -1.8984e+66
  -6.20799e+50   1.80332e+63   4.35011e+61   1.59847e+68  4.61007e+135  2.74933e+202    1.4471e+68   1.61654e+67   4.28495e+67   1.00832e+68  -1.03592e+67  -4.38832e+67  -4.31651e+65
   -3.4562e+50   1.80347e+63  -7.11867e+61  -2.12633e+68  7.53669e+135 -5.24685e+202   1.94103e+68  -1.44898e+67  -4.31075e+67  -1.55036e+68   -1.0405e+67  -4.36954e+67  -8.88211e+64
   6.74257e+59   1.80307e+63  -7.11901e+61  -2.13326e+68  7.64784e+135 -5.40957e+202   1.94577e+68  -1.46498e+67  -4.33363e+67   -1.5534e+68   1.03347e+67  -4.34477e+67   -3.0613e+65
  -4.04209e+59   1.80291e+63   4.34843e+61   1.59583e+68  4.60287e+135  2.87392e+202   1.44443e+68   1.61044e+67   4.27197e+67   1.00759e+68   1.03806e+67  -4.36261e+67  -1.07889e+66
  -6.06473e+50   1.69091e+63   4.18385e+61   1.64114e+68  5.36716e+135  4.10033e+202   1.46855e+68   1.88385e+67   4.34586e+67   1.01817e+68  -1.03595e+67   4.10724e+67   -4.2349e+65
   -3.3468e+50   1.69106e+63  -6.84315e+61  -2.12011e+68  7.63408e+135 -5.23168e+202    1.9317e+68  -1.37794e+67  -4.33396e+67  -1.54892e+68   -1.0393e+67   4.12602e+67   5.40907e+63
   7.00541e+59   1.69064e+63  -6.84313e+61  -2.12638e+68  7.68609e+135 -5.34601e+202   1.93724e+68  -1.39241e+67  -4.35357e+67  -1.55178e+68   1.03776e+67   4.15798e+67  -2.07176e+65
  -3.79532e+59    1.6905e+63   4.18216e+61   1.63907e+68  5.31538e+135  3.87093e+202     1.468e+68   1.87907e+67   4.33593e+67   1.01757e+68   1.04112e+67   4.14012e+67  -1.05666e+66
  -1.48036e+60   1.80406e+63   1.58157e+62   3.71969e+68  1.52035e+136  8.45787e+202   3.50938e+68   1.06671e+67   4.18604e+67   3.19441e+68  -1.02513e+67  -4.36075e+67  -3.96761e+66
  -4.04209e+59   1.80291e+63   4.34843e+61  -5.83376e+65 -5.25396e+135  8.75814e+202   7.24866e+67  -2.02425e+67  -4.41132e+67   6.37724e+67  -1.04213e+67  -4.39417e+67  -1.82538e+66
  -7.96393e+59    1.8017e+63   4.34381e+61  -6.64238e+65 -5.17004e+135  8.99782e+202    7.1906e+67  -2.02612e+67  -4.43872e+67   6.39842e+67   1.02292e+67   -4.2699e+67  -2.24935e+66
  -2.94636e+60   1.80285e+63   1.58045e+62    3.7195e+68  1.52309e+136   9.1415e+202   3.50879e+68   1.06627e+67   4.16006e+67   3.19687e+68   1.03991e+67  -4.23011e+67  -4.79335e+66
  -1.45622e+60   1.69162e+63   1.52081e+62   3.81106e+68  1.79922e+136  1.57536e+203    3.5672e+68   1.49297e+67   4.46316e+67   3.21545e+68  -1.02879e+67   4.12677e+67  -4.11238e+66
  -3.79532e+59    1.6905e+63   4.18216e+61   5.14851e+66 -4.93831e+135  7.35244e+202   7.04615e+67  -1.78138e+67  -4.21278e+67   6.50901e+67  -1.03747e+67   4.09349e+67  -1.96649e+66
  -7.58384e+59   1.68926e+63   4.17685e+61   5.44713e+66  -5.0649e+135  7.17589e+202   7.13762e+67  -1.77449e+67  -4.21925e+67   6.53845e+67   1.03328e+67   4.22159e+67  -2.38124e+66
  -2.91187e+60   1.69039e+63    1.5196e+62   3.81465e+68  1.79022e+136  1.47768e+203    3.5723e+68   1.50126e+67   4.45808e+67   3.21871e+68   1.04197e+67    4.2611e+67  -4.92018e+66
  -4.04209e+59   1.80291e+63   4.34843e+61   1.61499e+68  4.79937e+135  2.90558e+202   1.45885e+68    1.7161e+67   4.31618e+67   1.01176e+68  -1.03767e+67   -4.3972e+67  -1.82538e+66
   6.74257e+59   1.80307e+63  -7.11901e+61  -2.10599e+68  7.18429e+135  -4.4581e+202    1.9279e+68  -1.32019e+67   -4.2707e+67   -1.5469e+68  -1.04895e+67  -4.37948e+67   3.15703e+65
   1.36454e+60   1.80185e+63  -7.11696e+61  -2.10669e+68  7.32278e+135 -4.75792e+202   1.92506e+68  -1.32179e+67  -4.28922e+67  -1.54559e+68   1.03271e+67  -4.25399e+67   4.13796e+65
  -7.96393e+59    1.8017e+63   4.34381e+61   1.61698e+68  4.91377e+135  3.44638e+202   1.45714e+68    1.7207e+67   4.30386e+67   1.01452e+68   1.04399e+67  -4.27177e+67  -2.24935e+66
  -3.79532e+59    1.6905e+63   4.18216e+61   1.63913e+68   5.3464e+135  4.19876e+202     1.467e+68   1.88241e+67   4.33606e+67   1.01728e+68  -1.03097e+67   4.10559e+67  -1.96649e+66
   7.00541e+59   1.69064e+63  -6.84313e+61  -2.12606e+68  7.71072e+135 -5.36774e+202   1.93625e+68  -1.39209e+67  -4.35283e+67  -1.55157e+68  -1.04232e+67   4.12331e+67   2.17122e+65
   1.40106e+60    1.6894e+63  -6.84142e+61  -2.12701e+68  7.63196e+135 -5.24269e+202   1.93933e+68  -1.39429e+67  -4.37245e+67  -1.55034e+68   1.03338e+67   4.25583e+67   3.13083e+65
  -7.58384e+59   1.68926e+63   4.17685e+61    1.6408e+68  5.23686e+135  3.57927e+202   1.47259e+68   1.88626e+67    4.3225e+67   1.01992e+68   1.04474e+67   4.23805e+67  -2.38124e+66
  -2.94636e+60   1.80285e+63   1.58045e+62    3.7229e+68  1.53018e+136  8.23933e+202   3.51138e+68   1.11624e+67   4.16792e+67   3.19449e+68  -1.02292e+67  -4.29887e+67  -9.53328e+66
  -7.96393e+59    1.8017e+63   4.34381e+61   5.74315e+65 -5.22695e+135  8.28416e+202      7.23e+67  -1.95498e+67  -4.41014e+67   6.42256e+67  -1.04871e+67  -4.33895e+67  -2.90897e+66
  -1.18025e+60   1.79968e+63   4.33661e+61    2.6903e+66 -4.94675e+135  8.03779e+202   7.03846e+67  -1.90615e+67  -4.40007e+67   6.57525e+67   1.01655e+67    -3.906e+67  -3.15433e+66
  -4.40415e+60   1.80084e+63   1.57748e+62   3.73476e+68  1.57598e+136  1.04387e+203   3.51745e+68    1.1436e+67   4.15651e+67   3.20475e+68   1.04234e+67  -3.85507e+67  -1.03059e+67
  -2.91187e+60   1.69039e+63    1.5196e+62   3.81283e+68  1.79388e+136  1.61673e+203   3.56985e+68   1.52532e+67    4.4539e+67   3.21491e+68   -1.0301e+67   4.19204e+67  -9.99036e+66
  -7.58384e+59   1.68926e+63   4.17685e+61   5.05719e+66 -5.01294e+135  7.66685e+202   7.09825e+67  -1.78753e+67  -4.22825e+67   6.52149e+67  -1.04174e+67   4.15243e+67  -3.57569e+66
  -1.13801e+60   1.68719e+63   4.16678e+61   7.77682e+66 -5.44478e+135  7.45759e+202   7.41975e+67  -1.72476e+67  -4.18341e+67   6.68586e+67   1.01668e+67   4.58069e+67  -3.81572e+66
  -4.36187e+60   1.68833e+63   1.51636e+62   3.83093e+68  1.78392e+136  1.43268e+203   3.59056e+68   1.56707e+67   4.47772e+67   3.22645e+68   1.02832e+67   4.63091e+67  -1.07462e+67
  -7.96393e+59    1.8017e+63   4.34381e+61   1.62937e+68  5.00597e+135   3.1481e+202   1.46773e+68   1.79184e+67   4.33244e+67   1.01694e+68  -1.02763e+67  -4.34083e+67  -2.90897e+66
   1.36454e+60   1.80185e+63  -7.11696e+61  -2.09461e+68   7.0833e+135 -3.83815e+202   1.91809e+68  -1.27981e+67  -4.26136e+67   -1.5405e+68  -1.06581e+67  -4.32394e+67    3.8705e+66
    2.0576e+60   1.79981e+63  -7.10142e+61   -2.0695e+68  7.21891e+135 -4.77365e+202   1.88704e+68  -1.22185e+67  -4.26079e+67  -1.52123e+68   1.00519e+67  -3.90345e+67   4.16274e+66
  -1.18025e+60   1.79968e+63   4.33661e+61   1.64447e+68  5.47031e+135  4.42377e+202   1.46876e+68    1.8267e+67   4.30991e+67   1.03081e+68   1.04337e+67  -3.90364e+67  -3.15433e+66
  -7.58384e+59   1.68926e+63   4.17685e+61    1.6369e+68   5.2506e+135    4.143e+202   1.46778e+68   1.87323e+67   4.31351e+67   1.01822e+68  -1.03029e+67   4.16889e+67  -3.57569e+66
   1.40106e+60    1.6894e+63  -6.84142e+61   -2.1331e+68  7.80102e+135 -5.81512e+202   1.94165e+68  -1.44486e+67  -4.38648e+67  -1.54996e+68  -1.04669e+67    4.1865e+67   2.97948e+66
   2.09433e+60   1.68732e+63  -6.82904e+61  -2.09849e+68  7.06921e+135 -4.21789e+202   1.92269e+68    -1.365e+67   -4.3319e+67   -1.5288e+68   1.01656e+67   4.60167e+67   3.26537e+66
  -1.13801e+60   1.68719e+63   4.16678e+61   1.66171e+68  5.09129e+135  3.06006e+202   1.50071e+68   1.93048e+67   4.34548e+67   1.03411e+68   1.03297e+67   4.60039e+67  -3.81572e+66
  -9.14231e+50   1.92134e+63   1.64447e+62   3.71697e+68  1.28874e+136  1.13408e+202   3.53936e+68   4.15963e+66   4.11668e+67    3.2637e+68  -1.03746e+67  -4.43594e+67  -1.26761e+66
  -6.34809e+50   1.92018e+63   4.52572e+61  -7.74517e+66 -5.68108e+135  1.28798e+203   7.57698e+67  -2.71048e+67  -4.63967e+67   6.57564e+67  -1.03039e+67  -4.46965e+67  -1.23122e+66
  -4.83052e+59   1.91979e+63   4.52102e+61  -1.13185e+67 -5.57407e+135  1.35821e+203   7.55128e+67  -2.79294e+67  -4.71171e+67    6.3728e+67   1.03406e+67  -4.46294e+67  -2.95841e+66
  -1.55657e+60   1.92095e+63   1.64399e+62   3.70207e+68  1.26328e+136  1.16233e+202   3.52733e+68    3.8158e+66   4.09272e+67   3.25464e+68   1.02699e+67  -4.43673e+67  -3.41338e+66
  -8.97659e+50   1.80446e+63   1.58192e+62   3.92484e+68  1.91052e+136  1.66016e+203    3.6734e+68   1.46788e+67    4.6638e+67   3.31167e+68  -1.03302e+67   4.21658e+67  -8.92464e+65
  -6.20799e+50   1.80332e+63   4.35011e+61   9.41451e+66 -5.28692e+135  7.93114e+202   7.33182e+67   -1.8539e+67  -4.17627e+67   6.97163e+67  -1.03594e+67   4.18287e+67  -4.28709e+65
  -4.04209e+59   1.80291e+63   4.34843e+61   5.44859e+66 -5.26695e+135  8.19938e+202    7.2778e+67  -1.94543e+67  -4.27212e+67   6.76241e+67   1.03357e+67    4.2216e+67  -2.11751e+66
  -1.48036e+60   1.80406e+63   1.58157e+62   3.90555e+68  1.86728e+136   1.5268e+203    3.6587e+68   1.42337e+67   4.61496e+67   3.30172e+68    1.0365e+67   4.24798e+67  -2.99055e+66
  -6.34809e+50   1.92018e+63   4.52572e+61   1.57662e+68  3.93361e+135  1.45316e+202    1.4465e+68   1.10661e+67   4.26687e+67   1.03927e+68  -1.03039e+67  -4.48931e+67  -1.23122e+66
  -3.56055e+50   1.92035e+63  -7.39432e+61  -2.23713e+68  9.25263e+135 -9.15292e+202   2.01978e+68  -2.07274e+67   -4.5341e+67  -1.57645e+68  -1.00434e+67  -4.47314e+67  -8.72148e+65
   5.88871e+59   1.91996e+63  -7.39765e+61  -2.26297e+68  9.56281e+135 -9.30507e+202   2.04077e+68  -2.13236e+67  -4.55534e+67   -1.5942e+68   1.05705e+67  -4.41957e+67  -2.25671e+66
  -4.83052e+59   1.91979e+63   4.52102e+61   1.54997e+68  3.74077e+135  1.60043e+202    1.4242e+68   1.04512e+67   4.24376e+67   1.02109e+68     1.031e+67  -4.45882e+67  -2.95841e+66
  -6.20799e+50   1.80332e+63   4.35011e+61    1.7158e+68  5.90228e+135  4.79023e+202   1.53419e+68   1.88837e+67    4.5557e+67   1.07139e+68  -1.03594e+67   4.18882e+67  -4.28709e+65
   -3.4562e+50   1.80347e+63  -7.11867e+61  -2.12765e+68  7.69145e+135 -5.45567e+202   1.93849e+68  -1.45087e+67   -4.3138e+67  -1.55119e+68  -1.04064e+67   4.20499e+67  -8.62594e+64
   6.74257e+59   1.80307e+63  -7.11901e+61  -2.16735e+68  8.11942e+135 -6.34144e+202   1.97116e+68  -1.54248e+67  -4.41229e+67  -1.57187e+68   1.03333e+67    4.2573e+67  -1.44005e+66
  -4.04209e+59   1.80291e+63   4.34843e+61   1.67531e+68  5.47239e+135  3.86772e+202   1.50313e+68   1.79493e+67   4.45538e+67   1.05028e+68   1.03804e+67   4.21857e+67  -2.11751e+66
  -1.55657e+60   1.92095e+63   1.64399e+62   3.77367e+68  1.46508e+136  5.05866e+202   3.57428e+68   7.76274e+66   4.25795e+67   3.27024e+68  -1.03042e+67  -4.47102e+67  -6.14251e+66
  -4.83052e+59   1.91979e+63   4.52102e+61  -2.18436e+66 -5.58042e+135  1.04941e+203   7.47342e+67  -2.29853e+67  -4.50092e+67   6.58101e+67  -1.02006e+67  -4.49717e+67  -3.70621e+66
  -9.11866e+59   1.91861e+63   4.51337e+61  -5.69782e+66 -5.35105e+135  1.11866e+203   7.33725e+67  -2.37961e+67  -4.56665e+67   6.37648e+67   1.06435e+67  -4.32902e+67  -4.59797e+66
  -3.06927e+60   1.91977e+63   1.64246e+62    3.7229e+68  1.38424e+136  4.50206e+202   3.53211e+68    6.5913e+66   4.15615e+67   3.24138e+68   1.05399e+67  -4.32348e+67  -7.70154e+66
  -1.48036e+60   1.80406e+63   1.58157e+62   3.92713e+68  1.93497e+136  1.79394e+203   3.67252e+68   1.54617e+67   4.66476e+67   3.30604e+68  -1.02512e+67   4.21362e+67  -4.96429e+66
  -4.04209e+59   1.80291e+63   4.34843e+61   7.34464e+66 -5.22083e+135  8.06844e+202   7.26276e+67  -1.84083e+67  -4.22837e+67   6.80366e+67  -1.04224e+67   4.18701e+67  -2.86339e+66
  -7.96393e+59    1.8017e+63   4.34381e+61   2.59165e+66 -5.29624e+135  8.30053e+202   7.28214e+67  -1.95051e+67  -4.36359e+67   6.57327e+67    1.0228e+67   4.33402e+67  -3.73533e+66
  -2.94636e+60   1.80285e+63   1.58045e+62   3.86432e+68  1.79019e+136  1.36664e+203    3.6253e+68   1.40122e+67   4.49427e+67   3.27477e+68   1.03993e+67   4.34048e+67  -6.48867e+66
  -4.83052e+59   1.91979e+63   4.52102e+61   1.64131e+68   4.7939e+135  2.54479e+202   1.48813e+68   1.53953e+67   4.45455e+67   1.04191e+68  -1.02312e+67  -4.49305e+67  -3.70621e+66
   5.88871e+59   1.91996e+63  -7.39765e+61  -2.16657e+68  7.94948e+135 -6.27457e+202   1.97461e+68  -1.61343e+67  -4.33288e+67  -1.57194e+68  -1.03832e+67   -4.4545e+67  -2.18741e+66
   1.23442e+60   1.91878e+63  -7.40083e+61  -2.24008e+68  8.95164e+135 -7.62648e+202   2.03047e+68  -1.78307e+67  -4.52482e+67  -1.60929e+68   1.02777e+67  -4.35099e+67  -2.76533e+66
  -9.11866e+59   1.91861e+63   4.51337e+61   1.59394e+68  4.42444e+135  2.76711e+202   1.44852e+68   1.43021e+67   4.32292e+67   1.01863e+68   1.04297e+67  -4.38659e+67  -4.59797e+66
  -4.04209e+59   1.80291e+63   4.34843e+61   1.69427e+68  5.73492e+135  4.76211e+202    1.5156e+68   1.89953e+67   4.49913e+67    1.0544e+68  -1.03778e+67   4.18397e+67  -2.86339e+66
   6.74257e+59   1.80307e+63  -7.11901e+61  -2.14024e+68    7.713e+135 -5.23136e+202   1.95175e+68  -1.39855e+67  -4.34973e+67  -1.56541e+68  -1.04905e+67   4.22259e+67  -8.15427e+65
   1.36454e+60   1.80185e+63  -7.11696e+61  -2.21052e+68  8.44332e+135 -6.75095e+202   2.01049e+68  -1.56075e+67  -4.52884e+67  -1.60156e+68   1.03261e+67   4.36788e+67   -1.3805e+66
  -7.96393e+59    1.8017e+63   4.34381e+61   1.64954e+68   5.1599e+135  3.22309e+202   1.48492e+68   1.79631e+67   4.37899e+67   1.03201e+68   1.04388e+67   4.33215e+67  -3.73533e+66
  -3.06927e+60   1.91977e+63   1.64246e+62   3.83158e+68  1.69283e+136  1.10623e+203   3.60391e+68   1.26337e+67   4.40693e+67   3.26455e+68  -1.00034e+67  -4.39196e+67   -1.0506e+67
  -9.11866e+59   1.91861e+63   4.51337e+61    8.8392e+65 -5.37463e+135  8.80709e+202   7.33172e+67  -2.03244e+67  -4.41477e+67    6.5356e+67  -1.05143e+67  -4.39954e+67  -3.48155e+66
  -1.30333e+60   1.91663e+63   4.50988e+61   2.98789e+66 -5.12885e+135  8.77914e+202   7.16783e+67  -1.98388e+67   -4.4413e+67   6.72397e+67   9.74753e+66  -3.97521e+67  -3.79908e+66
  -4.51436e+60    1.9178e+63   1.63983e+62   3.84353e+68  1.73045e+136  1.33531e+203   3.61141e+68   1.29096e+67   4.35944e+67   3.27849e+68   1.02585e+67  -3.94861e+67  -1.08933e+67
  -2.94636e+60   1.80285e+63   1.58045e+62   3.86735e+68  1.80686e+136  1.56918e+203   3.62623e+68   1.44923e+67   4.50127e+67   3.27231e+68   -1.0229e+67   4.27172e+67  -1.12346e+67
  -7.96393e+59    1.8017e+63   4.34381e+61   3.81639e+66 -5.23358e+135  8.54901e+202   7.24441e+67  -1.88009e+67  -4.33533e+67   6.59705e+67  -1.04864e+67   4.26497e+67  -4.39957e+66
  -1.18025e+60   1.79968e+63   4.33661e+61   6.99985e+66 -5.70135e+135  8.19844e+202   7.58311e+67  -1.80662e+67  -4.30062e+67   6.80723e+67   1.01661e+67   4.68555e+67  -4.71004e+66
  -4.40415e+60   1.80084e+63   1.57748e+62   3.89031e+68  1.80049e+136  1.36503e+203   3.65157e+68    1.5022e+67   4.51548e+67   3.28854e+68   1.04236e+67   4.71088e+67  -1.16133e+67
  -9.11866e+59   1.91861e+63   4.51337e+61   1.65976e+68  5.14969e+135  3.11935e+202   1.49661e+68   1.77738e+67   4.47481e+67   1.03454e+68  -1.07282e+67  -4.45712e+67  -3.48155e+66
   1.23442e+60   1.91878e+63  -7.40083e+61  -2.13517e+68  7.21575e+135 -3.93714e+202   1.95893e+68  -1.25351e+67  -4.28273e+67  -1.58155e+68  -1.07546e+67   -4.4211e+67   2.58099e+66
   1.93498e+60    1.9168e+63  -7.38377e+61  -2.11253e+68  7.31301e+135 -4.61008e+202   1.93171e+68  -1.20127e+67  -4.23416e+67  -1.56899e+68    1.0246e+67  -4.01199e+67   3.03123e+66
  -1.30333e+60   1.91663e+63   4.50988e+61   1.70401e+68  5.91089e+135  5.11431e+202   1.52071e+68   1.87949e+67   4.57324e+67   1.05873e+68   1.02724e+67  -4.07482e+67  -3.79908e+66
  -7.96393e+59    1.8017e+63   4.34381e+61   1.66179e+68  5.37011e+135  4.32543e+202   1.49148e+68   1.86673e+67   4.40726e+67   1.03439e+68  -1.02757e+67    4.2631e+67  -4.39957e+66
   1.36454e+60   1.80185e+63  -7.11696e+61  -2.19873e+68  8.33335e+135 -6.47418e+202   2.00027e+68  -1.52023e+67  -4.50162e+67  -1.59654e+68  -1.06596e+67   4.29793e+67   2.07211e+66
    2.0576e+60   1.79981e+63  -7.10142e+61  -2.19408e+68  7.94553e+135 -5.62746e+202   2.00485e+68   -1.5095e+67  -4.54827e+67   -1.5883e+68   1.00504e+67   4.74896e+67   2.51234e+66
  -1.18025e+60   1.79968e+63   4.33661e+61   1.68757e+68  5.19839e+135  3.01281e+202   1.52579e+68   1.92622e+67   4.40936e+67   1.05401e+68   1.04343e+67   4.68791e+67  -4.71004e+66
  -9.33428e+50   2.04277e+63    1.7111e+62   3.67988e+68  6.31827e+135 -1.63041e+203     3.593e+68  -1.15128e+67   3.83447e+67   3.41156e+68  -9.57245e+66  -4.75719e+67  -6.27909e+66
   -6.4827e+50   2.04156e+63   4.72069e+61  -1.84711e+67 -6.80045e+135  2.20979e+203   8.45082e+67  -3.83593e+67   -5.0838e+67   7.07262e+67  -8.78911e+66   -4.8555e+67  -2.67078e+66
   -6.3597e+59   2.04123e+63   4.71072e+61  -2.16826e+67 -6.33479e+135  2.08968e+203    8.2492e+67  -3.91004e+67  -5.04524e+67   6.78702e+67   1.35565e+67  -4.48441e+67  -5.89566e+66
  -1.79794e+60   2.04241e+63   1.70875e+62   3.47677e+68  3.28194e+135 -1.98709e+203   3.42925e+68  -1.61997e+67   3.47845e+67   3.29093e+68   1.27731e+67  -4.43854e+67  -1.17245e+67
  -9.14231e+50   1.92134e+63   1.64447e+62   4.22643e+68  2.32472e+136  2.32017e+203   3.94183e+68   1.59511e+67   5.29237e+67   3.53768e+68  -1.03779e+67   4.30514e+67  -1.24998e+66
  -6.34809e+50   1.92018e+63   4.52572e+61   1.65029e+67  -5.9092e+135  9.98908e+202   7.86228e+67  -2.14932e+67   -4.0801e+67   7.87972e+67  -1.03095e+67   4.20683e+67   -1.2288e+66
  -4.83052e+59   1.91979e+63   4.52102e+61   1.01246e+67 -5.92427e+135  1.04567e+203   7.76323e+67  -2.29651e+67  -4.21687e+67   7.52584e+67   1.03351e+67   4.31834e+67  -4.38038e+66
  -1.55657e+60   1.92095e+63   1.64399e+62   3.99555e+68  1.83541e+136  1.08746e+203   3.75886e+68    1.0623e+67   4.76999e+67   3.41232e+68   1.02667e+67   4.36541e+67  -6.57159e+66
   -6.4827e+50   2.04156e+63   4.72069e+61   1.56586e+68  2.89942e+135 -5.63402e+201   1.47036e+68   2.03842e+66   4.34232e+67   1.11124e+68  -8.78911e+66  -4.64391e+67  -2.67078e+66
  -3.63611e+50   2.04175e+63  -7.65856e+61    -2.358e+68   1.1762e+136 -1.58272e+203   2.09379e+68  -3.26247e+67  -4.71274e+67  -1.56048e+68  -9.93001e+66  -4.59376e+67  -3.43794e+66
   4.05374e+59   2.04138e+63  -7.67141e+61  -2.53403e+68  1.43074e+136 -2.13142e+203   2.23396e+68  -3.66869e+67  -5.28326e+67  -1.63883e+68   1.00958e+67  -4.64081e+67  -6.78512e+66
   -6.3597e+59   2.04123e+63   4.71072e+61   1.44372e+68  1.75838e+135 -1.02695e+202   1.38148e+68  -7.80098e+65   3.89616e+67    1.0619e+68   1.12368e+67  -4.58771e+67  -5.89566e+66
  -6.34809e+50   1.92018e+63   4.52572e+61    1.8191e+68  6.54006e+135  5.34682e+202   1.62946e+68   1.66777e+67   4.82644e+67   1.16968e+68  -1.03095e+67   4.18717e+67   -1.2288e+66
  -3.56055e+50   1.92035e+63  -7.39432e+61  -2.09392e+68  7.74733e+135 -6.25557e+202   1.89993e+68  -1.74017e+67   -4.2036e+67  -1.49954e+68  -1.00424e+67   4.23731e+67   -8.6538e+65
   5.88871e+59   1.91996e+63  -7.39765e+61  -2.20128e+68  8.91667e+135 -8.62171e+202   1.98846e+68  -1.98793e+67  -4.41297e+67  -1.56119e+68   1.05715e+67   4.27171e+67  -4.13649e+66
  -4.83052e+59   1.91979e+63   4.52102e+61    1.7644e+68  5.87344e+135  3.73313e+202   1.58927e+68   1.54155e+67    4.7386e+67   1.13639e+68   1.03044e+67   4.32246e+67  -4.38038e+66
  -1.79794e+60   2.04241e+63   1.70875e+62   3.88445e+68   1.4882e+136  2.44615e+202   3.68792e+68    5.8693e+66   4.41924e+67   3.38383e+68  -9.24167e+66  -4.47523e+67  -1.51395e+67
   -6.3597e+59   2.04123e+63   4.71072e+61  -5.18693e+66 -6.29693e+135   1.5517e+203   7.95225e+67  -3.00645e+67  -4.66457e+67   7.15233e+67  -7.76686e+66  -4.51995e+67  -1.04604e+67
  -1.17433e+60   2.04011e+63   4.68352e+61  -2.35237e+67 -5.41393e+135  1.75149e+203   7.72483e+67   -3.4296e+67  -4.87557e+67   5.95281e+67   1.19045e+67  -4.28531e+67  -1.28076e+67
  -3.35921e+60   2.04124e+63   1.70509e+62   3.67686e+68  1.16193e+136 -1.93237e+202   3.51531e+68   1.07888e+66   4.15235e+67   3.25084e+68   1.04297e+67  -4.34145e+67  -1.67716e+67
  -1.55657e+60   1.92095e+63   1.64399e+62   4.06606e+68   2.0529e+136  1.85789e+203   3.80525e+68   1.45114e+67   4.93271e+67   3.42768e+68  -1.03017e+67   4.33113e+67  -9.30098e+66
  -4.83052e+59   1.91979e+63   4.52102e+61   1.92583e+67  -5.7358e+135  8.63817e+202   7.81453e+67  -1.80218e+67  -4.00609e+67   7.73409e+67  -1.02023e+67   4.28411e+67  -5.11368e+66
  -9.11866e+59   1.91861e+63   4.51337e+61   -4.9013e+66 -5.53934e+135  1.04493e+203    7.4588e+67  -2.35971e+67  -4.54827e+67   6.41785e+67   1.06417e+67   4.48447e+67  -7.40756e+66
  -3.06927e+60   1.91977e+63   1.64246e+62    3.8008e+68  1.51596e+136  5.11306e+202   3.59584e+68   8.38992e+66    4.3359e+67   3.28331e+68   1.05423e+67   4.43292e+67  -1.08959e+67
   -6.3597e+59   2.04123e+63   4.71072e+61   1.60868e+68  3.60914e+135 -4.47311e+201   1.49229e+68   8.25578e+66   4.27682e+67   1.09844e+68  -1.00866e+67  -4.62325e+67  -1.04604e+67
   4.05374e+59   2.04138e+63  -7.67141e+61  -2.23454e+68  9.02422e+135 -9.63566e+202   2.02256e+68  -2.04478e+67  -4.59214e+67  -1.57085e+68  -7.57128e+66  -4.67026e+67  -1.00957e+67
    9.8502e+59   2.04035e+63  -7.69694e+61  -2.40367e+68  1.08636e+136 -9.19595e+202   2.16593e+68  -2.43507e+67  -4.62042e+67  -1.69812e+68   1.39288e+67   -4.3878e+67  -1.11039e+67
  -1.17433e+60   2.04011e+63   4.68352e+61   1.47401e+68  2.66307e+135  4.72706e+201   1.38073e+68   5.14816e+66   4.32807e+67   9.89723e+67   1.14135e+67  -4.53714e+67  -1.28076e+67
  -4.83052e+59   1.91979e+63   4.52102e+61   1.85574e+68  7.12133e+135  7.02434e+202   1.65277e+68   2.03588e+67   4.94938e+67   1.15722e+68   -1.0233e+67   4.28823e+67  -5.11368e+66
   5.88871e+59   1.91996e+63  -7.39765e+61  -2.10539e+68   7.4137e+135 -4.76347e+202   1.92127e+68  -1.47178e+67  -4.19169e+67  -1.53904e+68  -1.03952e+67   4.23676e+67  -4.05645e+66
   1.23442e+60   1.91878e+63  -7.40083e+61   -2.3929e+68  1.06876e+136 -1.17297e+203   2.15806e+68  -2.13527e+67  -4.87749e+67  -1.69162e+68   1.02657e+67   4.56731e+67  -5.04166e+66
  -9.11866e+59   1.91861e+63   4.51337e+61   1.60191e+68  4.42945e+135  1.56256e+202   1.45711e+68   1.45011e+67    4.3413e+67   1.02277e+68   1.04279e+67    4.4269e+67  -7.40756e+66
  -3.35921e+60   2.04124e+63   1.70509e+62   3.76987e+68  1.42201e+136  9.33304e+201    3.5763e+68   5.88911e+66   4.36698e+67   3.27428e+68  -1.12531e+67  -4.41373e+67  -1.37607e+67
  -1.17433e+60   2.04011e+63   4.68352e+61   7.30141e+66 -5.29645e+135  7.46425e+202   7.31421e+67  -1.79696e+67  -4.16423e+67   6.69132e+67  -9.22346e+66  -4.35574e+67  -8.57964e+66
   -1.5405e+60    2.0382e+63   4.67154e+61   5.84765e+66  -4.7751e+135  7.59065e+202   6.93491e+67   -1.8305e+67  -3.90545e+67   6.32072e+67    1.2806e+67  -4.04016e+67  -8.25683e+66
  -4.87091e+60   2.03925e+63   1.70254e+62   3.86694e+68  1.69798e+136  8.01286e+202   3.64078e+68   8.12924e+66   4.88331e+67   3.29732e+68   1.07764e+67  -4.28523e+67  -1.57176e+67
  -3.06927e+60   1.91977e+63   1.64246e+62   3.90993e+68  1.84208e+136  1.62081e+203    3.6668e+68   1.44581e+67   4.58775e+67   3.30657e+68  -9.99631e+66   4.36446e+67  -1.37151e+67
  -9.11866e+59   1.91861e+63   4.51337e+61   1.60862e+66  -5.4294e+135  9.79101e+202    7.3702e+67  -2.01637e+67  -4.39804e+67   6.57527e+67  -1.05179e+67   4.41394e+67   -6.2962e+66
  -1.30333e+60   1.91663e+63   4.50988e+61  -1.15369e+67 -5.64652e+135  1.12025e+203   7.60238e+67  -2.31972e+67  -4.77648e+67   5.94252e+67   9.74398e+66     4.906e+67  -5.98073e+66
  -4.51436e+60    1.9178e+63   1.63983e+62   3.88755e+68   1.7422e+136  1.14225e+203   3.65661e+68   1.39416e+67   4.46101e+67   3.30203e+68   1.02656e+67   4.67368e+67  -1.56275e+67
  -1.17433e+60   2.04011e+63   4.68352e+61   1.78226e+68  6.43504e+135  4.80831e+202   1.59153e+68   2.14746e+67   5.03942e+67   1.06357e+68   -9.7144e+66  -4.60756e+67  -8.57964e+66
    9.8502e+59   2.04035e+63  -7.69694e+61  -2.17212e+68  7.17721e+135 -4.67336e+202   2.00009e+68  -1.25019e+67  -4.08607e+67  -1.63849e+68  -9.01012e+66  -4.46426e+67  -1.70202e+66
   1.68614e+60   2.03847e+63  -7.68777e+61  -2.23514e+68  8.18085e+135 -5.15947e+202   2.04396e+68  -1.39563e+67  -4.13015e+67  -1.68256e+68   1.15146e+67  -3.94783e+67  -1.37771e+66
   -1.5405e+60    2.0382e+63   4.67154e+61   1.70566e+68  6.09448e+135  5.73482e+202   1.51652e+68   1.97069e+67     4.964e+67   1.01219e+68   1.08103e+67  -4.14482e+67  -8.25683e+66
  -9.11866e+59   1.91861e+63   4.51337e+61   1.66701e+68  5.27995e+135  4.17657e+202   1.50031e+68   1.79345e+67   4.49153e+67   1.03851e+68  -1.07317e+67   4.35636e+67   -6.2962e+66
   1.23442e+60   1.91878e+63  -7.40083e+61  -2.28812e+68  8.99253e+135 -7.24357e+202   2.08237e+68  -1.60635e+67  -4.63569e+67  -1.66392e+68  -1.07595e+67   4.49723e+67   2.96439e+65
   1.93498e+60    1.9168e+63  -7.38377e+61   -2.3831e+68  9.74307e+135 -8.78197e+202   2.16907e+68  -1.82552e+67  -4.85854e+67  -1.71469e+68    1.0241e+67   4.99972e+67   6.13378e+65
  -1.30333e+60   1.91663e+63   4.50988e+61   1.55876e+68  3.87233e+135  1.07306e+202   1.42916e+68   1.54365e+67   4.23805e+67   9.80589e+67   1.02688e+67   4.80639e+67  -5.98073e+66
  -9.48726e+50   2.16898e+63   1.78303e+62   3.68642e+68 -4.16044e+134 -3.11932e+203   3.69206e+68  -2.38717e+67   3.07786e+67   3.61735e+68  -1.51881e+67  -4.37872e+67  -5.63792e+66
  -6.60506e+50   2.16757e+63   4.98122e+61  -2.40774e+67  -1.0304e+136  4.51109e+203   1.04325e+68  -5.88758e+67   -5.9849e+67   9.46474e+67  -1.14406e+67  -4.76458e+67  -1.37712e+67
  -9.71805e+59   2.16716e+63   4.93094e+61  -5.88571e+67 -8.51018e+135  5.40991e+203   1.09427e+68  -6.69018e+67  -6.26121e+67   7.06568e+67   8.01827e+66  -5.52838e+67  -2.06739e+67
  -1.98367e+60   2.16843e+63   1.78098e+62   3.88837e+68  4.12368e+135 -2.38379e+203   3.83498e+68  -1.92114e+67   4.07019e+67   3.67346e+68   4.27076e+66  -5.35558e+67  -1.01174e+67
  -9.33428e+50   2.04277e+63    1.7111e+62   4.34351e+68  1.97512e+136  3.80761e+202   4.10986e+68   3.79281e+66   5.36594e+67   3.76899e+68  -9.54746e+66    4.4443e+67  -6.30115e+66
   -6.4827e+50   2.04156e+63   4.72069e+61   6.36093e+67 -7.00337e+135  9.61746e+202   1.05117e+68  -1.93771e+67  -3.18964e+67   1.14883e+68  -8.77288e+66   4.05844e+67   -2.6332e+66
   -6.3597e+59   2.04123e+63   4.71072e+61   1.65933e+67 -7.07492e+135  1.39702e+203   8.57336e+67  -3.02269e+67  -4.16195e+67   8.84397e+67   1.35727e+67   4.13129e+67  -9.37536e+66
  -1.79794e+60   2.04241e+63   1.70875e+62   4.41031e+68  2.15585e+136  2.37496e+202   4.15872e+68   5.33428e+66   5.63276e+67   3.79369e+68   1.27981e+67   4.30905e+67  -1.06765e+67
  -6.60506e+50   2.16757e+63   4.98122e+61   1.47613e+68  -2.4099e+135 -6.33652e+202   1.55562e+68  -1.92548e+67   3.25999e+67   1.34268e+68  -1.14406e+67  -5.70393e+67  -1.37712e+67
  -3.72178e+50   2.16753e+63  -7.91668e+61  -2.53179e+68  1.33365e+136 -1.96133e+203   2.25307e+68   -3.5587e+67  -5.98907e+67  -1.57701e+68   8.23905e+65  -6.14157e+67  -8.89847e+66
   4.15748e+59   2.16757e+63  -7.94915e+61  -2.22622e+68  7.82533e+135  5.71085e+202   2.04292e+68  -2.85353e+67   -3.5594e+67  -1.58493e+68   2.75076e+67  -5.02524e+67  -8.50866e+66
  -9.71805e+59   2.16716e+63   4.93094e+61   1.51775e+68 -7.94786e+134 -6.88802e+202   1.54371e+68  -1.82944e+67   5.08054e+67   1.19264e+68   1.52431e+67  -5.55245e+67  -2.06739e+67
   -6.4827e+50   2.04156e+63   4.72069e+61   2.38666e+68  1.23519e+136  1.54827e+203    2.1121e+68   2.10206e+67   6.23648e+67    1.5528e+68  -8.77288e+66   4.27003e+67   -2.6332e+66
  -3.63611e+50   2.04175e+63  -7.65856e+61  -2.28268e+68  1.14201e+136 -1.49615e+203   2.01708e+68  -3.09261e+67  -4.53891e+67  -1.51953e+68  -9.97142e+66   3.83238e+67  -3.42671e+66
   4.05374e+59   2.04138e+63  -7.67141e+61  -2.58504e+68  1.51942e+136 -2.48599e+203   2.27223e+68  -3.79038e+67  -5.40099e+67  -1.66591e+68   1.00544e+67   4.53276e+67  -3.04596e+66
   -6.3597e+59   2.04123e+63   4.71072e+61   1.82648e+68  5.63415e+135  7.15001e+201   1.66511e+68   8.09336e+66   4.77944e+67    1.2676e+68    1.1253e+67   4.02799e+67  -9.37536e+66
  -1.98367e+60   2.16843e+63   1.78098e+62   3.39946e+68 -1.11402e+136 -4.53457e+203   3.55954e+68  -4.46122e+67   2.94194e+67   3.55139e+68  -9.78343e+66    -5.379e+67  -3.79882e+67
  -9.71805e+59   2.16716e+63   4.93094e+61   2.59598e+67 -8.98892e+135  1.92078e+203   9.82997e+67  -2.08181e+67  -4.30389e+67   8.98168e+67   3.45777e+65  -5.54116e+67  -3.28466e+67
  -1.45957e+60   2.16646e+63   4.83542e+61  -1.60181e+67 -6.47434e+135  1.88073e+203   8.20422e+67  -3.05053e+67   -3.8497e+67   5.29842e+67   3.40918e+67  -4.24287e+67  -3.20971e+67
  -4.22623e+60   2.16737e+63   1.76879e+62   2.75971e+68 -1.65612e+136  -5.3124e+203   3.04502e+68  -5.93755e+67   2.88852e+67   3.06462e+68   2.39626e+67  -4.70297e+67  -5.21155e+67
  -1.79794e+60   2.04241e+63   1.70875e+62   4.82278e+68  3.60666e+136  6.22436e+203   4.43312e+68   2.76587e+67   6.58463e+67   3.88773e+68  -9.25329e+66   4.27229e+67   -1.3999e+67
   -6.3597e+59   2.04123e+63   4.71072e+61   3.28517e+67 -6.57247e+135  1.20704e+203    8.7474e+67  -2.13193e+67  -3.78676e+67   9.20386e+67   -7.8068e+66   4.09566e+67  -1.39254e+67
  -1.17433e+60   2.04011e+63   4.68352e+61  -4.64241e+67 -5.14681e+135   1.8905e+203   8.54518e+67  -3.96137e+67  -5.40405e+67     4.723e+67   1.18645e+67   5.04919e+67  -1.31933e+67
  -3.35921e+60   2.04124e+63   1.70509e+62   3.81518e+68   1.3511e+136 -4.12824e+202    3.6338e+68   4.40626e+66   4.47153e+67   3.32396e+68   1.04181e+67   4.61803e+67  -2.77978e+67
  -9.71805e+59   2.16716e+63   4.93094e+61   2.36592e+68  1.13112e+136  1.28471e+203    2.1134e+68   2.77894e+67   7.03785e+67   1.38424e+68   7.57063e+66  -5.56524e+67  -3.28466e+67
   4.15748e+59   2.16757e+63  -7.94915e+61  -2.15384e+68  7.30725e+135 -5.81163e+202   1.97694e+68  -2.45498e+67  -3.39237e+67   -1.5691e+68   3.26807e+66  -5.06564e+67  -1.11318e+67
   8.73121e+59   2.16671e+63  -7.99122e+61  -2.57023e+68  1.41726e+136 -1.36107e+203    2.2779e+68  -3.41588e+67  -4.95943e+67   -1.7327e+68   2.14439e+67  -3.73812e+67  -1.32735e+67
  -1.45957e+60   2.16646e+63   4.83542e+61   1.28669e+68  6.70195e+134 -3.01679e+202   1.26038e+68    2.8841e+66   3.94115e+67   8.63736e+67   2.57464e+67  -3.74646e+67  -3.20971e+67
   -6.3597e+59   2.04123e+63   4.71072e+61   1.98906e+68  7.92174e+135  7.50371e+202   1.77882e+68    1.7001e+67   5.15464e+67   1.30359e+68  -1.01265e+67   3.99236e+67  -1.39254e+67
   4.05374e+59   2.04138e+63  -7.67141e+61  -2.28388e+68  9.85381e+135 -1.03017e+203   2.05688e+68  -2.15739e+67    -4.706e+67  -1.59754e+68  -7.57427e+66   4.50338e+67  -6.37244e+66
    9.8502e+59   2.04035e+63  -7.69694e+61  -2.38051e+68  1.02017e+136 -1.03184e+203   2.15561e+68  -2.38038e+67  -4.56698e+67  -1.68578e+68   1.39258e+67   4.82855e+67  -8.46439e+66
  -1.17433e+60   2.04011e+63   4.68352e+61   1.24501e+68  6.67255e+134 -3.23913e+202   1.21792e+68   -1.6948e+65    3.7996e+67   8.66742e+67   1.13736e+67   4.79736e+67  -1.31933e+67
  -4.22623e+60   2.16737e+63   1.76879e+62   4.82927e+68  4.45786e+136  1.06824e+204   4.34326e+68   5.21329e+67    7.6644e+67    3.5415e+68  -3.09615e+66  -4.79316e+67  -5.21188e+67
  -1.45957e+60   2.16646e+63   4.83542e+61   2.64889e+67 -4.43531e+135  4.67541e+202   7.16726e+67  -8.36977e+66  -2.86877e+67   6.35464e+67   2.10456e+66   -4.3495e+67  -2.05987e+67
  -1.72278e+60    2.1646e+63   4.78112e+61  -4.30994e+66 -2.84877e+135  4.83163e+202   5.35476e+67  -1.54772e+67  -2.84965e+67   3.96638e+67   1.77715e+67  -2.96423e+67  -1.87394e+67
  -5.30412e+60   2.16532e+63   1.75621e+62   3.77465e+68  2.35692e+136  3.21641e+203   3.44835e+68   2.77957e+67   5.96055e+67   2.90064e+68   1.25708e+67  -3.63533e+67  -4.42707e+67
  -3.35921e+60   2.04124e+63   1.70509e+62   3.90043e+68  1.61663e+136  7.35897e+202   3.68737e+68   8.79643e+66   4.66827e+67   3.34564e+68  -1.12482e+67   4.54581e+67  -2.47525e+67
  -1.17433e+60   2.04011e+63   4.68352e+61  -1.55499e+67 -5.38675e+135  1.24656e+203   7.50237e+67  -2.32596e+67  -4.69156e+67   5.46254e+67  -9.22102e+66    4.9789e+67  -8.98151e+66
   -1.5405e+60    2.0382e+63   4.67154e+61  -5.93008e+67 -3.62633e+135  1.31169e+203   8.45158e+67   -3.3356e+67  -5.40888e+67   2.81439e+67   1.28084e+67   5.24793e+67   -7.1655e+66
  -4.87091e+60   2.03925e+63   1.70254e+62   2.73366e+68 -1.70517e+135 -1.27079e+203   2.76467e+68   -1.8129e+67   2.26805e+67   2.68814e+68   1.07812e+67   4.59269e+67  -1.70869e+67
  -1.45957e+60   2.16646e+63   4.83542e+61   1.71176e+68  6.48017e+135  4.76639e+202   1.51067e+68   2.50196e+67   4.92208e+67   9.69358e+67  -6.24079e+66  -3.85308e+67  -2.05987e+67
   8.73121e+59   2.16671e+63  -7.99122e+61  -2.17658e+68  7.83807e+135 -6.71019e+202   1.98839e+68  -1.33193e+67  -4.05101e+67  -1.63828e+68  -2.03958e+66   -3.8164e+67  -7.72208e+66
   1.54482e+60   2.16501e+63  -8.01386e+61  -2.38905e+68  9.99407e+135 -5.85868e+202   2.16983e+68  -1.82226e+67  -3.95122e+67  -1.81171e+68   1.59394e+67  -2.94626e+67   -7.9803e+66
  -1.72278e+60    2.1646e+63   4.78112e+61   1.35836e+68  3.85314e+135  2.72048e+202   1.20823e+68   1.68641e+67   4.69665e+67   7.20051e+67   1.17382e+67  -3.23432e+67  -1.87394e+67
  -1.17433e+60   2.04011e+63   4.68352e+61   1.55375e+68  4.08772e+135  2.82646e+202   1.41611e+68   1.61846e+67   4.51208e+67   9.40696e+67  -9.71196e+66   4.72708e+67  -8.98151e+66
    9.8502e+59   2.04035e+63  -7.69694e+61  -2.14909e+68  6.64584e+135 -3.90132e+202   1.98847e+68  -1.19645e+67  -4.03294e+67  -1.62616e+68  -9.01844e+66   4.75207e+67   9.68242e+65
   1.68614e+60   2.03847e+63  -7.68777e+61  -2.51102e+68  1.03538e+136 -9.26332e+202   2.29561e+68  -2.03165e+67   -4.7668e+67  -1.83117e+68   1.15063e+67    5.4138e+67   7.16023e+65
   -1.5405e+60    2.0382e+63   4.67154e+61   1.05417e+68 -5.50726e+133 -1.91387e+202   1.05678e+68   4.65592e+66   3.46057e+67   6.61559e+67   1.08128e+67   5.14327e+67   -7.1655e+66
  -9.63811e+50   2.29852e+63   1.90239e+62   3.46669e+68 -1.42478e+137  1.17819e+204   5.12501e+68  -2.28789e+68   3.63777e+67    5.3908e+68   2.84516e+67   -1.5719e+68  -7.00845e+67
   -6.7152e+50   2.29738e+63   5.25321e+61   1.17234e+68 -2.79391e+136  2.66863e+203   2.04164e+68   2.13696e+66  -1.65689e+67   1.31665e+68   3.25572e+67  -1.51855e+68  -4.34018e+67
  -4.40626e+59   2.29855e+63   5.09856e+61   3.21014e+65 -3.15249e+136  1.88959e+203   1.77553e+68  -2.48429e+67  -3.79358e+67   6.30997e+67   1.29865e+68  -1.02596e+68  -3.33944e+67
  -5.50064e+60   2.29953e+63   1.87739e+62   7.04982e+67 -1.61754e+137   4.0297e+204   4.08319e+68   -2.9252e+68  -2.17411e+67    3.8476e+68    1.2576e+68  -1.08174e+68  -1.40292e+68
  -9.48726e+50   2.16898e+63   1.78303e+62   9.63917e+68  2.11002e+137  1.28836e+205   8.47428e+68   1.14246e+68    1.6815e+68   6.81522e+68  -1.53844e+67   2.00442e+67  -5.37852e+66
  -6.60506e+50   2.16757e+63   4.98122e+61  -1.03691e+67 -9.30663e+135  3.64824e+203   9.70265e+67  -5.59022e+67  -5.66856e+67   1.02219e+68  -1.16265e+67   2.53792e+67  -1.36975e+67
  -9.71805e+59   2.16716e+63   4.93094e+61  -1.25201e+68 -1.77152e+135  4.26236e+203   1.32086e+68  -8.24018e+67  -7.79221e+67   3.51233e+67   7.83236e+66   4.98453e+67  -3.92847e+66
  -1.98367e+60   2.16843e+63   1.78098e+62    6.9362e+68  8.47757e+136  2.31282e+204   6.29549e+68   5.18694e+67   1.11036e+68   5.30714e+68   4.07442e+66   4.42728e+67  -7.39143e+67
   -6.7152e+50   2.29738e+63   5.25321e+61   5.66218e+68  8.78558e+136  4.07376e+204   4.82439e+68   1.05749e+68   2.25192e+68   2.35277e+68   3.25572e+67  -1.04294e+68  -4.34018e+67
    -3.811e+50   2.29984e+63  -8.27014e+61   2.07895e+67 -1.91008e+136  -6.9386e+203    1.3976e+68   5.26153e+67    9.9324e+67   -1.3115e+68  -3.11818e+67  -5.62982e+67   1.60672e+67
   8.51373e+59   2.29873e+63  -8.21269e+61  -1.49551e+68 -5.46342e+134  6.46998e+202   1.51366e+68   1.33061e+67  -2.75194e+67  -1.35337e+68  -6.33563e+66  -3.80321e+67   2.48431e+67
  -4.40626e+59   2.29855e+63   5.09856e+61   1.46578e+68 -2.91762e+134 -2.14001e+203    1.4757e+68    8.9088e+66    4.0818e+67   9.68514e+67   5.74033e+67  -3.25758e+67  -3.33944e+67
  -6.60506e+50   2.16757e+63   4.98122e+61   1.61322e+68  1.60271e+135 -9.92203e+202   1.56275e+68  -1.62813e+67   3.57633e+67    1.4184e+68  -1.16265e+67   1.59857e+67  -1.36975e+67
  -3.72178e+50   2.16753e+63  -7.91668e+61  -3.72672e+68  3.48098e+136 -9.62877e+203   3.22606e+68  -6.32575e+67  -8.74661e+67  -2.21949e+68   9.94426e+65   6.39813e+67  -9.01974e+66
   4.15748e+59   2.16757e+63  -7.94915e+61  -2.05198e+68  6.31971e+135  4.80119e+202   1.89173e+68  -2.46095e+67   -3.1573e+67  -1.49015e+68   2.76781e+67   4.54209e+67  -4.52799e+65
  -9.71805e+59   2.16716e+63   4.93094e+61   8.54318e+67 -3.75988e+135 -4.26834e+202   1.05159e+68  -3.37943e+67   3.54953e+67   8.37308e+67   1.50572e+67   4.96046e+67  -3.92847e+66
  -5.50064e+60   2.29953e+63   1.87739e+62   1.22398e+69  3.72995e+137  3.35249e+205   1.06072e+69   3.32554e+68   2.44447e+68    6.4698e+68   6.29718e+67   -1.0922e+68  -2.56341e+68
  -4.40626e+59   2.29855e+63   5.09856e+61  -3.70381e+66 -1.96931e+136  5.58632e+203   1.40381e+68  -2.70501e+67  -3.88646e+67   6.22109e+67   6.98171e+67  -1.03596e+68  -3.22045e+67
  -9.05986e+59   2.29757e+63   4.94838e+61  -4.62722e+67 -3.82488e+135  5.41411e+202   7.72399e+67  -3.68736e+67  -3.93514e+67   2.99528e+67   4.35098e+67  -8.72807e+66  -3.19919e+67
  -4.59802e+60   2.29831e+63   1.80996e+62   5.43345e+68  5.10921e+136  6.90111e+203   4.94097e+68   1.75484e+68   9.67141e+67   2.71147e+68   3.66645e+67  -1.20199e+67  -1.95439e+68
  -1.98367e+60   2.16843e+63   1.78098e+62   6.39579e+68  5.32357e+136  1.83802e+203   5.96511e+68    2.3687e+67   9.85655e+67   5.17327e+68  -9.75374e+66   4.40423e+67  -1.01532e+68
  -9.71805e+59   2.16716e+63   4.93094e+61  -3.97565e+67  -5.7662e+135   2.1747e+203   8.57134e+67  -3.59775e+67  -5.82043e+67   5.44252e+67   4.23136e+65   4.97218e+67  -1.61848e+67
  -1.45957e+60   2.16646e+63   4.83542e+61  -6.46886e+67 -4.19858e+135  8.37363e+202   9.15598e+67   -4.1731e+67  -4.97287e+67   2.67711e+67   3.41692e+67   4.90155e+67  -1.59772e+67
  -4.22623e+60   2.16737e+63   1.76879e+62  -8.22856e+66  -2.4881e+136   8.5813e+203   1.57952e+68  -1.25807e+68  -3.66994e+67   1.54278e+68   2.39923e+67   4.56126e+67  -4.20799e+67
  -4.40626e+59   2.29855e+63   5.09856e+61   1.42553e+68  2.56678e+135 -2.96638e+202   1.33247e+68   6.70157e+66   3.98892e+67   9.59626e+67  -2.64478e+66  -3.35766e+67  -3.22045e+67
   8.51373e+59   2.29873e+63  -8.21269e+61  -1.49115e+68 -6.16875e+133  3.44848e+202   1.49322e+68   1.42296e+67  -2.74189e+67  -1.35926e+68  -2.33629e+66  -3.79655e+67   4.17944e+66
   1.71726e+60   2.29776e+63  -8.22894e+61  -1.15884e+68 -1.64732e+135  1.03747e+203   1.22786e+68   2.18983e+67  -1.93027e+67  -1.18479e+68   2.32646e+67  -1.48686e+67   1.24408e+67
  -9.05986e+59   2.29757e+63   4.94838e+61   7.10949e+67 -1.17086e+135 -4.57495e+202   7.89009e+67  -9.78884e+66   2.38463e+67   5.70375e+67   2.29562e+67  -1.37394e+67  -3.19919e+67
  -9.71805e+59   2.16716e+63   4.93094e+61   1.70876e+68  4.91859e+135  8.18681e+201    1.5582e+68     1.263e+67   5.52132e+67   1.03033e+68   7.64799e+66   4.94811e+67  -1.61848e+67
   4.15748e+59   2.16757e+63  -7.94915e+61  -1.98024e+68  6.02948e+135 -4.82907e+202   1.82165e+68  -2.06611e+67  -2.99175e+67  -1.47445e+68   3.29975e+66   4.50146e+67  -3.00123e+66
   8.73121e+59   2.16671e+63  -7.99122e+61  -1.86704e+68  4.29451e+135  4.33538e+202   1.74825e+68  -1.80487e+67  -3.33668e+67  -1.35288e+68   2.14756e+67   5.26953e+67   5.06347e+66
  -1.45957e+60   2.16646e+63   4.83542e+61   7.99987e+67 -2.87754e+135 -8.16917e+202   9.63189e+67  -8.34167e+66   2.81799e+67   6.01605e+67   2.58238e+67   5.39797e+67  -1.59772e+67
  -4.59802e+60   2.29831e+63   1.80996e+62   3.94801e+68   3.6981e+136  1.01307e+204     3.448e+68   8.70998e+67   6.24347e+67   2.45266e+68   3.17179e+66  -1.31363e+67  -7.03576e+67
  -9.05986e+59   2.29757e+63   4.94838e+61   4.40085e+67 -2.00536e+135  1.06319e+201   6.27862e+67   1.17676e+67  -1.85174e+67   5.07583e+67   1.82225e+67  -9.57098e+66   -3.1956e+67
  -8.76184e+59   2.29569e+63    4.7965e+61  -1.55481e+67 -1.05697e+135  5.35681e+201   3.60377e+67  -1.97621e+66  -1.16371e+67  -1.93479e+66    2.0088e+67   3.26844e+66  -2.63077e+67
  -4.66523e+60    2.2959e+63   1.78749e+62     3.313e+68  2.91068e+136  7.61294e+203   2.83994e+68   7.24457e+67   6.84047e+67   1.90449e+68   5.03734e+66  -7.21051e+66  -5.09548e+67
  -4.22623e+60   2.16737e+63   1.76879e+62   2.00933e+68 -4.27897e+135 -1.57068e+202   2.11313e+68  -1.30755e+67   1.15687e+67    2.0244e+68  -3.06232e+66   4.47108e+67  -4.25938e+67
  -1.45957e+60   2.16646e+63   4.83542e+61  -2.23256e+67 -3.76111e+135  7.42838e+202   6.52651e+67  -1.96781e+67  -3.99526e+67   3.73051e+67   2.11179e+66   4.79469e+67  -4.40406e+66
  -1.72278e+60    2.1646e+63   4.78112e+61  -1.22176e+68  7.34126e+134  1.10059e+203   1.19134e+68  -4.27205e+67  -5.56964e+67  -2.37592e+67   1.77788e+67   6.05495e+67   1.10971e+66
  -5.30412e+60   2.16532e+63   1.75621e+62   9.72324e+67 -8.94819e+135  7.12712e+202   1.35655e+68  -3.70065e+67  -5.06368e+66   1.39303e+68   1.26047e+67   5.05644e+67  -2.36529e+67
  -9.05986e+59   2.29757e+63   4.94838e+61   1.61376e+68   6.9991e+135   7.8646e+202   1.37996e+68   3.88523e+67   4.46803e+67    7.7843e+67  -2.33119e+66  -1.45824e+67   -3.1956e+67
   1.71726e+60   2.29776e+63  -8.22894e+61  -1.94333e+68  8.31553e+135 -9.54154e+202    1.7161e+68  -1.96196e+67  -3.74064e+67  -1.37307e+68    2.1286e+66  -1.55731e+67   1.18784e+66
   2.16461e+60   2.29604e+63  -8.28403e+61  -2.16758e+68  1.03165e+136 -1.24314e+203   1.91488e+68  -2.47946e+67   -3.6485e+67  -1.55479e+68   1.01583e+67   2.03185e+66  -2.91643e+66
  -8.76184e+59   2.29569e+63    4.7965e+61    5.4604e+67  2.13937e+134 -1.42273e+202   5.26085e+67   1.42127e+67   2.61371e+67   1.42542e+67   5.69849e+66   2.85068e+66  -2.63077e+67
  -1.45957e+60   2.16646e+63   4.83542e+61   1.22362e+68  1.31518e+135 -2.17275e+201   1.16864e+68   1.37113e+67    3.7956e+67   7.06945e+67  -6.23356e+66   5.29111e+67  -4.40406e+66
   8.73121e+59   2.16671e+63  -7.99122e+61  -1.46805e+68 -2.36286e+134  2.07808e+201   1.47607e+68   3.07507e+66  -2.41594e+67   -1.2572e+68   -2.0194e+66   5.19121e+67   1.06664e+67
   1.54482e+60   2.16501e+63  -8.01386e+61  -1.68858e+68  1.36309e+134  4.95059e+202   1.68454e+68  -2.01425e+66  -2.33475e+67  -1.43497e+68   1.59596e+67   5.70174e+67   6.65986e+66
  -1.72278e+60    2.1646e+63   4.78112e+61   1.79696e+67 -3.61023e+135  3.32725e+202   6.27147e+67  -1.03792e+67   1.97666e+67   8.58215e+66   1.17454e+67   5.78485e+67   1.10971e+66
   -9.6264e+50   2.44936e+63   2.36624e+62   4.33152e+69  2.27959e+138 -1.04883e+207   4.05986e+69   1.01002e+69   5.37886e+68   2.78362e+69  -3.21417e+68  -7.60585e+68  -1.37501e+69
  -6.83966e+50   2.43736e+63     4.623e+61  -1.88654e+69   1.1577e+137   1.6044e+206    1.8556e+69  -3.11743e+68  -8.97052e+68  -6.77746e+68  -4.82061e+67  -9.69622e+68   2.01603e+68
   2.15339e+60   2.43567e+63   5.32544e+61   3.95462e+68  -2.6853e+136 -2.70022e+203   4.28069e+68   2.14873e+68  -4.65338e+66   1.85242e+68  -1.07207e+67   3.02406e+67   2.52518e+68
   2.04149e+59   2.43817e+63   1.88767e+62  -2.98225e+68   -1.658e+138  3.08468e+206   1.32172e+69  -5.83824e+67  -1.64735e+68  -7.51079e+67  -2.83932e+68    5.4639e+67  -1.26522e+69
  -9.63811e+50   2.29852e+63   1.90239e+62   4.64588e+69  5.82567e+138  2.17962e+207    3.9697e+69   7.61214e+68    1.0285e+69   2.85616e+69   3.00586e+67   2.52627e+68  -6.50223e+67
   -6.7152e+50   2.29738e+63   5.25321e+61  -1.01211e+69  3.21995e+137 -3.27322e+205   8.38081e+68  -2.58971e+68  -2.77188e+68  -4.75955e+68   3.30672e+67     4.359e+67   -4.4523e+67
  -4.40626e+59   2.29855e+63   5.09856e+61   7.26726e+67 -1.99643e+136 -1.71279e+204   1.58889e+68  -8.63588e+66  -2.12393e+67   1.02548e+68   1.30375e+68   7.73826e+66   5.15009e+66
  -5.50064e+60   2.29953e+63   1.87739e+62  -1.01251e+69   2.8881e+137 -2.42476e+205   8.58115e+68  -5.44566e+68  -2.71665e+68  -1.96276e+68   1.27367e+68   3.66401e+67   4.20942e+67
  -6.83966e+50   2.43736e+63     4.623e+61  -8.08671e+68  8.63112e+136  4.18416e+204   7.53417e+68  -6.30034e+67  -3.16661e+68  -4.29007e+68  -4.82061e+67    2.3141e+68   2.01603e+68
  -3.90863e+50   2.43398e+63  -8.17101e+61   8.02217e+66 -3.29963e+136 -1.05957e+204   1.81826e+68   9.62364e+67  -1.28193e+68   3.99788e+67  -8.57829e+66   1.19125e+68  -7.15374e+67
   1.63938e+60   2.43368e+63  -8.42028e+61  -2.09531e+68 -1.20839e+135  9.75549e+203   2.12395e+68   4.60318e+67  -1.24982e+68  -1.30581e+68  -1.84631e+67  -4.82987e+67  -5.55969e+67
   2.15339e+60   2.43567e+63   5.32544e+61   4.58138e+68 -8.90783e+135 -9.98617e+203   4.67759e+68   2.29337e+68   2.90953e+67   1.99706e+68  -5.80909e+67  -7.14858e+66   2.52518e+68
   -6.7152e+50   2.29738e+63   5.25321e+61  -5.63129e+68  6.51575e+136 -5.49555e+203   5.01953e+68  -1.55359e+68  -3.54266e+67  -3.72343e+68   3.30672e+67   9.11509e+67   -4.4523e+67
    -3.811e+50   2.29984e+63  -8.27014e+61   5.86248e+68  1.11945e+137  7.00025e+204   4.81395e+68   1.83018e+68   2.29814e+68   1.73415e+68  -3.14054e+67  -2.11345e+67   1.65272e+67
   8.51373e+59   2.29873e+63  -8.21269e+61  -7.98514e+67 -4.36931e+135 -1.59641e+201   1.03661e+68   2.93028e+67   -1.1435e+67  -9.77192e+67  -6.55922e+66   3.48729e+67   3.20789e+67
  -4.40626e+59   2.29855e+63   5.09856e+61    2.1893e+68   3.2802e+135 -3.67253e+203   2.11306e+68   2.51158e+67   5.75145e+67   1.36299e+68   5.79133e+67   7.77581e+67   5.15009e+66
   2.04149e+59   2.43817e+63   1.88767e+62  -3.20233e+68  8.05606e+134  1.92829e+204   3.18973e+68  -1.10646e+68  -1.69814e+68  -3.97736e+67  -1.51901e+68   5.68395e+67  -5.32319e+67
   2.15339e+60   2.43567e+63   5.32544e+61  -5.41998e+67 -1.65531e+136  1.79833e+203   1.39609e+68  -1.72545e+67  -1.08421e+68   7.14761e+67  -7.90178e+67   2.91023e+67  -4.84797e+67
   2.07266e+60   2.43162e+63   4.98377e+61   1.28163e+67 -6.43672e+135  5.75357e+201   8.12464e+67  -1.78923e+66   4.59029e+66   1.00153e+67  -6.81996e+67   1.06928e+67  -4.11224e+67
  -4.39125e+59   2.43158e+63   1.83133e+62   1.17771e+68  -2.5265e+136 -2.34948e+204   1.97826e+68  -9.56777e+66   2.88106e+67   9.85281e+67  -1.41083e+68  -6.88959e+66  -8.32668e+67
  -5.50064e+60   2.29953e+63   1.87739e+62   1.50702e+68 -6.32063e+135 -7.42758e+203   1.70387e+68   8.59387e+67  -3.23254e+66   6.79958e+67   6.35837e+67    3.5577e+67  -7.97364e+67
  -4.40626e+59   2.29855e+63   5.09856e+61   7.01016e+67 -8.06205e+135 -4.70626e+203   1.13913e+68  -1.01031e+67  -2.18326e+67   1.02037e+68   7.01459e+67   6.73443e+66   7.62833e+66
  -9.05986e+59   2.29757e+63   4.94838e+61  -1.43466e+68  1.92953e+135  1.73452e+203   1.36576e+68   -5.9388e+67  -6.17808e+67  -2.22975e+67   4.38386e+67   4.79607e+67   1.48062e+67
  -4.59802e+60   2.29831e+63   1.80996e+62   2.99073e+68  1.27479e+136 -3.92984e+203   2.76942e+68   1.20178e+68   4.03437e+67   1.38551e+68   3.72765e+67    3.2589e+67  -1.09039e+68
   2.15339e+60   2.43567e+63   5.32544e+61   8.47627e+66 -2.48417e+136 -1.28074e+204    1.5784e+68  -2.79078e+66  -7.46728e+67   8.59399e+67  -1.26388e+68  -8.28687e+66  -4.84797e+67
   1.63938e+60   2.43368e+63  -8.42028e+61  -2.23292e+68 -1.77211e+135  1.69817e+204   2.27225e+68   3.54012e+67  -1.28158e+68  -1.30535e+68  -7.24147e+67  -4.91979e+67    4.0974e+67
   3.14894e+60   2.43151e+63  -8.33285e+61    1.4389e+68 -2.04962e+135  -1.4404e+203   1.50844e+68   1.20135e+68   2.88401e+67  -5.08584e+66  -4.18323e+67   9.07952e+66   5.40766e+67
   2.07266e+60   2.43162e+63   4.98377e+61  -6.67684e+66 -1.10737e+136  6.45222e+202   1.05443e+68  -6.28765e+66  -5.90602e+66   5.51684e+66  -9.58056e+67   1.31829e+67  -4.11224e+67
  -4.40626e+59   2.29855e+63   5.09856e+61   2.16359e+68  6.33181e+135  3.67147e+202   2.01195e+68   2.36485e+67   5.69212e+67   1.35789e+68  -2.31598e+66   7.67542e+67   7.62833e+66
   8.51373e+59   2.29873e+63  -8.21269e+61  -7.93855e+67 -3.54838e+135 -3.11274e+201   9.92493e+67   3.02611e+67  -1.13274e+67  -9.83191e+67  -2.20752e+66   3.49455e+67   1.08628e+67
   1.71726e+60   2.29776e+63  -8.22894e+61   5.11659e+67 -3.58401e+135 -7.01799e+202   7.87525e+67   6.03883e+67   1.92473e+67  -2.84697e+67   2.33934e+67   3.70504e+67   2.36459e+67
  -9.05986e+59   2.29757e+63   4.94838e+61  -2.60993e+67 -2.79969e+135  8.60774e+202   5.89988e+67  -3.23033e+67   1.41685e+66   4.78722e+66    2.3285e+67   4.29493e+67   1.48062e+67
  -4.39125e+59   2.43158e+63   1.83133e+62   1.54036e+68  3.26318e+135 -1.32347e+203   1.43052e+68   5.98228e+66   3.71794e+67   1.10874e+68  -3.43794e+67  -3.33282e+66  -2.34884e+67
   2.07266e+60   2.43162e+63   4.98377e+61  -1.08922e+67 -1.07178e+135 -5.04211e+201   3.45024e+67  -1.74772e+67  -8.80914e+65   7.46589e+66  -2.82686e+67   1.20238e+67    2.5351e+66
   1.81209e+60   2.42896e+63   4.79468e+61  -3.70016e+67 -1.04691e+135   3.1164e+202   4.91532e+67  -2.35025e+67   1.19146e+66  -1.46906e+67  -2.33889e+67   2.80991e+67  -3.17379e+66
  -9.53445e+59   2.42871e+63   1.79558e+62   3.22342e+66 -2.97062e+135  1.01289e+202   5.45986e+67  -2.88206e+67   1.04742e+67   2.15699e+67  -2.94997e+67   1.89039e+67  -3.23331e+67
  -4.59802e+60   2.29831e+63   1.80996e+62   1.48315e+68  2.93838e+135 -1.05239e+202   1.38054e+68    3.0549e+67   5.55329e+66   1.12213e+68   3.18523e+66   3.14526e+67   1.68221e+67
  -9.05986e+59   2.29757e+63   4.94838e+61  -5.25249e+67 -2.27575e+135  5.68445e+202    7.0955e+67  -1.03758e+67  -4.07943e+67  -1.35475e+66   1.83127e+67   4.71098e+67   1.46169e+67
  -8.76184e+59   2.29569e+63    4.7965e+61  -3.66444e+67 -2.11009e+135  3.55511e+202   5.87614e+67  -6.71106e+66  -1.65055e+67  -1.34278e+67   2.01782e+67   4.52061e+67    9.0473e+66
  -4.66523e+60    2.2959e+63   1.78749e+62   4.25338e+67 -1.07259e+135 -5.44503e+201   5.36815e+67   6.13799e+66    1.7664e+66   3.46294e+67   5.05078e+66     3.556e+67   8.19313e+66
   2.07266e+60   2.43162e+63   4.98377e+61  -3.03854e+67 -3.18801e+135  -7.9318e+201   6.41193e+67  -2.19756e+67  -1.13772e+67   2.96747e+66  -5.58747e+67   1.45139e+67    2.5351e+66
   3.14894e+60   2.43151e+63  -8.33285e+61   -5.2675e+67 -2.26406e+135  1.06017e+203   7.09839e+67   1.73829e+67   -1.6521e+67  -5.35369e+67    -4.246e+67    9.0586e+66   6.76981e+66
   3.66126e+60   2.42932e+63  -8.40661e+61    -2.003e+67 -2.87559e+135  7.75869e+201   5.72433e+67   2.49163e+67   8.94869e+66  -5.38951e+67  -2.75966e+67   2.10597e+67   8.26547e+66
   1.81209e+60   2.42896e+63   4.79468e+61  -2.45193e+67 -2.12008e+135  3.55723e+202   5.21658e+67  -2.06219e+67   7.91272e+66  -1.18101e+67  -4.10113e+67   2.03715e+67  -3.17379e+66
  -9.05986e+59   2.29757e+63   4.94838e+61   6.48422e+67 -6.10263e+134  -2.7655e+202   6.93886e+67   1.67089e+67   2.24033e+67     2.573e+67  -2.24095e+66   4.20985e+67   1.46169e+67
   1.71726e+60   2.29776e+63  -8.22894e+61  -2.72847e+67  -2.4058e+135 -2.39105e+202   5.61272e+67   1.88647e+67   1.14329e+66  -4.72926e+67   2.18329e+66   3.63434e+67   1.24712e+67
   2.16461e+60   2.29604e+63  -8.28403e+61  -3.24936e+67 -3.55095e+135 -2.43005e+202   6.78733e+67   1.76626e+67   6.03765e+66  -5.61938e+67    1.0213e+67    4.5027e+67   1.39304e+67
  -8.76184e+59   2.29569e+63    4.7965e+61   3.35077e+67 -1.83488e+135 -1.55981e+202   5.43842e+67   9.47788e+66   2.12687e+67    2.7611e+66   5.78873e+66   4.47883e+67    9.0473e+66
   -9.4052e+59   9.37887e+58  -8.43761e+59  -1.48929e+67 -8.50598e+133 -7.64811e+199   1.75174e+67   2.38634e+66   1.21195e+66  -1.84912e+67  -4.76175e+65  -3.19234e+65    -4.592e+66
  -9.66426e+59   4.74531e+58  -8.54246e+59  -1.50975e+67 -8.22932e+133 -7.11677e+199   1.76133e+67   2.42405e+66   1.16846e+66    -1.869e+67   3.89565e+65   6.90173e+64  -4.22196e+66
   -1.4119e+60    3.8429e+58  -1.01808e+60  -2.03272e+67  7.59243e+132  6.24482e+198   2.01396e+67    1.9449e+65  -7.19874e+65  -1.98018e+67   2.99326e+65   1.46659e+65  -1.60001e+66
  -1.39257e+60   7.65465e+58  -1.00595e+60  -1.99582e+67  3.31699e+132   7.6299e+198   1.98749e+67   2.51343e+65  -6.41413e+65  -1.95681e+67  -3.40193e+65  -2.41593e+65  -1.99515e+66
  -9.99284e+59   1.29774e+59  -1.19861e+60  -2.44517e+67 -4.94167e+133 -2.11411e+199   2.54421e+67   3.54166e+65   9.11252e+65  -2.57171e+67  -4.35577e+65   -7.0668e+65  -4.06293e+66
  -1.02605e+60   6.51139e+58  -1.21035e+60  -2.47949e+67  -4.4521e+133 -1.40483e+199   2.56769e+67   3.62407e+65   8.38296e+65  -2.59956e+67   4.30163e+65  -9.22076e+64   -3.6631e+66
  -1.45969e+60   5.14222e+58  -1.42969e+60  -3.12737e+67  1.09366e+134 -9.86738e+199   2.94734e+67  -2.13272e+66  -1.76805e+66   -2.7373e+67    3.1013e+65   1.05389e+64  -1.04114e+66
  -1.44014e+60   1.03076e+59  -1.41577e+60   -3.0766e+67  1.01071e+134 -8.52608e+199   2.90771e+67   -2.0464e+66  -1.66011e+66  -2.70595e+67  -3.29389e+65  -6.03934e+65  -1.46608e+66
  -9.66426e+59   4.74531e+58  -8.54246e+59  -1.48059e+67 -8.59918e+133 -8.35307e+199   1.74702e+67   2.48603e+66   1.33604e+66   -1.8628e+67  -4.37542e+65   -3.1492e+65  -4.22196e+66
  -9.74826e+59   -9.6298e+46  -8.56604e+59  -1.49486e+67 -8.51658e+133 -8.07181e+199   1.75677e+67   2.47831e+66   1.30572e+66  -1.87326e+67   3.96824e+65   1.11419e+65    -4.165e+66
   -1.4182e+60  -1.08381e+47  -1.02122e+60  -2.04379e+67  8.07427e+132  5.83167e+198   2.02394e+67   1.75723e+65  -7.13975e+65  -1.98996e+67   2.97552e+65    1.4855e+65  -1.54941e+66
   -1.4119e+60    3.8429e+58  -1.01808e+60   -2.0246e+67  6.24916e+132  6.22559e+198    2.0091e+67   2.11761e+65  -6.73179e+65  -1.97846e+67  -3.16303e+65  -2.77788e+65  -1.60001e+66
  -1.02605e+60   6.51139e+58  -1.21035e+60  -2.46765e+67 -4.71845e+133  -1.8498e+199   2.56148e+67   3.87558e+65   9.06298e+65  -2.59704e+67  -4.26242e+65  -5.77743e+65   -3.6631e+66
  -1.03469e+60  -1.37727e+47  -1.21182e+60   -2.4784e+67 -4.58782e+133 -1.62116e+199   2.56929e+67   3.87303e+65   8.83444e+65  -2.60548e+67   4.08124e+65   6.91073e+64  -3.59722e+66
  -1.46604e+60  -1.60041e+47   -1.4318e+60  -3.14909e+67  1.13134e+134 -1.05499e+200   2.96403e+67  -2.17414e+66  -1.83613e+66  -2.74807e+67   2.99931e+65   9.98753e+64  -9.81623e+65
  -1.45969e+60   5.14222e+58  -1.42969e+60  -3.13342e+67  1.10516e+134 -1.00993e+200   2.95181e+67  -2.14558e+66  -1.80281e+66  -2.73858e+67  -3.13924e+65  -5.46975e+65  -1.04114e+66
  -9.74826e+59   -9.6298e+46  -8.56604e+59  -1.49486e+67 -8.51658e+133 -8.07181e+199   1.75677e+67   2.47831e+66   1.30572e+66  -1.87326e+67  -3.96824e+65  -1.11419e+65    -4.165e+66
  -9.66426e+59  -4.74531e+58  -8.54246e+59  -1.48059e+67 -8.59918e+133 -8.35307e+199   1.74702e+67   2.48603e+66   1.33604e+66   -1.8628e+67   4.37542e+65    3.1492e+65  -4.22196e+66
   -1.4119e+60   -3.8429e+58  -1.01808e+60   -2.0246e+67  6.24916e+132  6.22559e+198    2.0091e+67   2.11761e+65  -6.73179e+65  -1.97846e+67   3.16303e+65   2.77788e+65  -1.60001e+66
   -1.4182e+60  -1.08381e+47  -1.02122e+60  -2.04379e+67  8.07427e+132  5.83167e+198   2.02394e+67   1.75723e+65  -7.13975e+65  -1.98996e+67  -2.97552e+65   -1.4855e+65  -1.54941e+66
  -1.03469e+60  -1.37727e+47  -1.21182e+60   -2.4784e+67 -4.58782e+133 -1.62116e+199   2.56929e+67   3.87303e+65   8.83444e+65  -2.60548e+67  -4.08124e+65  -6.91073e+64  -3.59722e+66
  -1.02605e+60  -6.51139e+58  -1.21035e+60  -2.46765e+67 -4.71845e+133  -1.8498e+199   2.56148e+67   3.87558e+65   9.06298e+65  -2.59704e+67   4.26242e+65   5.77743e+65   -3.6631e+66
  -1.45969e+60  -5.14222e+58  -1.42969e+60  -3.13342e+67  1.10516e+134 -1.00993e+200   2.95181e+67  -2.14558e+66  -1.80281e+66  -2.73858e+67   3.13924e+65   5.46975e+65  -1.04114e+66
  -1.46604e+60  -1.60041e+47   -1.4318e+60  -3.14909e+67  1.13134e+134 -1.05499e+200   2.96403e+67  -2.17414e+66  -1.83613e+66  -2.74807e+67  -2.99931e+65  -9.98753e+64  -9.81623e+65
  -9.66426e+59  -4.74531e+58  -8.54246e+59  -1.50975e+67 -8.22932e+133 -7.11677e+199   1.76133e+67   2.42405e+66   1.16846e+66    -1.869e+67  -3.89565e+65  -6.90173e+64  -4.22196e+66
   -9.4052e+59  -9.37887e+58  -8.43761e+59  -1.48929e+67 -8.50598e+133 -7.64811e+199   1.75174e+67   2.38634e+66   1.21195e+66  -1.84912e+67   4.76175e+65   3.19234e+65    -4.592e+66
  -1.39257e+60  -7.65465e+58  -1.00595e+60  -1.99582e+67  3.31699e+132   7.6299e+198   1.98749e+67   2.51343e+65  -6.41413e+65  -1.95681e+67   3.40193e+65   2.41593e+65  -1.99515e+66
   -1.4119e+60   -3.8429e+58  -1.01808e+60  -2.03272e+67  7.59243e+132  6.24482e+198   2.01396e+67    1.9449e+65  -7.19874e+65  -1.98018e+67  -2.99326e+65  -1.46659e+65  -1.60001e+66
  -1.02605e+60  -6.51139e+58  -1.21035e+60  -2.47949e+67  -4.4521e+133 -1.40483e+199   2.56769e+67   3.62407e+65   8.38296e+65  -2.59956e+67  -4.30163e+65   9.22076e+64   -3.6631e+66
  -9.99284e+59  -1.29774e+59  -1.19861e+60  -2.44517e+67 -4.94167e+133 -2.11411e+199   2.54421e+67   3.54166e+65   9.11252e+65  -2.57171e+67   4.35577e+65    7.0668e+65  -4.06293e+66
  -1.44014e+60  -1.03076e+59  -1.41577e+60   -3.0766e+67  1.01071e+134 -8.52608e+199   2.90771e+67   -2.0464e+66  -1.66011e+66  -2.70595e+67   3.29389e+65   6.03934e+65  -1.46608e+66
  -1.45969e+60  -5.14222e+58  -1.42969e+60  -3.12737e+67  1.09366e+134 -9.86738e+199   2.94734e+67  -2.13272e+66  -1.76805e+66   -2.7373e+67   -3.1013e+65  -1.05389e+64  -1.04114e+66
  -1.39257e+60   7.65465e+58  -1.00595e+60  -1.11845e+67  -6.8269e+133 -6.40655e+199   1.39055e+67    2.1166e+66   1.22384e+66   -1.4525e+67  -3.40193e+65  -2.68113e+65  -4.70659e+66
   -1.4119e+60    3.8429e+58  -1.01808e+60  -1.10998e+67 -6.47673e+133 -6.03719e+199   1.37103e+67   2.15623e+66   1.24186e+66  -1.44979e+67   2.99326e+65    1.4336e+65  -4.25087e+66
  -1.91348e+60    2.9335e+58  -1.14654e+60  -1.70957e+67   1.4947e+133 -5.13837e+197   1.66528e+67  -4.67276e+65  -8.55797e+65  -1.57726e+67    1.8694e+65   1.38814e+65  -2.50339e+66
  -1.90201e+60    5.8743e+58  -1.13451e+60  -1.70434e+67  1.15014e+133  1.96144e+198   1.67026e+67  -4.28156e+65  -8.44691e+65  -1.57706e+67  -1.68198e+65  -2.72658e+65  -2.97173e+66
  -1.44014e+60   1.03076e+59  -1.41577e+60  -1.72327e+67 -5.55682e+133 -3.98163e+199   1.87759e+67   8.30765e+65   1.21705e+66  -1.92805e+67  -3.29389e+65  -7.27044e+65    -4.057e+66
  -1.45969e+60   5.14222e+58  -1.42969e+60  -1.72177e+67 -5.18942e+133 -3.38271e+199   1.86639e+67   8.55577e+65   1.22025e+66  -1.92935e+67    3.1013e+65  -3.11898e+64  -3.57647e+66
    -1.947e+60   3.68473e+58  -1.59514e+60  -2.47838e+67  8.15025e+133 -7.16025e+199    2.3081e+67  -2.10176e+66  -1.78001e+66   -2.0902e+67   1.72934e+65  -2.31138e+64  -1.82899e+66
  -1.93583e+60   7.37724e+58  -1.58105e+60  -2.46619e+67  7.69574e+133  -6.4329e+199   2.30489e+67  -2.04783e+66  -1.75409e+66    -2.086e+67  -1.82205e+65  -7.18968e+65  -2.32214e+66
   -1.4119e+60    3.8429e+58  -1.01808e+60  -1.10185e+67 -6.55809e+133 -6.33184e+199   1.36744e+67    2.1735e+66   1.28856e+66  -1.44806e+67  -3.16303e+65  -2.81087e+65  -4.25087e+66
   -1.4182e+60  -1.08381e+47  -1.02122e+60  -1.10058e+67 -6.50659e+133 -6.25073e+199   1.36452e+67   2.18097e+66   1.29127e+66   -1.4478e+67   2.97552e+65    1.4855e+65  -4.18333e+66
  -1.91732e+60  -1.12913e+47  -1.14969e+60  -1.71401e+67  1.58506e+133  -1.0996e+198   1.66713e+67  -4.85793e+65  -8.72154e+65  -1.57822e+67   1.81343e+65   1.48614e+65  -2.43915e+66
  -1.91348e+60    2.9335e+58  -1.14654e+60  -1.71147e+67   1.5143e+133 -7.44974e+197   1.66665e+67  -4.71329e+65  -8.66757e+65  -1.57766e+67  -1.73571e+65  -2.81023e+65  -2.50339e+66
  -1.45969e+60   5.14222e+58  -1.42969e+60  -1.72781e+67 -5.13945e+133 -3.41629e+199   1.87064e+67    8.4272e+65   1.18549e+66  -1.93063e+67  -3.13924e+65  -5.88704e+65  -3.57647e+66
  -1.46604e+60  -1.60041e+47   -1.4318e+60  -1.72472e+67 -5.08227e+133 -3.27452e+199   1.86625e+67   8.54063e+65   1.19207e+66  -1.92933e+67   2.99931e+65   9.98753e+64  -3.50203e+66
  -1.95075e+60  -1.71914e+47  -1.59718e+60  -2.48113e+67  8.23873e+133 -7.31803e+199   2.30914e+67  -2.11668e+66  -1.79321e+66  -2.09014e+67   1.76809e+65   9.66448e+64  -1.75784e+66
    -1.947e+60   3.68473e+58  -1.59514e+60  -2.48041e+67  8.15341e+133 -7.18796e+199   2.31022e+67  -2.10608e+66  -1.79168e+66  -2.09064e+67  -1.78104e+65  -5.91934e+65  -1.82899e+66
   -1.4182e+60  -1.08381e+47  -1.02122e+60  -1.10058e+67 -6.50659e+133 -6.25073e+199   1.36452e+67   2.18097e+66   1.29127e+66   -1.4478e+67  -2.97552e+65   -1.4855e+65  -4.18333e+66
   -1.4119e+60   -3.8429e+58  -1.01808e+60  -1.10185e+67 -6.55809e+133 -6.33184e+199   1.36744e+67    2.1735e+66   1.28856e+66  -1.44806e+67   3.16303e+65   2.81087e+65  -4.25087e+66
  -1.91348e+60   -2.9335e+58  -1.14654e+60  -1.71147e+67   1.5143e+133 -7.44974e+197   1.66665e+67  -4.71329e+65  -8.66757e+65  -1.57766e+67   1.73571e+65   2.81023e+65  -2.50339e+66
  -1.91732e+60  -1.12913e+47  -1.14969e+60  -1.71401e+67  1.58506e+133  -1.0996e+198   1.66713e+67  -4.85793e+65  -8.72154e+65  -1.57822e+67  -1.81343e+65  -1.48614e+65  -2.43915e+66
  -1.46604e+60  -1.60041e+47   -1.4318e+60  -1.72472e+67 -5.08227e+133 -3.27452e+199   1.86625e+67   8.54063e+65   1.19207e+66  -1.92933e+67  -2.99931e+65  -9.98753e+64  -3.50203e+66
  -1.45969e+60  -5.14222e+58  -1.42969e+60  -1.72781e+67 -5.13945e+133 -3.41629e+199   1.87064e+67    8.4272e+65   1.18549e+66  -1.93063e+67   3.13924e+65   5.88704e+65  -3.57647e+66
    -1.947e+60  -3.68473e+58  -1.59514e+60  -2.48041e+67  8.15341e+133 -7.18796e+199   2.31022e+67  -2.10608e+66  -1.79168e+66  -2.09064e+67   1.78104e+65   5.91934e+65  -1.82899e+66
  -1.95075e+60  -1.71914e+47  -1.59718e+60  -2.48113e+67  8.23873e+133 -7.31803e+199   2.30914e+67  -2.11668e+66  -1.79321e+66  -2.09014e+67  -1.76809e+65  -9.66448e+64  -1.75784e+66
   -1.4119e+60   -3.8429e+58  -1.01808e+60  -1.10998e+67 -6.47673e+133 -6.03719e+199   1.37103e+67   2.15623e+66   1.24186e+66  -1.44979e+67  -2.99326e+65   -1.4336e+65  -4.25087e+66
  -1.39257e+60  -7.65465e+58  -1.00595e+60  -1.11845e+67  -6.8269e+133 -6.40655e+199   1.39055e+67    2.1166e+66   1.22384e+66   -1.4525e+67   3.40193e+65   2.68113e+65  -4.70659e+66
  -1.90201e+60   -5.8743e+58  -1.13451e+60  -1.70434e+67  1.15014e+133  1.96144e+198   1.67026e+67  -4.28156e+65  -8.44691e+65  -1.57706e+67   1.68198e+65   2.72658e+65  -2.97173e+66
  -1.91348e+60   -2.9335e+58  -1.14654e+60  -1.70957e+67   1.4947e+133 -5.13837e+197   1.66528e+67  -4.67276e+65  -8.55797e+65  -1.57726e+67   -1.8694e+65  -1.38814e+65  -2.50339e+66
  -1.45969e+60  -5.14222e+58  -1.42969e+60  -1.72177e+67 -5.18942e+133 -3.38271e+199   1.86639e+67   8.55577e+65   1.22025e+66  -1.92935e+67   -3.1013e+65   3.11898e+64  -3.57647e+66
  -1.44014e+60  -1.03076e+59  -1.41577e+60  -1.72327e+67 -5.55682e+133 -3.98163e+199   1.87759e+67   8.30765e+65   1.21705e+66  -1.92805e+67   3.29389e+65   7.27044e+65    -4.057e+66
  -1.93583e+60  -7.37724e+58  -1.58105e+60  -2.46619e+67  7.69574e+133  -6.4329e+199   2.30489e+67  -2.04783e+66  -1.75409e+66    -2.086e+67   1.82205e+65   7.18968e+65  -2.32214e+66
    -1.947e+60  -3.68473e+58  -1.59514e+60  -2.47838e+67  8.15025e+133 -7.16025e+199    2.3081e+67  -2.10176e+66  -1.78001e+66   -2.0902e+67  -1.72934e+65   2.31138e+64  -1.82899e+66
  -1.90201e+60    5.8743e+58  -1.13451e+60  -7.48941e+66 -4.55975e+133 -4.19083e+199   1.00841e+67   1.60301e+66   1.18648e+66  -1.02789e+67  -1.68198e+65  -2.23032e+65  -4.32996e+66
  -1.91348e+60    2.9335e+58  -1.14654e+60  -7.21122e+66 -4.19146e+133 -3.89462e+199   9.69104e+66   1.63414e+66   1.24562e+66   -1.0091e+67    1.8694e+65   1.68747e+65   -3.8506e+66
  -2.44358e+60   2.08745e+58  -1.23711e+60  -1.33733e+67  1.39511e+133 -2.81669e+198   1.28411e+67  -1.12428e+66  -8.47986e+65   -1.1401e+67   6.64688e+64    1.0436e+65   -3.0778e+66
  -2.44021e+60   4.19899e+58  -1.22644e+60   -1.3537e+67  1.10514e+133  1.42221e+197   1.31224e+67  -1.08959e+66  -8.82786e+65  -1.15646e+67    9.1363e+63   -2.8742e+65  -3.55494e+66
  -1.93583e+60   7.37724e+58  -1.58105e+60  -9.80787e+66 -4.30731e+133 -3.86847e+199   1.18012e+67   1.11011e+66   1.40385e+66  -1.23218e+67  -1.82205e+65  -6.85697e+65  -3.62651e+66
    -1.947e+60   3.68473e+58  -1.59514e+60  -9.51748e+66 -3.97722e+133 -3.42963e+199   1.14173e+67   1.14383e+66   1.46559e+66  -1.21269e+67   1.72934e+65   3.88755e+63  -3.12642e+66
  -2.46177e+60   2.28439e+58  -1.70206e+60   -1.7324e+67  4.63144e+133 -3.38561e+199   1.59313e+67  -1.96418e+66  -1.57323e+66  -1.37865e+67    3.1726e+64  -6.27091e+64  -2.35361e+66
  -2.45913e+60   4.51728e+58  -1.68939e+60  -1.74998e+67  4.38603e+133  -2.9344e+199   1.61983e+67  -1.93209e+66  -1.61062e+66  -1.39571e+67  -2.56065e+64  -7.52294e+65  -2.85149e+66
  -1.91348e+60    2.9335e+58  -1.14654e+60  -7.23029e+66 -4.18274e+133  -3.8758e+199   9.70075e+66   1.63009e+66   1.23466e+66   -1.0095e+67  -1.73571e+65  -2.51091e+65   -3.8506e+66
  -1.91732e+60  -1.12913e+47  -1.14969e+60  -7.16243e+66 -4.12976e+133 -3.83013e+199   9.62279e+66   1.63545e+66   1.24909e+66   -1.0047e+67   1.81343e+65   1.48614e+65  -3.78215e+66
  -2.44487e+60  -1.08866e+47   -1.2399e+60  -1.33834e+67   1.4861e+133 -3.44444e+198   1.28162e+67  -1.14096e+66  -8.72888e+65  -1.13695e+67   6.09159e+64   1.31793e+65  -3.00172e+66
  -2.44358e+60   2.08745e+58  -1.23711e+60  -1.34361e+67  1.45371e+133 -3.06504e+198   1.28838e+67  -1.13764e+66  -8.84102e+65  -1.14144e+67   -3.2125e+64  -2.67912e+65   -3.0778e+66
    -1.947e+60   3.68473e+58  -1.59514e+60  -9.53779e+66 -3.99301e+133 -3.49178e+199   1.14411e+67   1.13952e+66   1.45392e+66  -1.21312e+67  -1.78104e+65  -5.64933e+65  -3.12642e+66
  -1.95075e+60  -1.71914e+47  -1.59718e+60  -9.51199e+66 -3.91397e+133 -3.34304e+199    1.1385e+67   1.13593e+66    1.4594e+66  -1.21073e+67   1.76809e+65   9.66448e+64  -3.05522e+66
  -2.46291e+60  -1.75231e+47  -1.70391e+60  -1.71789e+67   4.5003e+133 -3.22077e+199   1.58149e+67  -1.94789e+66  -1.49373e+66  -1.37373e+67   5.36469e+64   8.74402e+64   -2.2748e+66
  -2.46177e+60   2.28439e+58  -1.70206e+60  -1.71896e+67  4.42374e+133  -3.0999e+199   1.58507e+67  -1.93562e+66  -1.49601e+66   -1.3758e+67  -3.93939e+64  -5.74138e+65  -2.35361e+66
  -1.91732e+60  -1.12913e+47  -1.14969e+60  -7.16243e+66 -4.12976e+133 -3.83013e+199   9.62279e+66   1.63545e+66   1.24909e+66   -1.0047e+67  -1.81343e+65  -1.48614e+65  -3.78215e+66
  -1.91348e+60   -2.9335e+58  -1.14654e+60  -7.23029e+66 -4.18274e+133  -3.8758e+199   9.70075e+66   1.63009e+66   1.23466e+66   -1.0095e+67   1.73571e+65   2.51091e+65   -3.8506e+66
  -2.44358e+60  -2.08745e+58  -1.23711e+60  -1.34361e+67  1.45371e+133 -3.06504e+198   1.28838e+67  -1.13764e+66  -8.84102e+65  -1.14144e+67    3.2125e+64   2.67912e+65   -3.0778e+66
  -2.44487e+60  -1.08866e+47   -1.2399e+60  -1.33834e+67   1.4861e+133 -3.44444e+198   1.28162e+67  -1.14096e+66  -8.72888e+65  -1.13695e+67  -6.09159e+64  -1.31793e+65  -3.00172e+66
  -1.95075e+60  -1.71914e+47  -1.59718e+60  -9.51199e+66 -3.91397e+133 -3.34304e+199    1.1385e+67   1.13593e+66    1.4594e+66  -1.21073e+67  -1.76809e+65  -9.66448e+64  -3.05522e+66
    -1.947e+60  -3.68473e+58  -1.59514e+60  -9.53779e+66 -3.99301e+133 -3.49178e+199   1.14411e+67   1.13952e+66   1.45392e+66  -1.21312e+67   1.78104e+65   5.64933e+65  -3.12642e+66
  -2.46177e+60  -2.28439e+58  -1.70206e+60  -1.71896e+67  4.42374e+133  -3.0999e+199   1.58507e+67  -1.93562e+66  -1.49601e+66   -1.3758e+67   3.93939e+64   5.74138e+65  -2.35361e+66
  -2.46291e+60  -1.75231e+47  -1.70391e+60  -1.71789e+67   4.5003e+133 -3.22077e+199   1.58149e+67  -1.94789e+66  -1.49373e+66  -1.37373e+67  -5.36469e+64  -8.74402e+64   -2.2748e+66
  -1.91348e+60   -2.9335e+58  -1.14654e+60  -7.21122e+66 -4.19146e+133 -3.89462e+199   9.69104e+66   1.63414e+66   1.24562e+66   -1.0091e+67   -1.8694e+65  -1.68747e+65   -3.8506e+66
  -1.90201e+60   -5.8743e+58  -1.13451e+60  -7.48941e+66 -4.55975e+133 -4.19083e+199   1.00841e+67   1.60301e+66   1.18648e+66  -1.02789e+67   1.68198e+65   2.23032e+65  -4.32996e+66
  -2.44021e+60  -4.19899e+58  -1.22644e+60   -1.3537e+67  1.10514e+133  1.42221e+197   1.31224e+67  -1.08959e+66  -8.82786e+65  -1.15646e+67   -9.1363e+63    2.8742e+65  -3.55494e+66
  -2.44358e+60  -2.08745e+58  -1.23711e+60  -1.33733e+67  1.39511e+133 -2.81669e+198   1.28411e+67  -1.12428e+66  -8.47986e+65   -1.1401e+67  -6.64688e+64   -1.0436e+65   -3.0778e+66
    -1.947e+60  -3.68473e+58  -1.59514e+60  -9.51748e+66 -3.97722e+133 -3.42963e+199   1.14173e+67   1.14383e+66   1.46559e+66  -1.21269e+67  -1.72934e+65  -3.88755e+63  -3.12642e+66
  -1.93583e+60  -7.37724e+58  -1.58105e+60  -9.80787e+66 -4.30731e+133 -3.86847e+199   1.18012e+67   1.11011e+66   1.40385e+66  -1.23218e+67   1.82205e+65   6.85697e+65  -3.62651e+66
  -2.45913e+60  -4.51728e+58  -1.68939e+60  -1.74998e+67  4.38603e+133  -2.9344e+199   1.61983e+67  -1.93209e+66  -1.61062e+66  -1.39571e+67   2.56065e+64   7.52294e+65  -2.85149e+66
  -2.46177e+60  -2.28439e+58  -1.70206e+60   -1.7324e+67  4.63144e+133 -3.38561e+199   1.59313e+67  -1.96418e+66  -1.57323e+66  -1.37865e+67   -3.1726e+64   6.27091e+64  -2.35361e+66
  -2.44021e+60   4.19899e+58  -1.22644e+60  -4.17678e+66 -2.28058e+133 -1.87569e+199   6.34439e+66   9.00371e+65   1.10718e+66  -6.18433e+66    9.1363e+63  -1.60403e+65  -3.37068e+66
  -2.44358e+60   2.08745e+58  -1.23711e+60  -3.83482e+66 -1.99678e+133  -1.6606e+199   5.88843e+66   9.03586e+65   1.17988e+66  -5.91828e+66   6.64688e+64   1.70553e+65  -2.94447e+66
  -2.97086e+60   1.38152e+58  -1.29112e+60  -9.33034e+66  7.80467e+132 -1.35784e+198   8.90228e+66  -1.59335e+66  -6.50374e+65  -7.08662e+66  -5.27549e+64   7.38803e+64  -3.02056e+66
   -2.9745e+60   2.79254e+58  -1.28249e+60  -9.69373e+66   6.5192e+132  4.00066e+197   9.35143e+66  -1.60888e+66   -7.2763e+65  -7.35722e+66   1.29164e+65  -2.57076e+65  -3.42913e+66
  -2.45913e+60   4.51728e+58  -1.68939e+60  -3.53748e+66 -2.03648e+133 -1.86069e+199   5.73398e+66   1.03629e+66   1.35776e+66  -5.93152e+66  -2.56065e+64  -5.17031e+65   -2.7025e+66
  -2.46177e+60   2.28439e+58  -1.70206e+60  -3.09813e+66  -1.7752e+133 -1.61803e+199   5.22976e+66   1.06021e+66   1.45116e+66  -5.60949e+66    3.1726e+64   5.31766e+64  -2.28018e+66
  -2.97499e+60   1.12934e+58  -1.75446e+60  -9.91474e+66  1.65526e+133 -7.45019e+198   9.04153e+66  -1.71759e+66  -1.13845e+66  -7.05869e+66  -8.36172e+64  -6.11334e+64  -2.35626e+66
  -2.97928e+60    2.1553e+58   -1.7442e+60  -1.03755e+67  1.62211e+133  -5.4765e+198   9.56191e+66  -1.75382e+66  -1.23641e+66  -7.38528e+66   9.83014e+64  -6.31341e+65  -2.76095e+66
  -2.44358e+60   2.08745e+58  -1.23711e+60  -3.89765e+66 -1.97583e+133 -1.60243e+199   5.91185e+66   8.90228e+65   1.14376e+66  -5.93164e+66   -3.2125e+64  -2.01719e+65  -2.94447e+66
  -2.44487e+60  -1.08866e+47   -1.2399e+60  -3.82993e+66 -1.93201e+133 -1.57005e+199   5.82996e+66   8.90086e+65   1.15816e+66  -5.87818e+66   6.09159e+64   1.31793e+65  -2.87922e+66
  -2.96983e+60  -9.82474e+46  -1.29349e+60  -9.31653e+66  8.47691e+132 -1.72503e+198   8.84991e+66   -1.5966e+66  -6.75306e+65  -7.04462e+66    -4.869e+64   1.12261e+65  -2.93105e+66
  -2.97086e+60   1.38152e+58  -1.29112e+60  -9.40728e+66  8.30786e+132 -1.39627e+198   8.95484e+66  -1.60971e+66    -6.946e+65  -7.10298e+66   7.04494e+64  -2.21251e+65  -3.02056e+66
  -2.46177e+60   2.28439e+58  -1.70206e+60  -2.96379e+66 -1.83528e+133 -1.75356e+199    5.2093e+66   1.08877e+66   1.52838e+66  -5.58093e+66  -3.93939e+64  -4.58252e+65  -2.28018e+66
  -2.46291e+60  -1.75231e+47  -1.70391e+60  -3.02998e+66 -1.77579e+133 -1.64672e+199   5.19025e+66   1.06015e+66   1.51431e+66  -5.60445e+66   5.36469e+64   8.74402e+64  -2.21909e+66
  -2.97389e+60  -1.69786e+47  -1.75641e+60  -9.68818e+66  1.52257e+133 -6.50204e+198   8.86765e+66  -1.67562e+66  -9.92598e+65  -7.01997e+66  -5.17866e+64   9.21595e+64  -2.27093e+66
  -2.97499e+60   1.12934e+58  -1.75446e+60  -9.64503e+66  1.43798e+133 -5.45416e+198    8.8683e+66  -1.66025e+66  -9.83423e+65  -7.00135e+66   6.73528e+64  -4.53532e+65  -2.35626e+66
  -2.44487e+60  -1.08866e+47   -1.2399e+60  -3.82993e+66 -1.93201e+133 -1.57005e+199   5.82996e+66   8.90086e+65   1.15816e+66  -5.87818e+66  -6.09159e+64  -1.31793e+65  -2.87922e+66
  -2.44358e+60  -2.08745e+58  -1.23711e+60  -3.89765e+66 -1.97583e+133 -1.60243e+199   5.91185e+66   8.90228e+65   1.14376e+66  -5.93164e+66    3.2125e+64   2.01719e+65  -2.94447e+66
  -2.97086e+60  -1.38152e+58  -1.29112e+60  -9.40728e+66  8.30786e+132 -1.39627e+198   8.95484e+66  -1.60971e+66    -6.946e+65  -7.10298e+66  -7.04494e+64   2.21251e+65  -3.02056e+66
  -2.96983e+60  -9.82474e+46  -1.29349e+60  -9.31653e+66  8.47691e+132 -1.72503e+198   8.84991e+66   -1.5966e+66  -6.75306e+65  -7.04462e+66     4.869e+64  -1.12261e+65  -2.93105e+66
  -2.46291e+60  -1.75231e+47  -1.70391e+60  -3.02998e+66 -1.77579e+133 -1.64672e+199   5.19025e+66   1.06015e+66   1.51431e+66  -5.60445e+66  -5.36469e+64  -8.74402e+64  -2.21909e+66
  -2.46177e+60  -2.28439e+58  -1.70206e+60  -2.96379e+66 -1.83528e+133 -1.75356e+199    5.2093e+66   1.08877e+66   1.52838e+66  -5.58093e+66   3.93939e+64   4.58252e+65  -2.28018e+66
  -2.97499e+60  -1.12934e+58  -1.75446e+60  -9.64503e+66  1.43798e+133 -5.45416e+198    8.8683e+66  -1.66025e+66  -9.83423e+65  -7.00135e+66  -6.73528e+64   4.53532e+65  -2.35626e+66
  -2.97389e+60  -1.69786e+47  -1.75641e+60  -9.68818e+66  1.52257e+133 -6.50204e+198   8.86765e+66  -1.67562e+66  -9.92598e+65  -7.01997e+66   5.17866e+64  -9.21595e+64  -2.27093e+66
  -2.44358e+60  -2.08745e+58  -1.23711e+60  -3.83482e+66 -1.99678e+133  -1.6606e+199   5.88843e+66   9.03586e+65   1.17988e+66  -5.91828e+66  -6.64688e+64  -1.70553e+65  -2.94447e+66
  -2.44021e+60  -4.19899e+58  -1.22644e+60  -4.17678e+66 -2.28058e+133 -1.87569e+199   6.34439e+66   9.00371e+65   1.10718e+66  -6.18433e+66   -9.1363e+63   1.60403e+65  -3.37068e+66
   -2.9745e+60  -2.79254e+58  -1.28249e+60  -9.69373e+66   6.5192e+132  4.00066e+197   9.35143e+66  -1.60888e+66   -7.2763e+65  -7.35722e+66  -1.29164e+65   2.57076e+65  -3.42913e+66
  -2.97086e+60  -1.38152e+58  -1.29112e+60  -9.33034e+66  7.80467e+132 -1.35784e+198   8.90228e+66  -1.59335e+66  -6.50374e+65  -7.08662e+66   5.27549e+64  -7.38803e+64  -3.02056e+66
  -2.46177e+60  -2.28439e+58  -1.70206e+60  -3.09813e+66  -1.7752e+133 -1.61803e+199   5.22976e+66   1.06021e+66   1.45116e+66  -5.60949e+66   -3.1726e+64  -5.31766e+64  -2.28018e+66
  -2.45913e+60  -4.51728e+58  -1.68939e+60  -3.53748e+66 -2.03648e+133 -1.86069e+199   5.73398e+66   1.03629e+66   1.35776e+66  -5.93152e+66   2.56065e+64   5.17031e+65   -2.7025e+66
  -2.97928e+60   -2.1553e+58   -1.7442e+60  -1.03755e+67  1.62211e+133  -5.4765e+198   9.56191e+66  -1.75382e+66  -1.23641e+66  -7.38528e+66  -9.83014e+64   6.31341e+65  -2.76095e+66
  -2.97499e+60  -1.12934e+58  -1.75446e+60  -9.91474e+66  1.65526e+133 -7.45019e+198   9.04153e+66  -1.71759e+66  -1.13845e+66  -7.05869e+66   8.36172e+64   6.11334e+64  -2.35626e+66
   -2.9745e+60   2.79254e+58  -1.28249e+60  -1.54018e+66 -6.35917e+132  -3.6927e+198   2.95488e+66   1.24553e+65    1.0058e+66  -2.67054e+66   1.29164e+65  -1.14552e+65  -1.85364e+66
  -2.97086e+60   1.38152e+58  -1.29112e+60  -1.32763e+66 -5.21063e+132 -2.79389e+198   2.64068e+66   1.08017e+65   1.05099e+66  -2.48663e+66  -5.27549e+64   1.48627e+65  -1.55475e+66
  -3.46711e+60   8.33802e+57  -1.31445e+60  -5.09245e+66  2.28242e+132  -1.3461e+197   4.86319e+66  -1.52966e+66  -2.75763e+65  -3.28703e+66  -1.54095e+65   7.92704e+64  -2.01093e+66
  -3.47544e+60   1.68775e+58  -1.30729e+60  -5.58882e+66  2.64266e+132 -7.68392e+196   5.34717e+66  -1.67626e+66   -3.8129e+65  -3.53127e+66   1.09595e+65  -1.83909e+65  -2.28394e+66
  -2.97928e+60    2.1553e+58   -1.7442e+60  -1.68679e+65 -3.64221e+132 -2.32103e+198    1.9159e+66   4.16132e+65   9.33544e+65  -1.51836e+66   9.83014e+64  -2.39541e+65   -1.3836e+66
  -2.97499e+60   1.12934e+58  -1.75446e+60   1.86779e+65 -2.67715e+132 -1.82188e+198   1.64683e+66   4.29977e+65   1.00911e+66  -1.25231e+66  -8.36172e+64    1.0541e+65  -1.13611e+66
  -3.46238e+60   3.26811e+57  -1.76813e+60  -4.02957e+66  2.24055e+132  -1.1065e+197   3.74124e+66  -1.30369e+66  -5.77177e+65   -2.1487e+66  -1.33559e+65   1.01737e+64  -1.59229e+66
  -3.47028e+60   6.22619e+57  -1.75989e+60  -4.66883e+66   3.0663e+132  9.88371e+196   4.32801e+66  -1.48067e+66  -7.13084e+65  -2.47508e+66   1.30131e+65  -3.34777e+65   -1.8139e+66
  -2.97086e+60   1.38152e+58  -1.29112e+60  -1.40457e+66 -5.10074e+132 -2.62203e+198   2.65961e+66   9.16598e+64   1.00676e+66  -2.50299e+66   7.04494e+64  -1.46504e+65  -1.55475e+66
  -2.96983e+60  -9.82474e+46  -1.29349e+60  -1.35921e+66 -4.90158e+132 -2.49157e+198   2.59789e+66   9.51102e+64   1.01641e+66  -2.47073e+66    -4.869e+64   1.12261e+65  -1.49567e+66
   -3.4644e+60  -8.38804e+46  -1.31658e+60  -5.04874e+66  2.55158e+132 -2.29608e+197   4.78938e+66  -1.50811e+66  -2.85509e+65  -3.25511e+66  -1.27873e+65   1.00949e+65  -1.92117e+66
  -3.46711e+60   8.33802e+57  -1.31445e+60  -5.14501e+66   2.4814e+132  -1.6729e+197   4.89794e+66  -1.54083e+66  -3.05978e+65  -3.29821e+66    1.1165e+65  -1.57816e+65  -2.01093e+66
  -2.97499e+60   1.12934e+58  -1.75446e+60   4.56488e+65 -2.78379e+132 -2.17133e+198   1.72979e+66   4.87317e+65   1.16414e+66  -1.19497e+66   6.73528e+64  -2.86989e+65  -1.13611e+66
  -2.97389e+60  -1.69786e+47  -1.75641e+60   3.32452e+65 -2.68041e+132 -1.98459e+198   1.67061e+66   4.54754e+65   1.13777e+66  -1.26008e+66  -5.17866e+64   9.21595e+64  -1.08625e+66
   -3.4598e+60   -1.5935e+47  -1.77049e+60   -4.0218e+66  2.40501e+132 -2.02085e+197   3.71078e+66  -1.28979e+66  -5.46231e+65  -2.18578e+66  -1.21748e+65   1.11526e+65  -1.51175e+66
  -3.46238e+60   3.26811e+57  -1.76813e+60  -3.94869e+66  1.93517e+132  1.12348e+197   3.69553e+66  -1.28649e+66  -5.30687e+65  -2.13151e+66   1.17775e+65  -2.67622e+65  -1.59229e+66
  -2.96983e+60  -9.82474e+46  -1.29349e+60  -1.35921e+66 -4.90158e+132 -2.49157e+198   2.59789e+66   9.51102e+64   1.01641e+66  -2.47073e+66     4.869e+64  -1.12261e+65  -1.49567e+66
  -2.97086e+60  -1.38152e+58  -1.29112e+60  -1.40457e+66 -5.10074e+132 -2.62203e+198   2.65961e+66   9.16598e+64   1.00676e+66  -2.50299e+66  -7.04494e+64   1.46504e+65  -1.55475e+66
  -3.46711e+60  -8.33802e+57  -1.31445e+60  -5.14501e+66   2.4814e+132  -1.6729e+197   4.89794e+66  -1.54083e+66  -3.05978e+65  -3.29821e+66   -1.1165e+65   1.57816e+65  -2.01093e+66
   -3.4644e+60  -8.38804e+46  -1.31658e+60  -5.04874e+66  2.55158e+132 -2.29608e+197   4.78938e+66  -1.50811e+66  -2.85509e+65  -3.25511e+66   1.27873e+65  -1.00949e+65  -1.92117e+66
  -2.97389e+60  -1.69786e+47  -1.75641e+60   3.32452e+65 -2.68041e+132 -1.98459e+198   1.67061e+66   4.54754e+65   1.13777e+66  -1.26008e+66   5.17866e+64  -9.21595e+64  -1.08625e+66
  -2.97499e+60  -1.12934e+58  -1.75446e+60   4.56488e+65 -2.78379e+132 -2.17133e+198   1.72979e+66   4.87317e+65   1.16414e+66  -1.19497e+66  -6.73528e+64   2.86989e+65  -1.13611e+66
  -3.46238e+60  -3.26811e+57  -1.76813e+60  -3.94869e+66  1.93517e+132  1.12348e+197   3.69553e+66  -1.28649e+66  -5.30687e+65  -2.13151e+66  -1.17775e+65   2.67622e+65  -1.59229e+66
   -3.4598e+60   -1.5935e+47  -1.77049e+60   -4.0218e+66  2.40501e+132 -2.02085e+197   3.71078e+66  -1.28979e+66  -5.46231e+65  -2.18578e+66   1.21748e+65  -1.11526e+65  -1.51175e+66
  -2.97086e+60  -1.38152e+58  -1.29112e+60  -1.32763e+66 -5.21063e+132 -2.79389e+198   2.64068e+66   1.08017e+65   1.05099e+66  -2.48663e+66   5.27549e+64  -1.48627e+65  -1.55475e+66
   -2.9745e+60  -2.79254e+58  -1.28249e+60  -1.54018e+66 -6.35917e+132  -3.6927e+198   2.95488e+66   1.24553e+65    1.0058e+66  -2.67054e+66  -1.29164e+65   1.14552e+65  -1.85364e+66
  -3.47544e+60  -1.68775e+58  -1.30729e+60  -5.58882e+66  2.64266e+132 -7.68392e+196   5.34717e+66  -1.67626e+66   -3.8129e+65  -3.53127e+66  -1.09595e+65   1.83909e+65  -2.28394e+66
  -3.46711e+60  -8.33802e+57  -1.31445e+60  -5.09245e+66  2.28242e+132  -1.3461e+197   4.86319e+66  -1.52966e+66  -2.75763e+65  -3.28703e+66   1.54095e+65  -7.92704e+64  -2.01093e+66
  -2.97499e+60  -1.12934e+58  -1.75446e+60   1.86779e+65 -2.67715e+132 -1.82188e+198   1.64683e+66   4.29977e+65   1.00911e+66  -1.25231e+66   8.36172e+64   -1.0541e+65  -1.13611e+66
  -2.97928e+60   -2.1553e+58   -1.7442e+60  -1.68679e+65 -3.64221e+132 -2.32103e+198    1.9159e+66   4.16132e+65   9.33544e+65  -1.51836e+66  -9.83014e+64   2.39541e+65   -1.3836e+66
  -3.47028e+60  -6.22619e+57  -1.75989e+60  -4.66883e+66   3.0663e+132  9.88371e+196   4.32801e+66  -1.48067e+66  -7.13084e+65  -2.47508e+66  -1.30131e+65   3.34777e+65   -1.8139e+66
  -3.46238e+60  -3.26811e+57  -1.76813e+60  -4.02957e+66  2.24055e+132  -1.1065e+197   3.74124e+66  -1.30369e+66  -5.77177e+65   -2.1487e+66   1.33559e+65  -1.01737e+64  -1.59229e+66
  -3.47544e+60   1.68775e+58  -1.30729e+60  -4.08762e+65 -5.32162e+131  2.41758e+197    8.3621e+65  -5.74984e+65   7.19982e+65  -5.53759e+65   1.09595e+65  -1.29717e+65  -9.51442e+64
  -3.46711e+60   8.33802e+57  -1.31445e+60  -2.86781e+65 -5.42452e+131  2.18516e+197   7.90377e+65  -5.07979e+65   7.45914e+65  -5.24716e+65  -1.54095e+65   1.22032e+65   7.58057e+63
  -3.92064e+60   3.76596e+57  -1.31936e+60   -4.3855e+65 -1.76063e+131  2.42845e+196   6.06951e+65  -9.17169e+64   2.10149e+65  -5.56982e+65  -1.59758e+65   1.20477e+65   -2.2536e+65
  -3.93006e+60   6.97678e+57  -1.31223e+60  -7.02601e+65 -9.26914e+130  1.95276e+196   7.65728e+65  -2.40385e+65   1.54012e+65  -6.16229e+65   5.53686e+64  -1.31272e+65  -2.97651e+65
  -3.47028e+60   6.22619e+57  -1.75989e+60  -7.46599e+65 -7.09972e+130  2.00315e+196   7.92721e+65  -6.46808e+65   1.20777e+65  -2.20568e+65   1.30131e+65  -7.56418e+64  -2.93679e+65
  -3.46238e+60   3.26811e+57  -1.76813e+60  -4.56574e+65 -1.45985e+131  1.87837e+196   5.95352e+65  -5.44077e+65   1.82436e+65  -9.49329e+64  -1.33559e+65   1.27544e+65  -2.16683e+65
  -3.92065e+60  -2.27286e+57  -1.76811e+60  -3.40184e+65 -1.91119e+131  5.05816e+196   5.53935e+65  -7.08044e+64  -1.99191e+65  -7.01887e+64  -1.13492e+65   9.55557e+64  -4.49624e+65
  -3.92909e+60  -3.61555e+57  -1.76055e+60   -7.7228e+65 -7.03699e+130  7.10155e+196    8.1657e+65  -2.55198e+65  -2.91054e+65  -2.26028e+65   1.01634e+65   -1.0763e+65  -4.96186e+65
  -3.46711e+60   8.33802e+57  -1.31445e+60  -3.39346e+65 -5.02647e+131  2.12432e+197   7.86004e+65  -5.19154e+65     7.157e+65  -5.35892e+65    1.1165e+65  -1.15054e+65   7.58057e+63
   -3.4644e+60  -8.38804e+46  -1.31658e+60  -3.08526e+65 -5.06437e+131  2.04134e+197   7.75645e+65  -5.00353e+65   7.22252e+65  -5.30426e+65  -1.27873e+65   1.00949e+65   2.85141e+64
  -3.91771e+60  -6.77505e+46   -1.3215e+60  -3.14278e+65 -2.04991e+131  1.61085e+196   5.51146e+65  -7.16534e+64   2.89024e+65  -5.31648e+65  -1.38229e+65   1.01492e+65  -1.98264e+65
  -3.92064e+60   3.76596e+57  -1.31936e+60  -2.93729e+65 -2.25726e+131  1.42763e+196   5.58572e+65  -6.09281e+64   2.93393e+65  -5.26194e+65   1.47069e+65  -1.14511e+65   -2.2536e+65
  -3.46238e+60   3.26811e+57  -1.76813e+60  -3.75693e+65 -1.80853e+131  1.92699e+196   5.67449e+65  -5.26882e+65   2.28926e+65  -7.77379e+64   1.17775e+65  -1.50252e+65  -2.16683e+65
   -3.4598e+60   -1.5935e+47  -1.77049e+60    -3.789e+65 -1.53279e+131  1.57004e+196   5.44834e+65  -5.15314e+65   2.28245e+65  -9.18309e+64  -1.21748e+65   1.11526e+65  -1.86447e+65
  -3.91766e+60  -1.45033e+47  -1.77061e+60  -6.37413e+65   -8.355e+130  7.13086e+196   6.99889e+65  -1.40351e+65  -3.50271e+65   -1.4679e+65  -1.41408e+65   1.18232e+65  -4.13225e+65
  -3.92065e+60  -2.27286e+57  -1.76811e+60  -5.82836e+65 -1.45876e+131  8.70355e+196   6.96831e+65  -1.22392e+65  -3.38668e+65  -1.21776e+65   1.43891e+65  -1.43547e+65  -4.49624e+65
   -3.4644e+60  -8.38804e+46  -1.31658e+60  -3.08526e+65 -5.06437e+131  2.04134e+197   7.75645e+65  -5.00353e+65   7.22252e+65  -5.30426e+65   1.27873e+65  -1.00949e+65   2.85141e+64
  -3.46711e+60  -8.33802e+57  -1.31445e+60  -3.39346e+65 -5.02647e+131  2.12432e+197   7.86004e+65  -5.19154e+65     7.157e+65  -5.35892e+65   -1.1165e+65   1.15054e+65   7.58057e+63
  -3.92064e+60  -3.76596e+57  -1.31936e+60  -2.93729e+65 -2.25726e+131  1.42763e+196   5.58572e+65  -6.09281e+64   2.93393e+65  -5.26194e+65  -1.47069e+65   1.14511e+65   -2.2536e+65
  -3.91771e+60  -6.77505e+46   -1.3215e+60  -3.14278e+65 -2.04991e+131  1.61085e+196   5.51146e+65  -7.16534e+64   2.89024e+65  -5.31648e+65   1.38229e+65  -1.01492e+65  -1.98264e+65
   -3.4598e+60   -1.5935e+47  -1.77049e+60    -3.789e+65 -1.53279e+131  1.57004e+196   5.44834e+65  -5.15314e+65   2.28245e+65  -9.18309e+64   1.21748e+65  -1.11526e+65  -1.86447e+65
  -3.46238e+60  -3.26811e+57  -1.76813e+60  -3.75693e+65 -1.80853e+131  1.92699e+196   5.67449e+65  -5.26882e+65   2.28926e+65  -7.77379e+64  -1.17775e+65   1.50252e+65  -2.16683e+65
  -3.92065e+60   2.27286e+57  -1.76811e+60  -5.82836e+65 -1.45876e+131  8.70355e+196   6.96831e+65  -1.22392e+65  -3.38668e+65  -1.21776e+65  -1.43891e+65   1.43547e+65  -4.49624e+65
  -3.91766e+60  -1.45033e+47  -1.77061e+60  -6.37413e+65   -8.355e+130  7.13086e+196   6.99889e+65  -1.40351e+65  -3.50271e+65   -1.4679e+65   1.41408e+65  -1.18232e+65  -4.13225e+65
  -3.46711e+60  -8.33802e+57  -1.31445e+60  -2.86781e+65 -5.42452e+131  2.18516e+197   7.90377e+65  -5.07979e+65   7.45914e+65  -5.24716e+65   1.54095e+65  -1.22032e+65   7.58057e+63
  -3.47544e+60  -1.68775e+58  -1.30729e+60  -4.08762e+65 -5.32162e+131  2.41758e+197    8.3621e+65  -5.74984e+65   7.19982e+65  -5.53759e+65  -1.09595e+65   1.29717e+65  -9.51442e+64
  -3.93006e+60  -6.97678e+57  -1.31223e+60  -7.02601e+65 -9.26914e+130  1.95276e+196   7.65728e+65  -2.40385e+65   1.54012e+65  -6.16229e+65  -5.53686e+64   1.31272e+65  -2.97651e+65
  -3.92064e+60  -3.76596e+57  -1.31936e+60   -4.3855e+65 -1.76063e+131  2.42845e+196   6.06951e+65  -9.17169e+64   2.10149e+65  -5.56982e+65   1.59758e+65  -1.20477e+65   -2.2536e+65
  -3.46238e+60  -3.26811e+57  -1.76813e+60  -4.56574e+65 -1.45985e+131  1.87837e+196   5.95352e+65  -5.44077e+65   1.82436e+65  -9.49329e+64   1.33559e+65  -1.27544e+65  -2.16683e+65
  -3.47028e+60  -6.22619e+57  -1.75989e+60  -7.46599e+65 -7.09972e+130  2.00315e+196   7.92721e+65  -6.46808e+65   1.20777e+65  -2.20568e+65  -1.30131e+65   7.56418e+64  -2.93679e+65
  -3.92909e+60   3.61555e+57  -1.76055e+60   -7.7228e+65 -7.03699e+130  7.10155e+196    8.1657e+65  -2.55198e+65  -2.91054e+65  -2.26028e+65  -1.01634e+65    1.0763e+65  -4.96186e+65
  -3.92065e+60   2.27286e+57  -1.76811e+60  -3.40184e+65 -1.91119e+131  5.05816e+196   5.53935e+65  -7.08044e+64  -1.99191e+65  -7.01887e+64   1.13492e+65  -9.55557e+64  -4.49624e+65
   -8.8855e+59   5.86145e+58  -5.59638e+59  -9.95512e+66 -1.14725e+134 -6.50379e+199   1.46229e+67   2.79412e+66   6.15822e+65  -1.33651e+67  -4.36413e+65  -1.38664e+65  -8.40607e+66
  -9.14486e+59    2.9698e+58   -5.6501e+59  -9.96514e+66  -1.0584e+134 -5.91446e+199   1.43229e+67   2.78913e+66   6.13691e+65   -1.3368e+67   3.86536e+65   4.28158e+64  -7.86842e+66
  -1.37027e+60   2.52329e+58  -6.84066e+59  -1.36571e+67  -4.0759e+133  2.66356e+199   1.50756e+67   1.02995e+66  -5.34166e+65  -1.41529e+67   3.05865e+65   4.32003e+64  -5.75297e+66
   -1.3506e+60    5.0308e+58  -6.78686e+59  -1.35659e+67 -4.92322e+133  2.95372e+199   1.52731e+67   1.08157e+66  -5.14789e+65  -1.41327e+67  -3.10312e+65  -1.38279e+65  -6.36787e+66
   -9.4052e+59   9.37887e+58  -8.43761e+59  -1.66654e+67 -1.03654e+134 -7.28531e+199   1.95292e+67   1.36752e+66   8.35125e+65   -1.8868e+67  -4.37843e+65  -3.19234e+65  -7.93362e+66
  -9.66426e+59   4.74531e+58  -8.54246e+59   -1.7102e+67 -9.21949e+133 -5.60537e+199   1.96131e+67   1.27184e+66     7.423e+65  -1.91162e+67   3.85105e+65   6.90173e+64  -7.38128e+66
   -1.4119e+60    3.8429e+58  -1.01808e+60  -2.19357e+67  9.03649e+132  1.50871e+199   2.17287e+67  -7.30068e+65  -1.06183e+66  -2.01438e+67   2.89743e+65   1.46659e+65  -5.26583e+66
  -1.39257e+60   7.65465e+58  -1.00595e+60   -2.1418e+67  -3.7584e+132  2.31822e+199   2.15055e+67  -5.87754e+65  -9.51764e+65  -1.98784e+67  -3.26434e+65  -2.41593e+65  -5.89543e+66
  -9.14486e+59    2.9698e+58   -5.6501e+59  -9.76126e+66 -1.07542e+134 -7.13456e+199   1.42417e+67   2.83247e+66    7.3088e+65  -1.33246e+67  -4.43793e+65  -1.53029e+65  -7.86842e+66
  -9.22848e+59  -5.89192e+46  -5.66236e+59  -9.83779e+66 -1.05068e+134 -6.78564e+199   1.42074e+67   2.81978e+66   7.14611e+65  -1.33722e+67   3.95032e+65   5.79214e+64  -7.72408e+66
  -1.37671e+60  -6.07548e+46  -6.85623e+59   -1.3739e+67 -3.84199e+133  2.54277e+199   1.50725e+67    9.9927e+65  -5.36677e+65  -1.42016e+67   3.04187e+65   7.35719e+64  -5.58714e+66
  -1.37027e+60   2.52329e+58  -6.84066e+59  -1.36159e+67 -4.12184e+133  2.53139e+199   1.50536e+67    1.0387e+66  -5.10515e+65  -1.41441e+67   -3.1925e+65  -1.37378e+65  -5.75297e+66
  -9.66426e+59   4.74531e+58  -8.54246e+59  -1.68105e+67 -9.63161e+133 -7.11625e+199   1.94656e+67   1.33382e+66   9.09881e+65  -1.90542e+67  -4.42002e+65   -3.1492e+65  -7.38128e+66
  -9.74826e+59   -9.6298e+46  -8.56604e+59  -1.70056e+67 -9.27856e+133 -6.45847e+199   1.95442e+67   1.29592e+66   8.68395e+65  -1.91699e+67   3.96824e+65   1.11419e+65  -7.22851e+66
   -1.4182e+60  -1.08381e+47  -1.02122e+60  -2.20961e+67  1.21386e+133  1.22164e+199   2.18197e+67  -7.77445e+65  -1.06652e+66  -2.02522e+67   2.97552e+65    1.4855e+65  -5.09158e+66
   -1.4119e+60    3.8429e+58  -1.01808e+60  -2.18545e+67  7.58858e+132  1.48245e+199   2.16801e+67  -7.12797e+65  -1.01514e+66  -2.01265e+67  -3.25886e+65  -2.77788e+65  -5.26583e+66
  -9.22848e+59  -5.89192e+46  -5.66236e+59  -9.83779e+66 -1.05068e+134 -6.78564e+199   1.42074e+67   2.81978e+66   7.14611e+65  -1.33722e+67  -3.95032e+65  -5.79214e+64  -7.72408e+66
  -9.14486e+59   -2.9698e+58   -5.6501e+59  -9.76126e+66 -1.07542e+134 -7.13456e+199   1.42417e+67   2.83247e+66    7.3088e+65  -1.33246e+67   4.43793e+65   1.53029e+65  -7.86842e+66
  -1.37027e+60  -2.52329e+58  -6.84066e+59  -1.36159e+67 -4.12184e+133  2.53139e+199   1.50536e+67    1.0387e+66  -5.10515e+65  -1.41441e+67    3.1925e+65   1.37378e+65  -5.75297e+66
  -1.37671e+60  -6.07548e+46  -6.85623e+59   -1.3739e+67 -3.84199e+133  2.54277e+199   1.50725e+67    9.9927e+65  -5.36677e+65  -1.42016e+67  -3.04187e+65  -7.35719e+64  -5.58714e+66
  -9.74826e+59   -9.6298e+46  -8.56604e+59  -1.70056e+67 -9.27856e+133 -6.45847e+199   1.95442e+67   1.29592e+66   8.68395e+65  -1.91699e+67  -3.96824e+65  -1.11419e+65  -7.22851e+66
  -9.66426e+59  -4.74531e+58  -8.54246e+59  -1.68105e+67 -9.63161e+133 -7.11625e+199   1.94656e+67   1.33382e+66   9.09881e+65  -1.90542e+67   4.42002e+65    3.1492e+65  -7.38128e+66
   -1.4119e+60   -3.8429e+58  -1.01808e+60  -2.18545e+67  7.58858e+132  1.48245e+199   2.16801e+67  -7.12797e+65  -1.01514e+66  -2.01265e+67   3.25886e+65   2.77788e+65  -5.26583e+66
   -1.4182e+60  -1.08381e+47  -1.02122e+60  -2.20961e+67  1.21386e+133  1.22164e+199   2.18197e+67  -7.77445e+65  -1.06652e+66  -2.02522e+67  -2.97552e+65   -1.4855e+65  -5.09158e+66
  -9.14486e+59   -2.9698e+58   -5.6501e+59  -9.96514e+66  -1.0584e+134 -5.91446e+199   1.43229e+67   2.78913e+66   6.13691e+65   -1.3368e+67  -3.86536e+65  -4.28158e+64  -7.86842e+66
   -8.8855e+59  -5.86145e+58  -5.59638e+59  -9.95512e+66 -1.14725e+134 -6.50379e+199   1.46229e+67   2.79412e+66   6.15822e+65  -1.33651e+67   4.36413e+65   1.38664e+65  -8.40607e+66
   -1.3506e+60   -5.0308e+58  -6.78686e+59  -1.35659e+67 -4.92322e+133  2.95372e+199   1.52731e+67   1.08157e+66  -5.14789e+65  -1.41327e+67   3.10312e+65   1.38279e+65  -6.36787e+66
  -1.37027e+60  -2.52329e+58  -6.84066e+59  -1.36571e+67  -4.0759e+133  2.66356e+199   1.50756e+67   1.02995e+66  -5.34166e+65  -1.41529e+67  -3.05865e+65  -4.32003e+64  -5.75297e+66
  -9.66426e+59  -4.74531e+58  -8.54246e+59   -1.7102e+67 -9.21949e+133 -5.60537e+199   1.96131e+67   1.27184e+66     7.423e+65  -1.91162e+67  -3.85105e+65  -6.90173e+64  -7.38128e+66
   -9.4052e+59  -9.37887e+58  -8.43761e+59  -1.66654e+67 -1.03654e+134 -7.28531e+199   1.95292e+67   1.36752e+66   8.35125e+65   -1.8868e+67   4.37843e+65   3.19234e+65  -7.93362e+66
  -1.39257e+60  -7.65465e+58  -1.00595e+60   -2.1418e+67  -3.7584e+132  2.31822e+199   2.15055e+67  -5.87754e+65  -9.51764e+65  -1.98784e+67   3.26434e+65   2.41593e+65  -5.89543e+66
   -1.4119e+60   -3.8429e+58  -1.01808e+60  -2.19357e+67  9.03649e+132  1.50871e+199   2.17287e+67  -7.30068e+65  -1.06183e+66  -2.01438e+67  -2.89743e+65  -1.46659e+65  -5.26583e+66
   -1.3506e+60    5.0308e+58  -6.78686e+59  -7.79453e+66 -1.16923e+134 -7.83449e+199   1.33296e+67   2.30856e+66     7.122e+65  -1.08153e+67  -3.10312e+65  -8.44576e+64  -9.26249e+66
  -1.37027e+60   2.52329e+58  -6.84066e+59  -7.64623e+66 -1.04744e+134 -7.26115e+199   1.27753e+67   2.30785e+66   7.43728e+65  -1.06978e+67   3.05865e+65    7.8393e+64   -8.5858e+66
  -1.88602e+60   2.15127e+58   -7.8008e+59  -1.22401e+67 -4.31777e+133  2.81167e+199   1.38924e+67  -7.01105e+63  -5.58619e+65  -1.16745e+67   2.01902e+65   3.54142e+64  -7.05288e+66
  -1.87392e+60   4.31408e+58   -7.7561e+59  -1.23139e+67 -5.40731e+133  3.48968e+199   1.43425e+67   3.65017e+64  -5.74318e+65  -1.17761e+67  -1.65652e+65  -1.27436e+65    -7.768e+66
  -1.39257e+60   7.65465e+58  -1.00595e+60  -1.26443e+67 -1.05594e+134 -8.49999e+199   1.62933e+67    1.2775e+66   9.13491e+65  -1.48353e+67  -3.26434e+65  -2.68113e+65  -8.60687e+66
   -1.4119e+60    3.8429e+58  -1.01808e+60  -1.27083e+67 -9.33023e+133 -7.22858e+199   1.59625e+67   1.23167e+66   8.99901e+65  -1.48398e+67   2.89743e+65    1.4336e+65  -7.91669e+66
  -1.91348e+60    2.9335e+58  -1.14654e+60  -1.86749e+67  2.18066e+132  2.23654e+199   1.86165e+67  -1.37505e+66  -1.19155e+66  -1.61083e+67   1.72297e+65   1.38814e+65  -6.38377e+66
  -1.90201e+60    5.8743e+58  -1.13451e+60  -1.85366e+67 -9.81103e+132  3.46877e+199   1.87993e+67  -1.28642e+66  -1.16213e+66   -1.6088e+67  -1.95258e+65  -2.72658e+65  -7.11238e+66
  -1.37027e+60   2.52329e+58  -6.84066e+59  -7.60509e+66 -1.05015e+134  -7.5065e+199   1.27614e+67    2.3166e+66   7.67379e+65  -1.06891e+67   -3.1925e+65  -1.02186e+65   -8.5858e+66
  -1.37671e+60  -6.07548e+46  -6.85623e+59  -7.57897e+66 -1.01664e+134 -7.29157e+199   1.26137e+67   2.30888e+66   7.72931e+65  -1.06608e+67   3.04187e+65   7.35719e+64  -8.39619e+66
  -1.89003e+60   -5.6574e+46  -7.81397e+59  -1.22528e+67 -3.99987e+133  2.69481e+199   1.37888e+67   -2.6152e+64  -5.72238e+65  -1.16544e+67   1.89559e+65   6.22074e+64  -6.85184e+66
  -1.88602e+60   2.15127e+58   -7.8008e+59  -1.22702e+67 -4.28965e+133  2.86488e+199   1.39088e+67   -1.3415e+64  -5.75933e+65  -1.16809e+67  -1.79998e+65   -1.1355e+65  -7.05288e+66
   -1.4119e+60    3.8429e+58  -1.01808e+60   -1.2627e+67 -9.42204e+133 -7.68258e+199   1.59268e+67   1.24894e+66   9.46597e+65  -1.48226e+67  -3.25886e+65  -2.81087e+65  -7.91669e+66
   -1.4182e+60  -1.08381e+47  -1.02122e+60   -1.2664e+67 -9.07724e+133 -7.25172e+199   1.58477e+67    1.2278e+66   9.38733e+65  -1.48306e+67   2.97552e+65    1.4855e+65   -7.7255e+66
  -1.91732e+60  -1.12913e+47  -1.14969e+60  -1.87397e+67  5.64164e+132  1.90791e+199   1.85886e+67  -1.40526e+66  -1.21223e+66  -1.61222e+67   1.81343e+65   1.48614e+65  -6.18115e+66
  -1.91348e+60    2.9335e+58  -1.14654e+60   -1.8694e+67  2.38747e+132  2.22891e+199     1.863e+67  -1.37911e+66  -1.20251e+66  -1.61124e+67  -1.88214e+65  -2.81023e+65  -6.38377e+66
  -1.37671e+60  -6.07548e+46  -6.85623e+59  -7.57897e+66 -1.01664e+134 -7.29157e+199   1.26137e+67   2.30888e+66   7.72931e+65  -1.06608e+67  -3.04187e+65  -7.35719e+64  -8.39619e+66
  -1.37027e+60  -2.52329e+58  -6.84066e+59  -7.60509e+66 -1.05015e+134  -7.5065e+199   1.27614e+67    2.3166e+66   7.67379e+65  -1.06891e+67    3.1925e+65   1.02186e+65   -8.5858e+66
  -1.88602e+60  -2.15127e+58   -7.8008e+59  -1.22702e+67 -4.28965e+133  2.86488e+199   1.39088e+67   -1.3415e+64  -5.75933e+65  -1.16809e+67   1.79998e+65    1.1355e+65  -7.05288e+66
  -1.89003e+60   -5.6574e+46  -7.81397e+59  -1.22528e+67 -3.99987e+133  2.69481e+199   1.37888e+67   -2.6152e+64  -5.72238e+65  -1.16544e+67  -1.89559e+65  -6.22074e+64  -6.85184e+66
   -1.4182e+60  -1.08381e+47  -1.02122e+60   -1.2664e+67 -9.07724e+133 -7.25172e+199   1.58477e+67    1.2278e+66   9.38733e+65  -1.48306e+67  -2.97552e+65   -1.4855e+65   -7.7255e+66
   -1.4119e+60   -3.8429e+58  -1.01808e+60   -1.2627e+67 -9.42204e+133 -7.68258e+199   1.59268e+67   1.24894e+66   9.46597e+65  -1.48226e+67   3.25886e+65   2.81087e+65  -7.91669e+66
  -1.91348e+60   -2.9335e+58  -1.14654e+60   -1.8694e+67  2.38747e+132  2.22891e+199     1.863e+67  -1.37911e+66  -1.20251e+66  -1.61124e+67   1.88214e+65   2.81023e+65  -6.38377e+66
  -1.91732e+60  -1.12913e+47  -1.14969e+60  -1.87397e+67  5.64164e+132  1.90791e+199   1.85886e+67  -1.40526e+66  -1.21223e+66  -1.61222e+67  -1.81343e+65  -1.48614e+65  -6.18115e+66
  -1.37027e+60  -2.52329e+58  -6.84066e+59  -7.64623e+66 -1.04744e+134 -7.26115e+199   1.27753e+67   2.30785e+66   7.43728e+65  -1.06978e+67  -3.05865e+65   -7.8393e+64   -8.5858e+66
   -1.3506e+60   -5.0308e+58  -6.78686e+59  -7.79453e+66 -1.16923e+134 -7.83449e+199   1.33296e+67   2.30856e+66     7.122e+65  -1.08153e+67   3.10312e+65   8.44576e+64  -9.26249e+66
  -1.87392e+60  -4.31408e+58   -7.7561e+59  -1.23139e+67 -5.40731e+133  3.48968e+199   1.43425e+67   3.65017e+64  -5.74318e+65  -1.17761e+67   1.65652e+65   1.27436e+65    -7.768e+66
  -1.88602e+60  -2.15127e+58   -7.8008e+59  -1.22401e+67 -4.31777e+133  2.81167e+199   1.38924e+67  -7.01105e+63  -5.58619e+65  -1.16745e+67  -2.01902e+65  -3.54142e+64  -7.05288e+66
   -1.4119e+60   -3.8429e+58  -1.01808e+60  -1.27083e+67 -9.33023e+133 -7.22858e+199   1.59625e+67   1.23167e+66   8.99901e+65  -1.48398e+67  -2.89743e+65   -1.4336e+65  -7.91669e+66
  -1.39257e+60  -7.65465e+58  -1.00595e+60  -1.26443e+67 -1.05594e+134 -8.49999e+199   1.62933e+67    1.2775e+66   9.13491e+65  -1.48353e+67   3.26434e+65   2.68113e+65  -8.60687e+66
  -1.90201e+60   -5.8743e+58  -1.13451e+60  -1.85366e+67 -9.81103e+132  3.46877e+199   1.87993e+67  -1.28642e+66  -1.16213e+66   -1.6088e+67   1.95258e+65   2.72658e+65  -7.11238e+66
  -1.91348e+60   -2.9335e+58  -1.14654e+60  -1.86749e+67  2.18066e+132  2.23654e+199   1.86165e+67  -1.37505e+66  -1.19155e+66  -1.61083e+67  -1.72297e+65  -1.38814e+65  -6.38377e+66
  -1.87392e+60   4.31408e+58   -7.7561e+59  -5.45668e+66 -1.03736e+134 -8.66385e+199   1.15547e+67   1.49434e+66   8.83522e+65  -7.83454e+66  -1.65652e+65   -5.5931e+64  -9.29495e+66
  -1.88602e+60   2.15127e+58   -7.8008e+59  -5.28845e+66 -9.02117e+133 -7.75919e+199    1.0871e+67    1.4709e+66   9.19288e+65  -7.67863e+66   2.01902e+65   7.38178e+64  -8.55361e+66
  -2.43353e+60   1.86053e+58  -8.49447e+59  -1.05472e+67 -4.10453e+133  2.09631e+199   1.23406e+67  -1.29237e+66  -4.58218e+65  -8.79664e+66   8.02009e+64    1.3745e+64  -7.55183e+66
  -2.42956e+60   3.74871e+58  -8.46248e+59  -1.07249e+67 -5.22344e+133  2.83913e+199   1.29328e+67  -1.27435e+66  -4.95989e+65  -8.95456e+66  -2.53234e+64  -1.16004e+65  -8.28885e+66
  -1.90201e+60    5.8743e+58  -1.13451e+60  -8.98256e+66  -8.8292e+133 -6.95833e+199   1.29992e+67   7.44746e+65   8.69036e+65  -1.05963e+67  -1.95258e+65  -2.23032e+65  -8.47061e+66
  -1.91348e+60    2.9335e+58  -1.14654e+60   -8.7905e+66 -7.62259e+133 -6.14327e+199   1.23895e+67   7.26365e+65   9.09867e+65  -1.04267e+67   1.72297e+65   1.68747e+65  -7.73098e+66
  -2.44358e+60   2.08745e+58  -1.23711e+60  -1.54961e+67  9.38031e+131  2.27149e+199   1.54658e+67   -2.3445e+66   -1.2993e+66  -1.18523e+67   5.23039e+64    1.0436e+65   -6.7292e+66
  -2.44021e+60   4.19899e+58  -1.22644e+60  -1.56976e+67 -8.50293e+132  3.71547e+199   1.59662e+67  -2.33154e+66  -1.34214e+66   -1.2024e+67  -5.32204e+64   -2.8742e+65  -7.46451e+66
  -1.88602e+60   2.15127e+58   -7.8008e+59  -5.31857e+66 -9.00678e+133 -7.61343e+199   1.08791e+67   1.46449e+66   9.01973e+65  -7.68504e+66  -1.79998e+65  -7.51465e+64  -8.55361e+66
  -1.89003e+60   -5.6574e+46  -7.81397e+59   -5.2504e+66 -8.64474e+133 -7.39384e+199   1.06777e+67   1.46255e+66   9.16467e+65  -7.62942e+66   1.89559e+65   6.22074e+64  -8.34251e+66
   -2.4349e+60  -4.55325e+46  -8.50328e+59  -1.05276e+67 -3.76704e+133   2.0401e+199   1.21861e+67  -1.29608e+66  -4.80163e+65  -8.75134e+66   6.48617e+64   4.16443e+64  -7.33698e+66
  -2.43353e+60   1.86053e+58  -8.49447e+59  -1.06193e+67 -4.04611e+133  2.27049e+199   1.23787e+67   -1.3077e+66   -4.9967e+65  -8.81197e+66  -4.23441e+64  -9.57096e+64  -7.55183e+66
  -1.91348e+60    2.9335e+58  -1.14654e+60  -8.80957e+66 -7.61279e+133 -6.09053e+199    1.2399e+67   7.22311e+65   8.98907e+65  -1.04308e+67  -1.88214e+65  -2.51091e+65  -7.73098e+66
  -1.91732e+60  -1.12913e+47  -1.14969e+60  -8.76205e+66 -7.28958e+133 -5.83016e+199   1.22339e+67   7.15981e+65   9.09009e+65   -1.0387e+67   1.81343e+65   1.48614e+65  -7.52415e+66
  -2.44487e+60  -1.08866e+47   -1.2399e+60  -1.54879e+67  3.96923e+132  1.94084e+199   1.53592e+67  -2.35063e+66   -1.3203e+66  -1.18169e+67   6.09159e+64   1.31793e+65  -6.51862e+66
  -2.44358e+60   2.08745e+58  -1.23711e+60   -1.5559e+67  1.61596e+132  2.31365e+199    1.5507e+67  -2.35786e+66  -1.33542e+66  -1.18657e+67  -4.62899e+64  -2.67912e+65   -6.7292e+66
  -1.89003e+60   -5.6574e+46  -7.81397e+59   -5.2504e+66 -8.64474e+133 -7.39384e+199   1.06777e+67   1.46255e+66   9.16467e+65  -7.62942e+66  -1.89559e+65  -6.22074e+64  -8.34251e+66
  -1.88602e+60  -2.15127e+58   -7.8008e+59  -5.31857e+66 -9.00678e+133 -7.61343e+199   1.08791e+67   1.46449e+66   9.01973e+65  -7.68504e+66   1.79998e+65   7.51465e+64  -8.55361e+66
  -2.43353e+60  -1.86053e+58  -8.49447e+59  -1.06193e+67 -4.04611e+133  2.27049e+199   1.23787e+67   -1.3077e+66   -4.9967e+65  -8.81197e+66   4.23441e+64   9.57096e+64  -7.55183e+66
   -2.4349e+60  -4.55325e+46  -8.50328e+59  -1.05276e+67 -3.76704e+133   2.0401e+199   1.21861e+67  -1.29608e+66  -4.80163e+65  -8.75134e+66  -6.48617e+64  -4.16443e+64  -7.33698e+66
  -1.91732e+60  -1.12913e+47  -1.14969e+60  -8.76205e+66 -7.28958e+133 -5.83016e+199   1.22339e+67   7.15981e+65   9.09009e+65   -1.0387e+67  -1.81343e+65  -1.48614e+65  -7.52415e+66
  -1.91348e+60   -2.9335e+58  -1.14654e+60  -8.80957e+66 -7.61279e+133 -6.09053e+199    1.2399e+67   7.22311e+65   8.98907e+65  -1.04308e+67   1.88214e+65   2.51091e+65  -7.73098e+66
  -2.44358e+60  -2.08745e+58  -1.23711e+60   -1.5559e+67  1.61596e+132  2.31365e+199    1.5507e+67  -2.35786e+66  -1.33542e+66  -1.18657e+67   4.62899e+64   2.67912e+65   -6.7292e+66
  -2.44487e+60  -1.08866e+47   -1.2399e+60  -1.54879e+67  3.96923e+132  1.94084e+199   1.53592e+67  -2.35063e+66   -1.3203e+66  -1.18169e+67  -6.09159e+64  -1.31793e+65  -6.51862e+66
  -1.88602e+60  -2.15127e+58   -7.8008e+59  -5.28845e+66 -9.02117e+133 -7.75919e+199    1.0871e+67    1.4709e+66   9.19288e+65  -7.67863e+66  -2.01902e+65  -7.38178e+64  -8.55361e+66
  -1.87392e+60  -4.31408e+58   -7.7561e+59  -5.45668e+66 -1.03736e+134 -8.66385e+199   1.15547e+67   1.49434e+66   8.83522e+65  -7.83454e+66   1.65652e+65    5.5931e+64  -9.29495e+66
  -2.42956e+60  -3.74871e+58  -8.46248e+59  -1.07249e+67 -5.22344e+133  2.83913e+199   1.29328e+67  -1.27435e+66  -4.95989e+65  -8.95456e+66   2.53234e+64   1.16004e+65  -8.28885e+66
  -2.43353e+60  -1.86053e+58  -8.49447e+59  -1.05472e+67 -4.10453e+133  2.09631e+199   1.23406e+67  -1.29237e+66  -4.58218e+65  -8.79664e+66  -8.02009e+64   -1.3745e+64  -7.55183e+66
  -1.91348e+60   -2.9335e+58  -1.14654e+60   -8.7905e+66 -7.62259e+133 -6.14327e+199   1.23895e+67   7.26365e+65   9.09867e+65  -1.04267e+67  -1.72297e+65  -1.68747e+65  -7.73098e+66
  -1.90201e+60   -5.8743e+58  -1.13451e+60  -8.98256e+66  -8.8292e+133 -6.95833e+199   1.29992e+67   7.44746e+65   8.69036e+65  -1.05963e+67   1.95258e+65   2.23032e+65  -8.47061e+66
  -2.44021e+60  -4.19899e+58  -1.22644e+60  -1.56976e+67 -8.50293e+132  3.71547e+199   1.59662e+67  -2.33154e+66  -1.34214e+66   -1.2024e+67   5.32204e+64    2.8742e+65  -7.46451e+66
  -2.44358e+60  -2.08745e+58  -1.23711e+60  -1.54961e+67  9.38031e+131  2.27149e+199   1.54658e+67   -2.3445e+66   -1.2993e+66  -1.18523e+67  -5.23039e+64   -1.0436e+65   -6.7292e+66
  -2.42956e+60   3.74871e+58  -8.46248e+59  -3.16074e+66 -7.36088e+133 -7.65928e+199   9.14325e+66   3.33781e+65   1.11214e+66  -4.60666e+66  -2.53234e+64   -4.8241e+64  -8.20464e+66
  -2.43353e+60   1.86053e+58  -8.49447e+59  -3.05061e+66 -6.20727e+133 -6.51086e+199   8.44861e+66     3.014e+65   1.13555e+66  -4.48756e+66   8.02009e+64   4.82916e+64  -7.48049e+66
  -2.97953e+60   1.64293e+58  -8.90076e+59  -8.46827e+66  -3.0404e+133  6.74544e+198   1.01052e+67  -2.61962e+66    -2.093e+65  -5.63935e+66   -6.0279e+64   4.50146e+62   -6.8485e+66
  -2.98342e+60   3.32678e+58  -8.87891e+59  -8.79806e+66 -3.84893e+133  1.15671e+199   1.07655e+67   -2.7135e+66  -2.79411e+65  -5.80514e+66   6.86205e+64  -9.60824e+64  -7.52381e+66
  -2.44021e+60   4.19899e+58  -1.22644e+60  -6.33743e+66 -5.52865e+133 -3.29627e+199   9.76982e+66  -3.41577e+65   6.47828e+65  -6.64368e+66  -5.32204e+64  -1.60403e+65  -7.28025e+66
  -2.44358e+60   2.08745e+58  -1.23711e+60  -5.95766e+66 -4.63919e+133 -3.03183e+199   9.04907e+66  -3.16635e+65   7.28565e+65  -6.36959e+66   5.23039e+64   1.70553e+65  -6.59588e+66
  -2.97086e+60   1.38152e+58  -1.29112e+60  -1.26698e+67  7.19708e+132  1.12071e+199   1.23825e+67  -3.51285e+66  -1.36033e+66  -7.79657e+66  -4.83956e+64   7.38803e+64  -5.96388e+66
   -2.9745e+60   2.79254e+58  -1.28249e+60  -1.32692e+67  3.64549e+132  2.11137e+199   1.31311e+67  -3.66405e+66  -1.48776e+66  -8.11736e+66   8.05039e+64  -2.57076e+65  -6.59942e+66
  -2.43353e+60   1.86053e+58  -8.49447e+59  -3.12273e+66 -6.18651e+133 -6.26645e+199   8.46265e+66   2.86069e+65    1.0941e+66  -4.50289e+66  -4.23441e+64  -6.11631e+64  -7.48049e+66
   -2.4349e+60  -4.55325e+46  -8.50328e+59  -3.04229e+66 -5.87524e+133 -6.01715e+199   8.24669e+66   2.95279e+65    1.1112e+66  -4.44877e+66   6.48617e+64   4.16443e+64  -7.26756e+66
   -2.9783e+60  -2.96225e+46  -8.90566e+59  -8.42182e+66  -2.7608e+133  7.07423e+198   9.92648e+66  -2.59128e+66  -2.38094e+65  -5.59245e+66  -5.79244e+64   2.31306e+64  -6.63658e+66
  -2.97953e+60   1.64293e+58  -8.90076e+59  -8.57503e+66 -2.97039e+133  8.75807e+198   1.01605e+67  -2.64232e+66  -2.70668e+65  -5.66205e+66   6.55743e+64  -7.96767e+64   -6.8485e+66
  -2.44358e+60   2.08745e+58  -1.23711e+60   -6.0205e+66 -4.60905e+133  -2.8763e+199   9.07396e+66  -3.29992e+65   6.92449e+65  -6.38295e+66  -4.62899e+64  -2.01719e+65  -6.59588e+66
  -2.44487e+60  -1.08866e+47   -1.2399e+60  -5.93443e+66 -4.36329e+133 -2.77137e+199   8.87977e+66  -3.19587e+65   7.10746e+65  -6.32559e+66   6.09159e+64   1.31793e+65  -6.39612e+66
  -2.96983e+60  -9.82474e+46  -1.29349e+60  -1.25879e+67  9.03643e+132  8.79509e+198   1.22236e+67  -3.47697e+66  -1.37078e+66   -7.7401e+66    -4.869e+64   1.12261e+65  -5.76514e+66
  -2.97086e+60   1.38152e+58  -1.29112e+60  -1.27467e+67  7.88172e+132  1.16424e+199   1.24337e+67  -3.52921e+66  -1.40455e+66  -7.81293e+66   7.48087e+64  -2.21251e+65  -5.96388e+66
   -2.4349e+60  -4.55325e+46  -8.50328e+59  -3.04229e+66 -5.87524e+133 -6.01715e+199   8.24669e+66   2.95279e+65    1.1112e+66  -4.44877e+66  -6.48617e+64  -4.16443e+64  -7.26756e+66
  -2.43353e+60  -1.86053e+58  -8.49447e+59  -3.12273e+66 -6.18651e+133 -6.26645e+199   8.46265e+66   2.86069e+65    1.0941e+66  -4.50289e+66   4.23441e+64   6.11631e+64  -7.48049e+66
  -2.97953e+60  -1.64293e+58  -8.90076e+59  -8.57503e+66 -2.97039e+133  8.75807e+198   1.01605e+67  -2.64232e+66  -2.70668e+65  -5.66205e+66  -6.55743e+64   7.96767e+64   -6.8485e+66
   -2.9783e+60  -2.96225e+46  -8.90566e+59  -8.42182e+66  -2.7608e+133  7.07423e+198   9.92648e+66  -2.59128e+66  -2.38094e+65  -5.59245e+66   5.79244e+64  -2.31306e+64  -6.63658e+66
  -2.44487e+60  -1.08866e+47   -1.2399e+60  -5.93443e+66 -4.36329e+133 -2.77137e+199   8.87977e+66  -3.19587e+65   7.10746e+65  -6.32559e+66  -6.09159e+64  -1.31793e+65  -6.39612e+66
  -2.44358e+60  -2.08745e+58  -1.23711e+60   -6.0205e+66 -4.60905e+133  -2.8763e+199   9.07396e+66  -3.29992e+65   6.92449e+65  -6.38295e+66   4.62899e+64   2.01719e+65  -6.59588e+66
  -2.97086e+60  -1.38152e+58  -1.29112e+60  -1.27467e+67  7.88172e+132  1.16424e+199   1.24337e+67  -3.52921e+66  -1.40455e+66  -7.81293e+66  -7.48087e+64   2.21251e+65  -5.96388e+66
  -2.96983e+60  -9.82474e+46  -1.29349e+60  -1.25879e+67  9.03643e+132  8.79509e+198   1.22236e+67  -3.47697e+66  -1.37078e+66   -7.7401e+66     4.869e+64  -1.12261e+65  -5.76514e+66
  -2.43353e+60  -1.86053e+58  -8.49447e+59  -3.05061e+66 -6.20727e+133 -6.51086e+199   8.44861e+66     3.014e+65   1.13555e+66  -4.48756e+66  -8.02009e+64  -4.82916e+64  -7.48049e+66
  -2.42956e+60  -3.74871e+58  -8.46248e+59  -3.16074e+66 -7.36088e+133 -7.65928e+199   9.14325e+66   3.33781e+65   1.11214e+66  -4.60666e+66   2.53234e+64    4.8241e+64  -8.20464e+66
  -2.98342e+60  -3.32678e+58  -8.87891e+59  -8.79806e+66 -3.84893e+133  1.15671e+199   1.07655e+67   -2.7135e+66  -2.79411e+65  -5.80514e+66  -6.86205e+64   9.60824e+64  -7.52381e+66
  -2.97953e+60  -1.64293e+58  -8.90076e+59  -8.46827e+66  -3.0404e+133  6.74544e+198   1.01052e+67  -2.61962e+66    -2.093e+65  -5.63935e+66    6.0279e+64  -4.50146e+62   -6.8485e+66
  -2.44358e+60  -2.08745e+58  -1.23711e+60  -5.95766e+66 -4.63919e+133 -3.03183e+199   9.04907e+66  -3.16635e+65   7.28565e+65  -6.36959e+66  -5.23039e+64  -1.70553e+65  -6.59588e+66
  -2.44021e+60  -4.19899e+58  -1.22644e+60  -6.33743e+66 -5.52865e+133 -3.29627e+199   9.76982e+66  -3.41577e+65   6.47828e+65  -6.64368e+66   5.32204e+64   1.60403e+65  -7.28025e+66
   -2.9745e+60  -2.79254e+58  -1.28249e+60  -1.32692e+67  3.64549e+132  2.11137e+199   1.31311e+67  -3.66405e+66  -1.48776e+66  -8.11736e+66  -8.05039e+64   2.57076e+65  -6.59942e+66
  -2.97086e+60  -1.38152e+58  -1.29112e+60  -1.26698e+67  7.19708e+132  1.12071e+199   1.23825e+67  -3.51285e+66  -1.36033e+66  -7.79657e+66   4.83956e+64  -7.38803e+64  -5.96388e+66
  -2.98342e+60   3.32678e+58  -8.87891e+59   -1.4106e+66   -3.528e+133 -4.09561e+199    6.1049e+66  -1.14294e+66   1.29115e+66  -1.55881e+66   6.86205e+64  -7.91328e+64  -5.79329e+66
  -2.97953e+60   1.64293e+58  -8.90076e+59  -1.34889e+66 -2.84805e+133 -3.26146e+199   5.50455e+66  -1.10605e+66   1.30427e+66  -1.54711e+66   -6.0279e+64   1.22096e+64  -5.16987e+66
     -3.49e+60   1.45021e+58  -9.03415e+59  -5.56273e+66 -1.52485e+133 -3.00098e+198    6.7965e+66   -3.3455e+66   2.25728e+65  -2.44296e+66  -2.11857e+65   1.29171e+64  -4.69784e+66
  -3.50065e+60   2.94072e+58  -9.01214e+59   -6.1632e+66 -1.87176e+133 -1.65782e+198   7.53011e+66  -3.69206e+66   9.80695e+64  -2.56921e+66   8.88797e+64  -7.84253e+64  -5.25121e+66
   -2.9745e+60   2.79254e+58  -1.28249e+60  -5.11562e+66 -1.99533e+133 -4.43328e+198   6.79138e+66  -1.93062e+66   2.45669e+65  -3.43067e+66   8.05039e+64  -1.14552e+65  -5.02393e+66
  -2.97086e+60   1.38152e+58  -1.29112e+60  -4.66703e+66 -1.61745e+133 -4.81309e+198   6.16082e+66  -1.81149e+66   3.41038e+65  -3.19659e+66  -4.83956e+64   1.48627e+65  -4.49807e+66
  -3.46711e+60   8.33802e+57  -1.31445e+60  -9.82971e+66  1.30004e+133 -2.49606e+198   9.14455e+66  -4.25265e+66   -1.2829e+66  -4.29416e+66  -1.02403e+65   7.92704e+64  -4.02605e+66
  -3.47544e+60   1.68775e+58  -1.30729e+60  -1.08171e+67  1.54943e+133 -1.79244e+198   1.00754e+67  -4.68147e+66  -1.49281e+66  -4.64279e+66   1.98333e+65  -1.83909e+65  -4.48184e+66
  -2.97953e+60   1.64293e+58  -8.90076e+59  -1.45566e+66 -2.83185e+133 -3.09593e+199   5.51702e+66  -1.12875e+66    1.2429e+66  -1.56981e+66   6.55743e+64  -6.79173e+64  -5.16987e+66
   -2.9783e+60  -2.96225e+46  -8.90566e+59   -1.3656e+66 -2.65346e+133 -2.92787e+199   5.32912e+66  -1.09114e+66   1.26205e+66  -1.53651e+66  -5.79244e+64   2.31306e+64  -4.98909e+66
  -3.48684e+60  -9.67273e+45  -9.03755e+59  -5.50902e+66 -1.36462e+133 -2.40917e+198   6.63291e+66  -3.29069e+66   1.99066e+65  -2.41739e+66  -1.49566e+65   1.60555e+64  -4.52131e+66
     -3.49e+60   1.45021e+58  -9.03415e+59  -5.66787e+66 -1.47568e+133 -2.10739e+198   6.84701e+66  -3.36785e+66   1.65295e+65  -2.46532e+66    1.4165e+65  -7.49924e+64  -4.69784e+66
  -2.97086e+60   1.38152e+58  -1.29112e+60  -4.74398e+66 -1.58831e+133 -4.10637e+198   6.19584e+66  -1.82784e+66   2.96812e+65  -3.21295e+66   7.48087e+64  -1.46504e+65  -4.49807e+66
  -2.96983e+60  -9.82474e+46  -1.29349e+60  -4.63053e+66 -1.46984e+133 -4.12504e+198   6.01167e+66  -1.78526e+66   3.20931e+65   -3.1662e+66    -4.869e+64   1.12261e+65  -4.32976e+66
   -3.4644e+60  -8.38804e+46  -1.31658e+60  -9.70004e+66   1.3543e+133 -3.39752e+198   8.97483e+66   -4.1817e+66  -1.27437e+66  -4.24397e+66  -1.27873e+65   1.00949e+65  -3.86197e+66
  -3.46711e+60   8.33802e+57  -1.31445e+60  -9.88228e+66  1.33488e+133 -2.39214e+198   9.18208e+66  -4.26383e+66  -1.31311e+66  -4.30534e+66   1.63343e+65  -1.57816e+65  -4.02605e+66
   -2.9783e+60  -2.96225e+46  -8.90566e+59   -1.3656e+66 -2.65346e+133 -2.92787e+199   5.32912e+66  -1.09114e+66   1.26205e+66  -1.53651e+66   5.79244e+64  -2.31306e+64  -4.98909e+66
  -2.97953e+60  -1.64293e+58  -8.90076e+59  -1.45566e+66 -2.83185e+133 -3.09593e+199   5.51702e+66  -1.12875e+66    1.2429e+66  -1.56981e+66  -6.55743e+64   6.79173e+64  -5.16987e+66
     -3.49e+60  -1.45021e+58  -9.03415e+59  -5.66787e+66 -1.47568e+133 -2.10739e+198   6.84701e+66  -3.36785e+66   1.65295e+65  -2.46532e+66   -1.4165e+65   7.49924e+64  -4.69784e+66
  -3.48684e+60  -9.67273e+45  -9.03755e+59  -5.50902e+66 -1.36462e+133 -2.40917e+198   6.63291e+66  -3.29069e+66   1.99066e+65  -2.41739e+66   1.49566e+65  -1.60555e+64  -4.52131e+66
  -2.96983e+60  -9.82474e+46  -1.29349e+60  -4.63053e+66 -1.46984e+133 -4.12504e+198   6.01167e+66  -1.78526e+66   3.20931e+65   -3.1662e+66     4.869e+64  -1.12261e+65  -4.32976e+66
  -2.97086e+60  -1.38152e+58  -1.29112e+60  -4.74398e+66 -1.58831e+133 -4.10637e+198   6.19584e+66  -1.82784e+66   2.96812e+65  -3.21295e+66  -7.48087e+64   1.46504e+65  -4.49807e+66
  -3.46711e+60  -8.33802e+57  -1.31445e+60  -9.88228e+66  1.33488e+133 -2.39214e+198   9.18208e+66  -4.26383e+66  -1.31311e+66  -4.30534e+66  -1.63343e+65   1.57816e+65  -4.02605e+66
   -3.4644e+60  -8.38804e+46  -1.31658e+60  -9.70004e+66   1.3543e+133 -3.39752e+198   8.97483e+66   -4.1817e+66  -1.27437e+66  -4.24397e+66   1.27873e+65  -1.00949e+65  -3.86197e+66
  -2.97953e+60  -1.64293e+58  -8.90076e+59  -1.34889e+66 -2.84805e+133 -3.26146e+199   5.50455e+66  -1.10605e+66   1.30427e+66  -1.54711e+66    6.0279e+64  -1.22096e+64  -5.16987e+66
  -2.98342e+60  -3.32678e+58  -8.87891e+59   -1.4106e+66   -3.528e+133 -4.09561e+199    6.1049e+66  -1.14294e+66   1.29115e+66  -1.55881e+66  -6.86205e+64   7.91328e+64  -5.79329e+66
  -3.50065e+60  -2.94072e+58  -9.01214e+59   -6.1632e+66 -1.87176e+133 -1.65782e+198   7.53011e+66  -3.69206e+66   9.80695e+64  -2.56921e+66  -8.88797e+64   7.84253e+64  -5.25121e+66
     -3.49e+60  -1.45021e+58  -9.03415e+59  -5.56273e+66 -1.52485e+133 -3.00098e+198    6.7965e+66   -3.3455e+66   2.25728e+65  -2.44296e+66   2.11857e+65  -1.29171e+64  -4.69784e+66
  -2.97086e+60  -1.38152e+58  -1.29112e+60  -4.66703e+66 -1.61745e+133 -4.81309e+198   6.16082e+66  -1.81149e+66   3.41038e+65  -3.19659e+66   4.83956e+64  -1.48627e+65  -4.49807e+66
   -2.9745e+60  -2.79254e+58  -1.28249e+60  -5.11562e+66 -1.99533e+133 -4.43328e+198   6.79138e+66  -1.93062e+66   2.45669e+65  -3.43067e+66  -8.05039e+64   1.14552e+65  -5.02393e+66
  -3.47544e+60  -1.68775e+58  -1.30729e+60  -1.08171e+67  1.54943e+133 -1.79244e+198   1.00754e+67  -4.68147e+66  -1.49281e+66  -4.64279e+66  -1.98333e+65   1.83909e+65  -4.48184e+66
  -3.46711e+60  -8.33802e+57  -1.31445e+60  -9.82971e+66  1.30004e+133 -2.49606e+198   9.14455e+66  -4.25265e+66   -1.2829e+66  -4.29416e+66   1.02403e+65  -7.92704e+64  -4.02605e+66
  -3.50065e+60   2.94072e+58  -9.01214e+59  -1.56156e+66  -6.6986e+132 -4.00199e+198   3.02276e+66  -2.71376e+66   1.07637e+66   7.58311e+64   8.88797e+64  -1.55367e+65  -1.90299e+66
     -3.49e+60   1.45021e+58  -9.03415e+59  -1.25679e+66 -5.37663e+132  -2.9503e+198   2.63745e+66  -2.43006e+66   1.14116e+66   3.21029e+64  -2.11857e+65   1.74118e+64   -1.5865e+66
  -3.93461e+60     1.267e+58  -9.00247e+59   1.14043e+65 -2.96145e+132   -2.008e+198   1.72466e+66  -1.29654e+66   1.08704e+66   3.23541e+65  -1.64835e+65    7.1672e+64  -1.20497e+66
  -3.94701e+60    2.3918e+58  -8.96898e+59  -3.61843e+65 -4.08865e+132 -2.59982e+198   2.05416e+66   -1.6786e+66   9.85871e+65   3.30889e+65   2.14872e+65  -1.01107e+65  -1.46566e+66
  -3.47544e+60   1.68775e+58  -1.30729e+60    -5.637e+66  2.70158e+132 -3.18884e+196   5.39205e+66  -3.58019e+66  -3.91535e+65  -1.66528e+66   1.98333e+65  -1.29717e+65  -2.29304e+66
  -3.46711e+60   8.33802e+57  -1.31445e+60  -5.02404e+66  2.13794e+132 -1.25752e+197   4.80657e+66  -3.23097e+66   -2.6122e+65  -1.53185e+66  -1.02403e+65   1.22032e+65  -2.00754e+66
  -3.92064e+60   3.76596e+57  -1.31936e+60  -4.08926e+66  2.25483e+132 -1.13968e+197   3.80358e+66  -2.19016e+66  -5.65987e+65  -1.33312e+66  -2.43913e+64   1.20477e+65  -1.62601e+66
  -3.93006e+60   6.97678e+57  -1.31223e+60  -4.87334e+66  3.41097e+132  2.68258e+196   4.50982e+66  -2.63774e+66  -7.32681e+65  -1.50292e+66   3.55316e+65  -1.31272e+65  -1.85571e+66
     -3.49e+60   1.45021e+58  -9.03415e+59  -1.36193e+66 -5.20578e+132 -2.70233e+198   2.65719e+66  -2.45241e+66   1.08073e+66   9.75097e+63    1.4165e+65  -7.04978e+64   -1.5865e+66
  -3.48684e+60  -9.67273e+45  -9.03755e+59  -1.29495e+66 -4.98146e+132 -2.55652e+198   2.58038e+66  -2.39479e+66   1.09497e+66   4.86753e+63  -1.49566e+65   1.60555e+64  -1.52653e+66
  -3.93198e+60   1.14313e+46  -9.00789e+59   3.57194e+65   -2.967e+132 -2.26951e+198   1.75914e+66  -1.27202e+66   1.27311e+66    3.5611e+65  -1.24641e+65   2.56175e+64  -1.15402e+66
  -3.93461e+60     1.267e+58  -9.00247e+59   4.85022e+65 -3.09338e+132 -2.51238e+198   1.82445e+66  -1.21767e+66   1.30028e+66    4.0241e+65   2.96024e+65  -6.09357e+64  -1.20497e+66
  -3.46711e+60   8.33802e+57  -1.31445e+60  -5.07661e+66  2.32717e+132 -1.23883e+197   4.84198e+66  -3.24215e+66  -2.91435e+65  -1.54303e+66   1.63343e+65  -1.15054e+65  -2.00754e+66
   -3.4644e+60  -8.38804e+46  -1.31658e+60  -4.95982e+66  2.38997e+132 -2.04112e+197   4.71274e+66  -3.17393e+66  -2.66607e+65  -1.51928e+66  -1.27873e+65   1.00949e+65  -1.91229e+66
  -3.91771e+60  -6.77505e+46   -1.3215e+60  -4.02247e+66  2.26702e+132 -1.77127e+197   3.73005e+66  -2.20313e+66  -4.99332e+65     -1.32e+66  -1.38229e+65   1.01492e+65  -1.53978e+66
  -3.92064e+60   3.76596e+57  -1.31936e+60  -3.94444e+66  1.74651e+132   1.5614e+197   3.71646e+66  -2.15937e+66  -4.82743e+65  -1.30233e+66   2.82436e+65  -1.14511e+65  -1.62601e+66
  -3.48684e+60  -9.67273e+45  -9.03755e+59  -1.29495e+66 -4.98146e+132 -2.55652e+198   2.58038e+66  -2.39479e+66   1.09497e+66   4.86753e+63   1.49566e+65  -1.60555e+64  -1.52653e+66
     -3.49e+60  -1.45021e+58  -9.03415e+59  -1.36193e+66 -5.20578e+132 -2.70233e+198   2.65719e+66  -2.45241e+66   1.08073e+66   9.75097e+63   -1.4165e+65   7.04978e+64   -1.5865e+66
  -3.93461e+60    -1.267e+58  -9.00247e+59   4.85022e+65 -3.09338e+132 -2.51238e+198   1.82445e+66  -1.21767e+66   1.30028e+66    4.0241e+65  -2.96024e+65   6.09357e+64  -1.20497e+66
  -3.93198e+60   1.14313e+46  -9.00789e+59   3.57194e+65   -2.967e+132 -2.26951e+198   1.75914e+66  -1.27202e+66   1.27311e+66    3.5611e+65   1.24641e+65  -2.56175e+64  -1.15402e+66
   -3.4644e+60  -8.38804e+46  -1.31658e+60  -4.95982e+66  2.38997e+132 -2.04112e+197   4.71274e+66  -3.17393e+66  -2.66607e+65  -1.51928e+66   1.27873e+65  -1.00949e+65  -1.91229e+66
  -3.46711e+60  -8.33802e+57  -1.31445e+60  -5.07661e+66  2.32717e+132 -1.23883e+197   4.84198e+66  -3.24215e+66  -2.91435e+65  -1.54303e+66  -1.63343e+65   1.15054e+65  -2.00754e+66
  -3.92064e+60  -3.76596e+57  -1.31936e+60  -3.94444e+66  1.74651e+132   1.5614e+197   3.71646e+66  -2.15937e+66  -4.82743e+65  -1.30233e+66  -2.82436e+65   1.14511e+65  -1.62601e+66
  -3.91771e+60  -6.77505e+46   -1.3215e+60  -4.02247e+66  2.26702e+132 -1.77127e+197   3.73005e+66  -2.20313e+66  -4.99332e+65     -1.32e+66   1.38229e+65  -1.01492e+65  -1.53978e+66
     -3.49e+60  -1.45021e+58  -9.03415e+59  -1.25679e+66 -5.37663e+132  -2.9503e+198   2.63745e+66  -2.43006e+66   1.14116e+66   3.21029e+64   2.11857e+65  -1.74118e+64   -1.5865e+66
  -3.50065e+60  -2.94072e+58  -9.01214e+59  -1.56156e+66  -6.6986e+132 -4.00199e+198   3.02276e+66  -2.71376e+66   1.07637e+66   7.58311e+64  -8.88797e+64   1.55367e+65  -1.90299e+66
  -3.94701e+60   -2.3918e+58  -8.96898e+59  -3.61843e+65 -4.08865e+132 -2.59982e+198   2.05416e+66   -1.6786e+66   9.85871e+65   3.30889e+65  -2.14872e+65   1.01107e+65  -1.46566e+66
  -3.93461e+60    -1.267e+58  -9.00247e+59   1.14043e+65 -2.96145e+132   -2.008e+198   1.72466e+66  -1.29654e+66   1.08704e+66   3.23541e+65   1.64835e+65   -7.1672e+64  -1.20497e+66
  -3.46711e+60  -8.33802e+57  -1.31445e+60  -5.02404e+66  2.13794e+132 -1.25752e+197   4.80657e+66  -3.23097e+66   -2.6122e+65  -1.53185e+66   1.02403e+65  -1.22032e+65  -2.00754e+66
  -3.47544e+60  -1.68775e+58  -1.30729e+60    -5.637e+66  2.70158e+132 -3.18884e+196   5.39205e+66  -3.58019e+66  -3.91535e+65  -1.66528e+66  -1.98333e+65   1.29717e+65  -2.29304e+66
  -3.93006e+60  -6.97678e+57  -1.31223e+60  -4.87334e+66  3.41097e+132  2.68258e+196   4.50982e+66  -2.63774e+66  -7.32681e+65  -1.50292e+66  -3.55316e+65   1.31272e+65  -1.85571e+66
  -3.92064e+60  -3.76596e+57  -1.31936e+60  -4.08926e+66  2.25483e+132 -1.13968e+197   3.80358e+66  -2.19016e+66  -5.65987e+65  -1.33312e+66   2.43913e+64  -1.20477e+65  -1.62601e+66
  -8.36151e+59   2.24832e+58  -3.13215e+59  -4.16124e+66 -1.49337e+134 -2.34289e+199   1.29094e+67   4.06636e+66   1.70042e+65  -8.39765e+66      -4.3e+65   2.81024e+64  -1.06896e+67
  -8.63181e+59   1.13208e+58   -3.1331e+59  -4.02194e+66 -1.36807e+134 -2.58248e+199   1.23686e+67   3.99272e+66   1.99659e+65  -8.21432e+66   4.08775e+65   1.01336e+64  -1.01488e+67
   -1.3297e+60     1.144e+58  -3.91196e+59  -6.72246e+66 -8.63886e+133   3.1272e+199   1.14708e+67   2.40451e+66  -3.38531e+65  -8.78844e+66   3.33866e+65  -6.67235e+64  -8.20378e+66
  -1.30884e+60   2.29827e+58  -3.92727e+59  -6.83654e+66 -9.79209e+133  3.69093e+199   1.20274e+67   2.49266e+66  -3.62783e+65  -8.96641e+66   -3.0546e+65  -4.87547e+64  -8.82177e+66
   -8.8855e+59   5.86145e+58  -5.59638e+59  -9.84338e+66 -1.48867e+134 -8.90845e+199   1.56767e+67   2.85835e+66   6.39578e+65  -1.33413e+67  -4.81627e+65  -1.38664e+65  -1.01871e+67
  -9.14486e+59    2.9698e+58   -5.6501e+59  -1.01306e+67 -1.35398e+134 -7.32614e+199   1.54281e+67   2.69404e+66    5.7852e+65  -1.34031e+67   3.57147e+65   4.28158e+64   -9.6418e+66
  -1.37027e+60   2.52329e+58  -6.84066e+59  -1.39324e+67 -6.38002e+133  4.33633e+199   1.60596e+67   8.71692e+65  -5.92701e+65  -1.42114e+67   2.77668e+65   4.32003e+64  -7.69674e+66
   -1.3506e+60    5.0308e+58  -6.78686e+59    -1.362e+67 -7.73284e+133  4.52418e+199   1.62121e+67   1.05051e+66  -5.26279e+65  -1.41442e+67  -3.61658e+65  -1.38279e+65   -8.3193e+66
  -8.63181e+59   1.13208e+58   -3.1331e+59  -3.98062e+66 -1.36986e+134 -2.86326e+199   1.23625e+67   4.00151e+66   2.23405e+65  -8.20553e+66  -4.61906e+65  -3.97849e+63  -1.01488e+67
  -8.71781e+59  -2.31392e+46  -3.13107e+59  -3.93819e+66 -1.33561e+134 -2.93549e+199   1.22094e+67   3.98797e+66   2.32427e+65  -8.15859e+66   4.06309e+65  -9.60919e+63  -9.99451e+66
  -1.33646e+60  -1.55474e+46  -3.90591e+59  -6.72917e+66 -8.28732e+133  3.07602e+199   1.13206e+67   2.37245e+66  -3.49671e+65  -8.75195e+66   3.19508e+65  -2.85705e+64  -8.01483e+66
   -1.3297e+60     1.144e+58  -3.91196e+59  -6.74928e+66 -8.62447e+133  3.21316e+199   1.14803e+67   2.39881e+66  -3.53944e+65  -8.79414e+66  -3.32126e+65  -2.29398e+64  -8.20378e+66
  -9.14486e+59    2.9698e+58   -5.6501e+59   -9.9267e+66 -1.37173e+134 -8.85879e+199   1.53529e+67   2.73738e+66   6.95709e+65  -1.33598e+67  -4.73182e+65  -1.53029e+65   -9.6418e+66
  -9.22848e+59  -5.89192e+46  -5.66236e+59  -1.00754e+67 -1.33243e+134 -8.19925e+199   1.53218e+67   2.68322e+66   6.64099e+65  -1.34227e+67   3.95032e+65   5.79214e+64  -9.48342e+66
  -1.37671e+60  -6.07548e+46  -6.85623e+59  -1.40623e+67 -5.98653e+133   4.2096e+199   1.60503e+67    8.1344e+65  -6.05408e+65  -1.42703e+67   3.04187e+65   7.35719e+64  -7.50375e+66
  -1.37027e+60   2.52329e+58  -6.84066e+59  -1.38913e+67 -6.43029e+133  4.17893e+199   1.60396e+67    8.8044e+65   -5.6905e+65  -1.42026e+67  -3.47447e+65  -1.37378e+65  -7.69674e+66
  -8.71781e+59  -2.31392e+46  -3.13107e+59  -3.93819e+66 -1.33561e+134 -2.93549e+199   1.22094e+67   3.98797e+66   2.32427e+65  -8.15859e+66  -4.06309e+65   9.60919e+63  -9.99451e+66
  -8.63181e+59  -1.13208e+58   -3.1331e+59  -3.98062e+66 -1.36986e+134 -2.86326e+199   1.23625e+67   4.00151e+66   2.23405e+65  -8.20553e+66   4.61906e+65   3.97849e+63  -1.01488e+67
   -1.3297e+60    -1.144e+58  -3.91196e+59  -6.74928e+66 -8.62447e+133  3.21316e+199   1.14803e+67   2.39881e+66  -3.53944e+65  -8.79414e+66   3.32126e+65   2.29398e+64  -8.20378e+66
  -1.33646e+60  -1.55474e+46  -3.90591e+59  -6.72917e+66 -8.28732e+133  3.07602e+199   1.13206e+67   2.37245e+66  -3.49671e+65  -8.75195e+66  -3.19508e+65   2.85705e+64  -8.01483e+66
  -9.22848e+59  -5.89192e+46  -5.66236e+59  -1.00754e+67 -1.33243e+134 -8.19925e+199   1.53218e+67   2.68322e+66   6.64099e+65  -1.34227e+67  -3.95032e+65  -5.79214e+64  -9.48342e+66
  -9.14486e+59   -2.9698e+58   -5.6501e+59   -9.9267e+66 -1.37173e+134 -8.85879e+199   1.53529e+67   2.73738e+66   6.95709e+65  -1.33598e+67   4.73182e+65   1.53029e+65   -9.6418e+66
  -1.37027e+60  -2.52329e+58  -6.84066e+59  -1.38913e+67 -6.43029e+133  4.17893e+199   1.60396e+67    8.8044e+65   -5.6905e+65  -1.42026e+67   3.47447e+65   1.37378e+65  -7.69674e+66
  -1.37671e+60  -6.07548e+46  -6.85623e+59  -1.40623e+67 -5.98653e+133   4.2096e+199   1.60503e+67    8.1344e+65  -6.05408e+65  -1.42703e+67  -3.04187e+65  -7.35719e+64  -7.50375e+66
  -8.63181e+59  -1.13208e+58   -3.1331e+59  -4.02194e+66 -1.36807e+134 -2.58248e+199   1.23686e+67   3.99272e+66   1.99659e+65  -8.21432e+66  -4.08775e+65  -1.01336e+64  -1.01488e+67
  -8.36151e+59  -2.24832e+58  -3.13215e+59  -4.16124e+66 -1.49337e+134 -2.34289e+199   1.29094e+67   4.06636e+66   1.70042e+65  -8.39765e+66       4.3e+65  -2.81024e+64  -1.06896e+67
  -1.30884e+60  -2.29827e+58  -3.92727e+59  -6.83654e+66 -9.79209e+133  3.69093e+199   1.20274e+67   2.49266e+66  -3.62783e+65  -8.96641e+66    3.0546e+65   4.87547e+64  -8.82177e+66
   -1.3297e+60    -1.144e+58  -3.91196e+59  -6.72246e+66 -8.63886e+133   3.1272e+199   1.14708e+67   2.40451e+66  -3.38531e+65  -8.78844e+66  -3.33866e+65   6.67235e+64  -8.20378e+66
  -9.14486e+59   -2.9698e+58   -5.6501e+59  -1.01306e+67 -1.35398e+134 -7.32614e+199   1.54281e+67   2.69404e+66    5.7852e+65  -1.34031e+67  -3.57147e+65  -4.28158e+64   -9.6418e+66
   -8.8855e+59  -5.86145e+58  -5.59638e+59  -9.84338e+66 -1.48867e+134 -8.90845e+199   1.56767e+67   2.85835e+66   6.39578e+65  -1.33413e+67   4.81627e+65   1.38664e+65  -1.01871e+67
   -1.3506e+60   -5.0308e+58  -6.78686e+59    -1.362e+67 -7.73284e+133  4.52418e+199   1.62121e+67   1.05051e+66  -5.26279e+65  -1.41442e+67   3.61658e+65   1.38279e+65   -8.3193e+66
  -1.37027e+60  -2.52329e+58  -6.84066e+59  -1.39324e+67 -6.38002e+133  4.33633e+199   1.60596e+67   8.71692e+65  -5.92701e+65  -1.42114e+67  -2.77668e+65  -4.32003e+64  -7.69674e+66
  -1.30884e+60   2.29827e+58  -3.92727e+59  -3.55976e+66 -1.69251e+134 -5.48199e+199   1.34879e+67    3.1893e+66   3.33855e+65  -7.08291e+66   -3.0546e+65   7.83711e+64  -1.20525e+67
   -1.3297e+60     1.144e+58  -3.91196e+59  -3.35419e+66 -1.52117e+134 -5.61026e+199   1.27815e+67    3.1206e+66   3.77559e+65  -6.85235e+66   3.33866e+65   9.78518e+62  -1.13672e+67
  -1.86317e+60   1.29922e+58  -4.56169e+59    -7.552e+66  -9.9775e+133  3.76357e+199   1.25223e+67   5.52902e+65  -3.60105e+65   -7.7448e+66   2.24164e+65  -9.24482e+64   -9.9007e+66
  -1.84991e+60   2.61731e+58  -4.59678e+59  -7.76281e+66  -1.1512e+134  4.79964e+199   1.32431e+67   6.18581e+65  -4.04923e+65  -7.97647e+66  -1.74918e+65  -1.50555e+64  -1.06364e+67
   -1.3506e+60    5.0308e+58  -6.78686e+59  -7.84857e+66 -1.56538e+134 -1.04679e+200   1.47695e+67    2.2775e+66   7.00711e+65  -1.08268e+67  -3.61658e+65  -8.44576e+64  -1.12139e+67
  -1.37027e+60   2.52329e+58  -6.84066e+59  -7.92156e+66 -1.39974e+134 -9.14537e+199   1.42382e+67   2.14959e+66   6.85193e+65  -1.07563e+67   2.77668e+65    7.8393e+64  -1.05296e+67
  -1.88602e+60   2.15127e+58   -7.8008e+59  -1.34459e+67 -6.35219e+133  6.03672e+199   1.56306e+67  -7.00139e+65  -8.14981e+65  -1.19308e+67   1.68916e+65   3.54142e+64  -9.06308e+66
  -1.87392e+60   4.31408e+58   -7.7561e+59  -1.33782e+67  -7.9094e+133  7.13972e+199   1.60646e+67  -5.75239e+65  -8.00578e+65  -1.20024e+67  -2.30167e+65  -1.27436e+65  -9.79787e+66
   -1.3297e+60     1.144e+58  -3.91196e+59    -3.381e+66 -1.52043e+134 -5.34418e+199   1.27857e+67    3.1149e+66   3.62145e+65  -6.85805e+66  -3.32126e+65   4.47622e+64  -1.13672e+67
  -1.33646e+60  -1.55474e+46  -3.90591e+59    -3.303e+66 -1.46863e+134 -5.41607e+199   1.25608e+67   3.10084e+66   3.78728e+65  -6.78257e+66   3.19508e+65  -2.85705e+64  -1.11505e+67
  -1.86751e+60  -1.23209e+45  -4.54941e+59  -7.52384e+66 -9.48713e+133  3.68108e+199   1.23077e+67   5.28028e+65   -3.7195e+65  -7.67992e+66    2.0499e+65  -5.80173e+64  -9.66596e+66
  -1.86317e+60   1.29922e+58  -4.56169e+59  -7.60123e+66 -9.94685e+133  4.00693e+199   1.25398e+67   5.42436e+65  -3.88404e+65  -7.75527e+66  -1.97554e+65   1.53154e+64   -9.9007e+66
  -1.37027e+60   2.52329e+58  -6.84066e+59  -7.88042e+66 -1.40288e+134 -9.45066e+199   1.42264e+67   2.15833e+66   7.08844e+65  -1.07476e+67  -3.47447e+65  -1.02186e+65  -1.05296e+67
  -1.37671e+60  -6.07548e+46  -6.85623e+59  -7.90226e+66 -1.35292e+134 -9.04157e+199   1.40619e+67   2.12305e+66     7.042e+65  -1.07295e+67   3.04187e+65   7.35719e+64  -1.03128e+67
  -1.89003e+60   -5.6574e+46  -7.81397e+59  -1.34985e+67 -5.85327e+133  5.80572e+199   1.55159e+67  -7.42178e+65  -8.37069e+65  -1.19193e+67   1.89559e+65   6.22074e+64  -8.82823e+66
  -1.88602e+60   2.15127e+58   -7.8008e+59  -1.34761e+67 -6.32401e+133  6.14568e+199   1.56475e+67  -7.06543e+65  -8.32296e+65  -1.19372e+67  -2.12984e+65   -1.1355e+65  -9.06308e+66
  -1.33646e+60  -1.55474e+46  -3.90591e+59    -3.303e+66 -1.46863e+134 -5.41607e+199   1.25608e+67   3.10084e+66   3.78728e+65  -6.78257e+66  -3.19508e+65   2.85705e+64  -1.11505e+67
   -1.3297e+60    -1.144e+58  -3.91196e+59    -3.381e+66 -1.52043e+134 -5.34418e+199   1.27857e+67    3.1149e+66   3.62145e+65  -6.85805e+66   3.32126e+65  -4.47622e+64  -1.13672e+67
  -1.86317e+60  -1.29922e+58  -4.56169e+59  -7.60123e+66 -9.94685e+133  4.00693e+199   1.25398e+67   5.42436e+65  -3.88404e+65  -7.75527e+66   1.97554e+65  -1.53154e+64   -9.9007e+66
  -1.86751e+60  -1.23209e+45  -4.54941e+59  -7.52384e+66 -9.48713e+133  3.68108e+199   1.23077e+67   5.28028e+65   -3.7195e+65  -7.67992e+66   -2.0499e+65   5.80173e+64  -9.66596e+66
  -1.37671e+60  -6.07548e+46  -6.85623e+59  -7.90226e+66 -1.35292e+134 -9.04157e+199   1.40619e+67   2.12305e+66     7.042e+65  -1.07295e+67  -3.04187e+65  -7.35719e+64  -1.03128e+67
  -1.37027e+60  -2.52329e+58  -6.84066e+59  -7.88042e+66 -1.40288e+134 -9.45066e+199   1.42264e+67   2.15833e+66   7.08844e+65  -1.07476e+67   3.47447e+65   1.02186e+65  -1.05296e+67
  -1.88602e+60  -2.15127e+58   -7.8008e+59  -1.34761e+67 -6.32401e+133  6.14568e+199   1.56475e+67  -7.06543e+65  -8.32296e+65  -1.19372e+67   2.12984e+65    1.1355e+65  -9.06308e+66
  -1.89003e+60   -5.6574e+46  -7.81397e+59  -1.34985e+67 -5.85327e+133  5.80572e+199   1.55159e+67  -7.42178e+65  -8.37069e+65  -1.19193e+67  -1.89559e+65  -6.22074e+64  -8.82823e+66
   -1.3297e+60    -1.144e+58  -3.91196e+59  -3.35419e+66 -1.52117e+134 -5.61026e+199   1.27815e+67    3.1206e+66   3.77559e+65  -6.85235e+66  -3.33866e+65  -9.78518e+62  -1.13672e+67
  -1.30884e+60  -2.29827e+58  -3.92727e+59  -3.55976e+66 -1.69251e+134 -5.48199e+199   1.34879e+67    3.1893e+66   3.33855e+65  -7.08291e+66    3.0546e+65  -7.83711e+64  -1.20525e+67
  -1.84991e+60  -2.61731e+58  -4.59678e+59  -7.76281e+66  -1.1512e+134  4.79964e+199   1.32431e+67   6.18581e+65  -4.04923e+65  -7.97647e+66   1.74918e+65   1.50555e+64  -1.06364e+67
  -1.86317e+60  -1.29922e+58  -4.56169e+59    -7.552e+66  -9.9775e+133  3.76357e+199   1.25223e+67   5.52902e+65  -3.60105e+65   -7.7448e+66  -2.24164e+65   9.24482e+64   -9.9007e+66
  -1.37027e+60  -2.52329e+58  -6.84066e+59  -7.92156e+66 -1.39974e+134 -9.14537e+199   1.42382e+67   2.14959e+66   6.85193e+65  -1.07563e+67  -2.77668e+65   -7.8393e+64  -1.05296e+67
   -1.3506e+60   -5.0308e+58  -6.78686e+59  -7.84857e+66 -1.56538e+134 -1.04679e+200   1.47695e+67    2.2775e+66   7.00711e+65  -1.08268e+67   3.61658e+65   8.44576e+64  -1.12139e+67
  -1.87392e+60  -4.31408e+58   -7.7561e+59  -1.33782e+67  -7.9094e+133  7.13972e+199   1.60646e+67  -5.75239e+65  -8.00578e+65  -1.20024e+67   2.30167e+65   1.27436e+65  -9.79787e+66
  -1.88602e+60  -2.15127e+58   -7.8008e+59  -1.34459e+67 -6.35219e+133  6.03672e+199   1.56306e+67  -7.00139e+65  -8.14981e+65  -1.19308e+67  -1.68916e+65  -3.54142e+64  -9.06308e+66
  -1.84991e+60   2.61731e+58  -4.59678e+59  -2.97628e+66 -1.67072e+134 -1.00401e+200   1.32639e+67   1.63619e+66   6.12686e+65  -5.22516e+66  -1.74918e+65   1.02175e+65  -1.25013e+67
  -1.86317e+60   1.29922e+58  -4.56169e+59  -2.81458e+66 -1.47398e+134 -9.34674e+199   1.24627e+67   1.56007e+66   6.47064e+65  -5.02171e+66   2.24164e+65  -3.33848e+64  -1.17163e+67
  -2.43508e+60   1.57946e+58  -5.02983e+59  -8.42995e+66 -9.91635e+133  2.82353e+199   1.30471e+67  -1.93878e+66  -2.75637e+65  -6.21553e+66    8.5871e+64  -1.17918e+65  -1.06508e+67
  -2.43045e+60   3.18448e+58  -5.08281e+59  -8.72413e+66 -1.16005e+134  4.02234e+199   1.38606e+67  -1.93881e+66  -3.38178e+65  -6.44714e+66  -4.79033e+64   1.76412e+64  -1.14603e+67
  -1.87392e+60   4.31408e+58   -7.7561e+59  -6.52094e+66  -1.4014e+134 -8.88382e+199   1.35153e+67     8.826e+65   6.57262e+65  -8.06081e+66  -2.30167e+65   -5.5931e+64  -1.13248e+67
  -1.88602e+60   2.15127e+58   -7.8008e+59   -6.4943e+66 -1.22544e+134 -7.81112e+199   1.28343e+67   7.77767e+65   6.62925e+65    -7.935e+66   1.68916e+65   7.38178e+64  -1.05638e+67
  -2.43353e+60   1.86053e+58  -8.49447e+59  -1.35746e+67 -4.78503e+133  6.78771e+199   1.52355e+67  -3.03254e+66  -1.10184e+66  -9.44027e+66   5.46131e+64    1.3745e+64  -9.49832e+66
  -2.42956e+60   3.74871e+58  -8.46248e+59  -1.37338e+67 -6.26492e+133  8.72862e+199   1.58513e+67  -3.00385e+66  -1.13567e+66  -9.59424e+66  -7.91612e+64  -1.16004e+65  -1.02838e+67
  -1.86317e+60   1.29922e+58  -4.56169e+59  -2.86381e+66  -1.4727e+134 -8.92323e+199   1.24688e+67    1.5496e+66   6.18765e+65  -5.03218e+66  -1.97554e+65   7.43788e+64  -1.17163e+67
  -1.86751e+60  -1.23209e+45  -4.54941e+59  -2.77589e+66 -1.41245e+134 -8.81461e+199   1.22045e+67   1.53744e+66   6.37457e+65  -4.95078e+66    2.0499e+65  -5.80173e+64  -1.14635e+67
  -2.43661e+60   1.84373e+46  -5.01091e+59  -8.36515e+66 -9.36869e+133  2.76354e+199   1.27931e+67  -1.94008e+66  -2.86018e+65  -6.13905e+66   7.23991e+64  -8.93709e+64  -1.03872e+67
  -2.43508e+60   1.57946e+58  -5.02983e+59  -8.49665e+66 -9.87104e+133  3.18793e+199    1.3073e+67  -1.95296e+66  -3.13976e+65  -6.22971e+66  -6.03945e+64   4.30252e+64  -1.06508e+67
  -1.88602e+60   2.15127e+58   -7.8008e+59  -6.52443e+66   -1.224e+134 -7.59835e+199    1.2844e+67   7.71363e+65   6.45611e+65   -7.9414e+66  -2.12984e+65  -7.51465e+64  -1.05638e+67
  -1.89003e+60   -5.6574e+46  -7.81397e+59  -6.49609e+66  -1.1707e+134 -7.31888e+199   1.26202e+67   7.46527e+65   6.51636e+65  -7.89425e+66   1.89559e+65   6.22074e+64  -1.03189e+67
   -2.4349e+60  -4.55325e+46  -8.50328e+59  -1.35748e+67 -4.27463e+133  6.40434e+199   1.50673e+67  -3.04765e+66    -1.128e+66  -9.39918e+66   6.48617e+64   4.16443e+64  -9.24261e+66
  -2.43353e+60   1.86053e+58  -8.49447e+59  -1.36468e+67 -4.71174e+133  7.01449e+199   1.52758e+67  -3.04787e+66  -1.14329e+66   -9.4556e+66  -6.79319e+64  -9.57096e+64  -9.49832e+66
  -1.86751e+60  -1.23209e+45  -4.54941e+59  -2.77589e+66 -1.41245e+134 -8.81461e+199   1.22045e+67   1.53744e+66   6.37457e+65  -4.95078e+66   -2.0499e+65   5.80173e+64  -1.14635e+67
  -1.86317e+60  -1.29922e+58  -4.56169e+59  -2.86381e+66  -1.4727e+134 -8.92323e+199   1.24688e+67    1.5496e+66   6.18765e+65  -5.03218e+66   1.97554e+65  -7.43788e+64  -1.17163e+67
  -2.43508e+60  -1.57946e+58  -5.02983e+59  -8.49665e+66 -9.87104e+133  3.18793e+199    1.3073e+67  -1.95296e+66  -3.13976e+65  -6.22971e+66   6.03945e+64  -4.30252e+64  -1.06508e+67
  -2.43661e+60   1.84373e+46  -5.01091e+59  -8.36515e+66 -9.36869e+133  2.76354e+199   1.27931e+67  -1.94008e+66  -2.86018e+65  -6.13905e+66  -7.23991e+64   8.93709e+64  -1.03872e+67
  -1.89003e+60   -5.6574e+46  -7.81397e+59  -6.49609e+66  -1.1707e+134 -7.31888e+199   1.26202e+67   7.46527e+65   6.51636e+65  -7.89425e+66  -1.89559e+65  -6.22074e+64  -1.03189e+67
  -1.88602e+60  -2.15127e+58   -7.8008e+59  -6.52443e+66   -1.224e+134 -7.59835e+199    1.2844e+67   7.71363e+65   6.45611e+65   -7.9414e+66   2.12984e+65   7.51465e+64  -1.05638e+67
  -2.43353e+60  -1.86053e+58  -8.49447e+59  -1.36468e+67 -4.71174e+133  7.01449e+199   1.52758e+67  -3.04787e+66  -1.14329e+66   -9.4556e+66   6.79319e+64   9.57096e+64  -9.49832e+66
   -2.4349e+60  -4.55325e+46  -8.50328e+59  -1.35748e+67 -4.27463e+133  6.40434e+199   1.50673e+67  -3.04765e+66    -1.128e+66  -9.39918e+66  -6.48617e+64  -4.16443e+64  -9.24261e+66
  -1.86317e+60  -1.29922e+58  -4.56169e+59  -2.81458e+66 -1.47398e+134 -9.34674e+199   1.24627e+67   1.56007e+66   6.47064e+65  -5.02171e+66  -2.24164e+65   3.33848e+64  -1.17163e+67
  -1.84991e+60  -2.61731e+58  -4.59678e+59  -2.97628e+66 -1.67072e+134 -1.00401e+200   1.32639e+67   1.63619e+66   6.12686e+65  -5.22516e+66   1.74918e+65  -1.02175e+65  -1.25013e+67
  -2.43045e+60  -3.18448e+58  -5.08281e+59  -8.72413e+66 -1.16005e+134  4.02234e+199   1.38606e+67  -1.93881e+66  -3.38178e+65  -6.44714e+66   4.79033e+64  -1.76412e+64  -1.14603e+67
  -2.43508e+60  -1.57946e+58  -5.02983e+59  -8.42995e+66 -9.91635e+133  2.82353e+199   1.30471e+67  -1.93878e+66  -2.75637e+65  -6.21553e+66   -8.5871e+64   1.17918e+65  -1.06508e+67
  -1.88602e+60  -2.15127e+58   -7.8008e+59   -6.4943e+66 -1.22544e+134 -7.81112e+199   1.28343e+67   7.77767e+65   6.62925e+65    -7.935e+66  -1.68916e+65  -7.38178e+64  -1.05638e+67
  -1.87392e+60  -4.31408e+58   -7.7561e+59  -6.52094e+66  -1.4014e+134 -8.88382e+199   1.35153e+67     8.826e+65   6.57262e+65  -8.06081e+66   2.30167e+65    5.5931e+64  -1.13248e+67
  -2.42956e+60  -3.74871e+58  -8.46248e+59  -1.37338e+67 -6.26492e+133  8.72862e+199   1.58513e+67  -3.00385e+66  -1.13567e+66  -9.59424e+66   7.91612e+64   1.16004e+65  -1.02838e+67
  -2.43353e+60  -1.86053e+58  -8.49447e+59  -1.35746e+67 -4.78503e+133  6.78771e+199   1.52355e+67  -3.03254e+66  -1.10184e+66  -9.44027e+66  -5.46131e+64   -1.3745e+64  -9.49832e+66
  -2.43045e+60   3.18448e+58  -5.08281e+59  -2.55424e+66 -1.36626e+134 -1.29533e+200   1.19645e+67  -6.27101e+65   9.73529e+65  -2.90067e+66  -4.79033e+64   9.79736e+64  -1.16189e+67
  -2.43508e+60   1.57946e+58  -5.02983e+59  -2.43363e+66 -1.17739e+134 -1.14028e+200   1.11203e+67  -6.63976e+65   9.99171e+65  -2.76883e+66    8.5871e+64  -7.95897e+64  -1.07765e+67
  -3.00965e+60   1.94082e+58  -5.26811e+59  -8.90496e+66 -7.98478e+133  1.61496e+198   1.26153e+67  -4.73884e+66  -2.14964e+64  -4.14462e+66  -8.15575e+64   -1.3269e+65  -9.98275e+66
  -3.01435e+60   3.92169e+58  -5.33233e+59  -9.41086e+66 -9.46466e+133  1.23358e+199   1.35355e+67  -4.92343e+66  -1.29049e+65  -4.35838e+66   5.87641e+64    4.4873e+64  -1.08304e+67
  -2.42956e+60   3.74871e+58  -8.46248e+59   -6.1696e+66 -9.98559e+133  -4.5733e+199   1.17439e+67  -1.39572e+66    4.7246e+65  -5.24634e+66  -7.91612e+64   -4.8241e+64  -1.01996e+67
  -2.43353e+60   1.86053e+58  -8.49447e+59  -6.07803e+66 -8.47228e+133  -4.0116e+199   1.10302e+67  -1.43877e+66   4.91927e+65  -5.13119e+66   5.46131e+64   4.82916e+64  -9.42699e+66
  -2.97953e+60   1.64293e+58  -8.90076e+59  -1.40628e+67 -1.69724e+133  4.85252e+199   1.46539e+67   -5.8354e+66   -1.3987e+66  -6.82875e+66  -4.30393e+64   4.50146e+62  -8.63321e+66
  -2.98342e+60   3.32678e+58  -8.87891e+59  -1.45397e+67 -2.67746e+133  6.97758e+199    1.5433e+67  -6.01381e+66  -1.50008e+66  -7.02581e+66   9.72823e+64  -9.60824e+64  -9.41107e+66
  -2.43508e+60   1.57946e+58  -5.02983e+59  -2.50033e+66 -1.17582e+134 -1.09651e+200   1.11281e+67  -6.78156e+65   9.60831e+65  -2.78301e+66  -6.03945e+64   8.13537e+64  -1.07765e+67
  -2.43661e+60   1.84373e+46  -5.01091e+59  -2.41858e+66 -1.11804e+134 -1.05949e+200   1.08468e+67  -6.75851e+65   9.78211e+65  -2.72094e+66   7.23991e+64  -8.93709e+64  -1.05027e+67
  -3.00816e+60   4.17785e+46  -5.24446e+59  -8.81706e+66 -7.46872e+133  2.97566e+198   1.23462e+67  -4.69517e+66  -4.06459e+64  -4.08125e+66  -7.04187e+64  -1.11714e+65  -9.70508e+66
  -3.00965e+60   1.94082e+58  -5.26811e+59  -9.00942e+66 -7.90971e+133  6.46271e+198   1.26597e+67  -4.76105e+66  -8.15415e+64  -4.16683e+66   7.03197e+64    5.9011e+64  -9.98275e+66
  -2.43353e+60   1.86053e+58  -8.49447e+59  -6.15014e+66 -8.43664e+133 -3.67109e+199    1.1054e+67   -1.4541e+66   4.50475e+65  -5.14652e+66  -6.79319e+64  -6.11631e+64  -9.42699e+66
   -2.4349e+60  -4.55325e+46  -8.50328e+59  -6.08953e+66 -7.97676e+133  -3.5577e+199   1.08097e+67  -1.45629e+66    4.6336e+65  -5.09661e+66   6.48617e+64   4.16443e+64  -9.17319e+66
   -2.9783e+60  -2.96225e+46  -8.90566e+59  -1.39984e+67 -1.29619e+133  4.39828e+199    1.4454e+67  -5.79671e+66  -1.42366e+66  -6.77802e+66  -5.79244e+64   2.31306e+64  -8.37558e+66
  -2.97953e+60   1.64293e+58  -8.90076e+59  -1.41696e+67 -1.58523e+133  5.04183e+199   1.47184e+67   -5.8581e+66  -1.46006e+66  -6.85144e+66    8.2814e+64  -7.96767e+64  -8.63321e+66
  -2.43661e+60   1.84373e+46  -5.01091e+59  -2.41858e+66 -1.11804e+134 -1.05949e+200   1.08468e+67  -6.75851e+65   9.78211e+65  -2.72094e+66  -7.23991e+64   8.93709e+64  -1.05027e+67
  -2.43508e+60  -1.57946e+58  -5.02983e+59  -2.50033e+66 -1.17582e+134 -1.09651e+200   1.11281e+67  -6.78156e+65   9.60831e+65  -2.78301e+66   6.03945e+64  -8.13537e+64  -1.07765e+67
  -3.00965e+60  -1.94082e+58  -5.26811e+59  -9.00942e+66 -7.90971e+133  6.46271e+198   1.26597e+67  -4.76105e+66  -8.15415e+64  -4.16683e+66  -7.03197e+64   -5.9011e+64  -9.98275e+66
  -3.00816e+60   4.17785e+46  -5.24446e+59  -8.81706e+66 -7.46872e+133  2.97566e+198   1.23462e+67  -4.69517e+66  -4.06459e+64  -4.08125e+66   7.04187e+64   1.11714e+65  -9.70508e+66
   -2.4349e+60  -4.55325e+46  -8.50328e+59  -6.08953e+66 -7.97676e+133  -3.5577e+199   1.08097e+67  -1.45629e+66    4.6336e+65  -5.09661e+66  -6.48617e+64  -4.16443e+64  -9.17319e+66
  -2.43353e+60  -1.86053e+58  -8.49447e+59  -6.15014e+66 -8.43664e+133 -3.67109e+199    1.1054e+67   -1.4541e+66   4.50475e+65  -5.14652e+66   6.79319e+64   6.11631e+64  -9.42699e+66
  -2.97953e+60  -1.64293e+58  -8.90076e+59  -1.41696e+67 -1.58523e+133  5.04183e+199   1.47184e+67   -5.8581e+66  -1.46006e+66  -6.85144e+66   -8.2814e+64   7.96767e+64  -8.63321e+66
   -2.9783e+60  -2.96225e+46  -8.90566e+59  -1.39984e+67 -1.29619e+133  4.39828e+199    1.4454e+67  -5.79671e+66  -1.42366e+66  -6.77802e+66   5.79244e+64  -2.31306e+64  -8.37558e+66
  -2.43508e+60  -1.57946e+58  -5.02983e+59  -2.43363e+66 -1.17739e+134 -1.14028e+200   1.11203e+67  -6.63976e+65   9.99171e+65  -2.76883e+66   -8.5871e+64   7.95897e+64  -1.07765e+67
  -2.43045e+60  -3.18448e+58  -5.08281e+59  -2.55424e+66 -1.36626e+134 -1.29533e+200   1.19645e+67  -6.27101e+65   9.73529e+65  -2.90067e+66   4.79033e+64  -9.79736e+64  -1.16189e+67
  -3.01435e+60  -3.92169e+58  -5.33233e+59  -9.41086e+66 -9.46466e+133  1.23358e+199   1.35355e+67  -4.92343e+66  -1.29049e+65  -4.35838e+66  -5.87641e+64   -4.4873e+64  -1.08304e+67
  -3.00965e+60  -1.94082e+58  -5.26811e+59  -8.90496e+66 -7.98478e+133  1.61496e+198   1.26153e+67  -4.73884e+66  -2.14964e+64  -4.14462e+66   8.15575e+64    1.3269e+65  -9.98275e+66
  -2.43353e+60  -1.86053e+58  -8.49447e+59  -6.07803e+66 -8.47228e+133  -4.0116e+199   1.10302e+67  -1.43877e+66   4.91927e+65  -5.13119e+66  -5.46131e+64  -4.82916e+64  -9.42699e+66
  -2.42956e+60  -3.74871e+58  -8.46248e+59   -6.1696e+66 -9.98559e+133  -4.5733e+199   1.17439e+67  -1.39572e+66    4.7246e+65  -5.24634e+66   7.91612e+64    4.8241e+64  -1.01996e+67
  -2.98342e+60  -3.32678e+58  -8.87891e+59  -1.45397e+67 -2.67746e+133  6.97758e+199    1.5433e+67  -6.01381e+66  -1.50008e+66  -7.02581e+66  -9.72823e+64   9.60824e+64  -9.41107e+66
  -2.97953e+60  -1.64293e+58  -8.90076e+59  -1.40628e+67 -1.69724e+133  4.85252e+199   1.46539e+67   -5.8354e+66   -1.3987e+66  -6.82875e+66   4.30393e+64  -4.50146e+62  -8.63321e+66
  -3.01435e+60   3.92169e+58  -5.33233e+59  -2.74356e+66 -8.33061e+133 -1.00671e+200   9.53065e+66  -3.50597e+66   1.28841e+66  -5.25994e+65   5.87641e+64   4.56358e+64  -8.94147e+66
  -3.00965e+60   1.94082e+58  -5.26811e+59  -2.58231e+66 -6.89429e+133 -8.44379e+199   8.69547e+66  -3.39466e+66   1.32269e+66  -5.10344e+65  -8.15575e+64  -1.29213e+65   -8.0924e+66
   -3.5442e+60   2.30955e+58  -5.26402e+59  -7.89959e+66 -4.88944e+133 -2.42286e+199   1.05498e+67  -6.80074e+66    5.4194e+65  -1.64079e+66  -2.58704e+65  -1.19897e+65  -7.44291e+66
  -3.55827e+60   4.66051e+58  -5.32627e+59  -8.74058e+66 -5.87931e+133 -2.02142e+199   1.16272e+67  -7.30278e+66   3.63148e+65  -1.80095e+66   1.47809e+65   5.49514e+64  -8.28337e+66
  -2.98342e+60   3.32678e+58  -8.87891e+59  -7.15224e+66 -4.71657e+133 -3.11512e+198   9.91566e+66  -4.44325e+66   7.04854e+64  -2.77948e+66   9.72823e+64  -7.91328e+64  -7.68055e+66
  -2.97953e+60   1.64293e+58  -8.90076e+59  -6.94346e+66 -3.73523e+133 -4.18434e+198   9.25008e+66  -4.32183e+66   1.14872e+65   -2.7365e+66  -4.30393e+64   1.22096e+64  -6.95458e+66
     -3.49e+60   1.45021e+58  -9.03415e+59  -1.37306e+67  1.23017e+133  9.34725e+198   1.32751e+67   -8.0404e+66  -1.51074e+66  -4.17944e+66  -9.70836e+64   1.29171e+64  -6.30509e+66
  -3.50065e+60   2.94072e+58  -9.01214e+59  -1.46191e+67  9.89006e+132  2.11503e+199   1.42768e+67  -8.55254e+66  -1.69964e+66  -4.36692e+66   3.09429e+65  -7.84253e+64  -7.02244e+66
  -3.00965e+60   1.94082e+58  -5.26811e+59  -2.68677e+66 -6.86628e+133 -8.04443e+199     8.711e+66  -3.41686e+66   1.26264e+66  -5.32552e+65   7.03197e+64   6.24887e+64   -8.0924e+66
  -3.00816e+60   4.17785e+46  -5.24446e+59  -2.57805e+66 -6.48828e+133 -7.70926e+199   8.45749e+66  -3.36876e+66   1.28576e+66  -4.95046e+65  -7.04187e+64  -1.11714e+65  -7.84635e+66
  -3.54036e+60   6.86902e+46  -5.23885e+59  -7.79084e+66 -4.54505e+133 -2.17417e+199   1.03028e+67   -6.7135e+66   5.25931e+65  -1.60328e+66  -1.81629e+65   -1.1891e+65  -7.19673e+66
   -3.5442e+60   2.30955e+58  -5.26402e+59  -8.00762e+66 -4.81699e+133 -2.12143e+199   1.05968e+67  -6.82371e+66   4.79844e+65  -1.66376e+66    2.2436e+65   5.52927e+64  -7.44291e+66
  -2.97953e+60   1.64293e+58  -8.90076e+59  -7.05023e+66 -3.67703e+133 -1.82921e+198   9.29925e+66  -4.34453e+66    5.3504e+64   -2.7592e+66    8.2814e+64  -6.79173e+64  -6.95458e+66
   -2.9783e+60  -2.96225e+46  -8.90566e+59  -6.94217e+66 -3.41123e+133 -2.53799e+198   9.07227e+66  -4.29657e+66   7.64767e+64  -2.72208e+66  -5.79244e+64   2.31306e+64  -6.72809e+66
  -3.48684e+60  -9.67273e+45  -9.03755e+59  -1.36196e+67  1.44138e+133  6.24059e+198   1.30798e+67  -7.95268e+66  -1.52523e+66  -4.14169e+66  -1.49566e+65   1.60555e+64  -6.07848e+66
     -3.49e+60   1.45021e+58  -9.03415e+59  -1.38357e+67  1.33223e+133  9.79654e+198   1.33456e+67  -8.06275e+66  -1.57118e+66  -4.20179e+66   2.56423e+65  -7.49924e+64  -6.30509e+66
  -3.00816e+60   4.17785e+46  -5.24446e+59  -2.57805e+66 -6.48828e+133 -7.70926e+199   8.45749e+66  -3.36876e+66   1.28576e+66  -4.95046e+65   7.04187e+64   1.11714e+65  -7.84635e+66
  -3.00965e+60  -1.94082e+58  -5.26811e+59  -2.68677e+66 -6.86628e+133 -8.04443e+199     8.711e+66  -3.41686e+66   1.26264e+66  -5.32552e+65  -7.03197e+64  -6.24887e+64   -8.0924e+66
   -3.5442e+60  -2.30955e+58  -5.26402e+59  -8.00762e+66 -4.81699e+133 -2.12143e+199   1.05968e+67  -6.82371e+66   4.79844e+65  -1.66376e+66   -2.2436e+65  -5.52927e+64  -7.44291e+66
  -3.54036e+60   6.86902e+46  -5.23885e+59  -7.79084e+66 -4.54505e+133 -2.17417e+199   1.03028e+67   -6.7135e+66   5.25931e+65  -1.60328e+66   1.81629e+65    1.1891e+65  -7.19673e+66
   -2.9783e+60  -2.96225e+46  -8.90566e+59  -6.94217e+66 -3.41123e+133 -2.53799e+198   9.07227e+66  -4.29657e+66   7.64767e+64  -2.72208e+66   5.79244e+64  -2.31306e+64  -6.72809e+66
  -2.97953e+60  -1.64293e+58  -8.90076e+59  -7.05023e+66 -3.67703e+133 -1.82921e+198   9.29925e+66  -4.34453e+66    5.3504e+64   -2.7592e+66   -8.2814e+64   6.79173e+64  -6.95458e+66
     -3.49e+60  -1.45021e+58  -9.03415e+59  -1.38357e+67  1.33223e+133  9.79654e+198   1.33456e+67  -8.06275e+66  -1.57118e+66  -4.20179e+66  -2.56423e+65   7.49924e+64  -6.30509e+66
  -3.48684e+60  -9.67273e+45  -9.03755e+59  -1.36196e+67  1.44138e+133  6.24059e+198   1.30798e+67  -7.95268e+66  -1.52523e+66  -4.14169e+66   1.49566e+65  -1.60555e+64  -6.07848e+66
  -3.00965e+60  -1.94082e+58  -5.26811e+59  -2.58231e+66 -6.89429e+133 -8.44379e+199   8.69547e+66  -3.39466e+66   1.32269e+66  -5.10344e+65   8.15575e+64   1.29213e+65   -8.0924e+66
  -3.01435e+60  -3.92169e+58  -5.33233e+59  -2.74356e+66 -8.33061e+133 -1.00671e+200   9.53065e+66  -3.50597e+66   1.28841e+66  -5.25994e+65  -5.87641e+64  -4.56358e+64  -8.94147e+66
  -3.55827e+60  -4.66051e+58  -5.32627e+59  -8.74058e+66 -5.87931e+133 -2.02142e+199   1.16272e+67  -7.30278e+66   3.63148e+65  -1.80095e+66  -1.47809e+65  -5.49514e+64  -8.28337e+66
   -3.5442e+60  -2.30955e+58  -5.26402e+59  -7.89959e+66 -4.88944e+133 -2.42286e+199   1.05498e+67  -6.80074e+66    5.4194e+65  -1.64079e+66   2.58704e+65   1.19897e+65  -7.44291e+66
  -2.97953e+60  -1.64293e+58  -8.90076e+59  -6.94346e+66 -3.73523e+133 -4.18434e+198   9.25008e+66  -4.32183e+66   1.14872e+65   -2.7365e+66   4.30393e+64  -1.22096e+64  -6.95458e+66
  -2.98342e+60  -3.32678e+58  -8.87891e+59  -7.15224e+66 -4.71657e+133 -3.11512e+198   9.91566e+66  -4.44325e+66   7.04854e+64  -2.77948e+66  -9.72823e+64   7.91328e+64  -7.68055e+66
  -3.50065e+60  -2.94072e+58  -9.01214e+59  -1.46191e+67  9.89006e+132  2.11503e+199   1.42768e+67  -8.55254e+66  -1.69964e+66  -4.36692e+66  -3.09429e+65   7.84253e+64  -7.02244e+66
     -3.49e+60  -1.45021e+58  -9.03415e+59  -1.37306e+67  1.23017e+133  9.34725e+198   1.32751e+67   -8.0404e+66  -1.51074e+66  -4.17944e+66   9.70836e+64  -1.29171e+64  -6.30509e+66
  -3.55827e+60   4.66051e+58  -5.32627e+59  -4.14625e+66 -2.68826e+133 -2.61218e+199   6.63883e+66  -6.32603e+66   1.33989e+66   8.39881e+65   1.47809e+65  -2.84031e+64  -3.76776e+66
   -3.5442e+60   2.30955e+58  -5.26402e+59  -3.58442e+66 -2.29506e+133 -2.28057e+199   5.98319e+66  -5.88334e+66   1.45934e+66   8.39588e+65  -2.58704e+65  -1.20704e+65  -3.25099e+66
  -3.99003e+60   2.67657e+58  -5.09451e+59  -3.39089e+66 -2.05763e+133 -2.02573e+199   5.66343e+66   -5.9567e+66   1.68508e+66   8.80732e+65  -1.17457e+65  -6.08338e+64  -2.59982e+66
  -4.00661e+60    5.2229e+58  -5.14409e+59  -4.15302e+66 -2.40933e+133  -2.3419e+199   6.42969e+66  -6.51452e+66   1.52306e+66   8.38443e+65   5.54135e+65   3.14667e+64  -3.11098e+66
  -3.50065e+60   2.94072e+58  -9.01214e+59  -1.00175e+67  6.12772e+132  1.03139e+198   9.70679e+66  -7.57424e+66  -7.21339e+65  -1.72188e+66   3.09429e+65  -1.55367e+65  -3.67423e+66
     -3.49e+60   1.45021e+58  -9.03415e+59  -9.42464e+66  7.19005e+132 -1.12802e+198   9.03515e+66  -7.12497e+66  -5.95308e+65  -1.70437e+66  -9.70836e+64   1.74118e+64  -3.19374e+66
  -3.93461e+60     1.267e+58  -9.00247e+59  -1.06948e+67  1.98346e+133 -1.01037e+199    9.7234e+66  -7.50951e+66   -1.2109e+66  -1.97441e+66   8.04372e+64    7.1672e+64  -2.54257e+66
  -3.94701e+60    2.3918e+58  -8.96898e+59  -1.14879e+67  2.06903e+133 -8.40787e+198    1.0549e+67  -8.07391e+66  -1.37952e+66   -2.0345e+66   7.52029e+65  -1.01107e+65  -3.01746e+66
   -3.5442e+60   2.30955e+58  -5.26402e+59  -3.69245e+66  -2.2557e+133 -2.16097e+199   6.01591e+66  -5.90631e+66   1.39724e+66   8.16621e+65    2.2436e+65   5.44861e+64  -3.25099e+66
  -3.54036e+60   6.86902e+46  -5.23885e+59  -3.58325e+66 -2.19943e+133 -2.11609e+199   5.90203e+66  -5.81897e+66   1.42046e+66   8.15259e+65  -1.81629e+65   -1.1891e+65  -3.17736e+66
  -3.98748e+60   9.37922e+46  -5.07194e+59  -3.14297e+66 -2.11065e+133 -2.19116e+199   5.56639e+66  -5.91268e+66   1.86085e+66   9.08863e+65  -1.20297e+65  -1.06622e+65  -2.52892e+66
  -3.99003e+60   2.67657e+58  -5.09451e+59  -3.05113e+66 -2.19421e+133 -2.37011e+199    5.5903e+66  -5.88447e+66   1.88038e+66   9.52964e+65    5.4564e+65   6.67742e+64  -2.59982e+66
     -3.49e+60   1.45021e+58  -9.03415e+59  -9.52978e+66  7.88981e+132 -1.13972e+198   9.10642e+66  -7.14732e+66  -6.55741e+65  -1.72672e+66   2.56423e+65  -7.04978e+64  -3.19374e+66
  -3.48684e+60  -9.67273e+45  -9.03755e+59  -9.40554e+66  8.12492e+132 -1.59654e+198   8.96321e+66  -7.05678e+66  -6.29327e+65  -1.71943e+66  -1.49566e+65   1.60555e+64   -3.0837e+66
  -3.93198e+60   1.14313e+46  -9.00789e+59  -1.04006e+67   1.7968e+133 -8.53424e+198   9.49763e+66  -7.45565e+66  -1.01399e+66  -1.93098e+66  -1.24641e+65   2.56175e+64  -2.43526e+66
  -3.93461e+60     1.267e+58  -9.00247e+59  -1.03238e+67   1.6628e+133 -6.85184e+198   9.48439e+66  -7.43064e+66  -9.97663e+65  -1.89554e+66   5.41296e+65  -6.09357e+64  -2.54257e+66
  -3.54036e+60   6.86902e+46  -5.23885e+59  -3.58325e+66 -2.19943e+133 -2.11609e+199   5.90203e+66  -5.81897e+66   1.42046e+66   8.15259e+65   1.81629e+65    1.1891e+65  -3.17736e+66
   -3.5442e+60  -2.30955e+58  -5.26402e+59  -3.69245e+66  -2.2557e+133 -2.16097e+199   6.01591e+66  -5.90631e+66   1.39724e+66   8.16621e+65   -2.2436e+65  -5.44861e+64  -3.25099e+66
  -3.99003e+60  -2.67657e+58  -5.09451e+59  -3.05113e+66 -2.19421e+133 -2.37011e+199    5.5903e+66  -5.88447e+66   1.88038e+66   9.52964e+65   -5.4564e+65  -6.67742e+64  -2.59982e+66
  -3.98748e+60   9.37922e+46  -5.07194e+59  -3.14297e+66 -2.11065e+133 -2.19116e+199   5.56639e+66  -5.91268e+66   1.86085e+66   9.08863e+65   1.20297e+65   1.06622e+65  -2.52892e+66
  -3.48684e+60  -9.67273e+45  -9.03755e+59  -9.40554e+66  8.12492e+132 -1.59654e+198   8.96321e+66  -7.05678e+66  -6.29327e+65  -1.71943e+66   1.49566e+65  -1.60555e+64   -3.0837e+66
     -3.49e+60  -1.45021e+58  -9.03415e+59  -9.52978e+66  7.88981e+132 -1.13972e+198   9.10642e+66  -7.14732e+66  -6.55741e+65  -1.72672e+66  -2.56423e+65   7.04978e+64  -3.19374e+66
  -3.93461e+60    -1.267e+58  -9.00247e+59  -1.03238e+67   1.6628e+133 -6.85184e+198   9.48439e+66  -7.43064e+66  -9.97663e+65  -1.89554e+66  -5.41296e+65   6.09357e+64  -2.54257e+66
  -3.93198e+60   1.14313e+46  -9.00789e+59  -1.04006e+67   1.7968e+133 -8.53424e+198   9.49763e+66  -7.45565e+66  -1.01399e+66  -1.93098e+66   1.24641e+65  -2.56175e+64  -2.43526e+66
   -3.5442e+60  -2.30955e+58  -5.26402e+59  -3.58442e+66 -2.29506e+133 -2.28057e+199   5.98319e+66  -5.88334e+66   1.45934e+66   8.39588e+65   2.58704e+65   1.20704e+65  -3.25099e+66
  -3.55827e+60  -4.66051e+58  -5.32627e+59  -4.14625e+66 -2.68826e+133 -2.61218e+199   6.63883e+66  -6.32603e+66   1.33989e+66   8.39881e+65  -1.47809e+65   2.84031e+64  -3.76776e+66
  -4.00661e+60   -5.2229e+58  -5.14409e+59  -4.15302e+66 -2.40933e+133  -2.3419e+199   6.42969e+66  -6.51452e+66   1.52306e+66   8.38443e+65  -5.54135e+65  -3.14667e+64  -3.11098e+66
  -3.99003e+60  -2.67657e+58  -5.09451e+59  -3.39089e+66 -2.05763e+133 -2.02573e+199   5.66343e+66   -5.9567e+66   1.68508e+66   8.80732e+65   1.17457e+65   6.08338e+64  -2.59982e+66
     -3.49e+60  -1.45021e+58  -9.03415e+59  -9.42464e+66  7.19005e+132 -1.12802e+198   9.03515e+66  -7.12497e+66  -5.95308e+65  -1.70437e+66   9.70836e+64  -1.74118e+64  -3.19374e+66
  -3.50065e+60  -2.94072e+58  -9.01214e+59  -1.00175e+67  6.12772e+132  1.03139e+198   9.70679e+66  -7.57424e+66  -7.21339e+65  -1.72188e+66  -3.09429e+65   1.55367e+65  -3.67423e+66
  -3.94701e+60   -2.3918e+58  -8.96898e+59  -1.14879e+67  2.06903e+133 -8.40787e+198    1.0549e+67  -8.07391e+66  -1.37952e+66   -2.0345e+66  -7.52029e+65   1.01107e+65  -3.01746e+66
  -3.93461e+60    -1.267e+58  -9.00247e+59  -1.06948e+67  1.98346e+133 -1.01037e+199    9.7234e+66  -7.50951e+66   -1.2109e+66  -1.97441e+66  -8.04372e+64   -7.1672e+64  -2.54257e+66
   -7.7986e+59  -1.61556e+58  -7.56534e+58   2.43433e+66 -1.55509e+134  3.63784e+199   1.27057e+67   5.83639e+66  -2.17885e+65  -3.18418e+66  -4.65041e+65   2.06202e+65  -1.16657e+67
  -8.08655e+59  -8.37237e+57  -7.06045e+58   2.88143e+66 -1.40501e+134  1.78116e+199   1.21985e+67    5.7646e+66  -1.22832e+65  -2.76035e+66   4.30026e+65  -1.16786e+64  -1.11371e+67
   -1.2871e+60  -3.57062e+57  -1.06301e+59   9.73839e+65 -9.72744e+133  1.04552e+199   9.91074e+66   4.23236e+66  -9.26214e+64   -3.1659e+66   3.65727e+65  -1.76071e+65  -9.14394e+66
  -1.26434e+60    -6.742e+57   -1.1483e+59   5.59684e+65 -1.10991e+134  2.06587e+199   1.05501e+67   4.32308e+66   -1.8067e+65  -3.58273e+66  -3.29429e+65   4.18101e+64  -9.76004e+66
  -8.36151e+59   2.24832e+58  -3.13215e+59  -3.14573e+66 -1.63104e+134  -5.9506e+199   1.31529e+67   4.65008e+66   3.85939e+65  -8.18175e+66  -5.48462e+65   2.81024e+64  -1.11083e+67
  -8.63181e+59   1.13208e+58   -3.1331e+59  -3.18197e+66 -1.49235e+134 -5.50004e+199   1.26238e+67   4.47554e+66   3.78234e+65  -8.03574e+66   3.46605e+65   1.01336e+64  -1.05738e+67
   -1.3297e+60     1.144e+58  -3.91196e+59  -6.19342e+66 -9.58582e+133  2.29231e+199   1.15852e+67   2.70861e+66  -2.26058e+65  -8.67597e+66   2.76339e+65  -6.67235e+64  -8.58059e+66
  -1.30884e+60   2.29827e+58  -3.92727e+59  -6.12423e+66 -1.09199e+134   2.4469e+199   1.21122e+67   2.90209e+66  -2.11348e+65  -8.81497e+66  -4.18817e+65  -4.87547e+64  -9.20265e+66
  -8.08655e+59  -8.37237e+57  -7.06045e+58   2.72773e+66 -1.40942e+134  3.18537e+199   1.21813e+67   5.73193e+66  -2.11179e+65  -2.79302e+66  -5.04291e+65   1.51371e+65  -1.11371e+67
  -8.17674e+59   1.26535e+46  -6.90068e+58   2.90881e+66  -1.3669e+134  2.46349e+199   1.20479e+67   5.73086e+66  -1.72681e+65  -2.64936e+66   4.26094e+65  -7.54833e+64  -1.09903e+67
   -1.2944e+60   3.11676e+46  -1.03591e+59   1.01814e+66 -9.34049e+133  1.23494e+199    9.7181e+66   4.19039e+66  -1.20925e+65  -3.05132e+66   3.45202e+65  -1.28063e+65  -8.96356e+66
   -1.2871e+60  -3.57062e+57  -1.06301e+59   8.69689e+65 -9.73321e+133  1.58352e+199   9.90396e+66   4.21021e+66  -1.52487e+65  -3.18804e+66  -3.63959e+65   9.87909e+64  -9.14394e+66
  -8.63181e+59   1.13208e+58   -3.1331e+59  -3.14066e+66 -1.49498e+134 -5.72521e+199   1.26239e+67   4.48432e+66    4.0198e+65  -8.02696e+66  -5.24076e+65  -3.97849e+63  -1.05738e+67
  -8.71781e+59  -2.31392e+46  -3.13107e+59  -3.14521e+66 -1.45692e+134 -5.63879e+199   1.24733e+67   4.44378e+66   4.01013e+65     -7.99e+66   4.06309e+65  -9.60919e+63  -1.04211e+67
  -1.33646e+60  -1.55474e+46  -3.90591e+59  -6.25741e+66 -9.19405e+133    2.431e+199   1.14497e+67   2.64361e+66  -2.49375e+65  -8.65165e+66   3.19508e+65  -2.85705e+64   -8.3943e+66
   -1.3297e+60     1.144e+58  -3.91196e+59  -6.22024e+66  -9.5801e+133  2.46083e+199   1.15971e+67   2.70291e+66  -2.41471e+65  -8.68167e+66  -3.89653e+65  -2.29398e+64  -8.58059e+66
  -8.17674e+59   1.26535e+46  -6.90068e+58   2.90881e+66  -1.3669e+134  2.46349e+199   1.20479e+67   5.73086e+66  -1.72681e+65  -2.64936e+66  -4.26094e+65   7.54833e+64  -1.09903e+67
  -8.08655e+59   8.37237e+57  -7.06045e+58   2.72773e+66 -1.40942e+134  3.18537e+199   1.21813e+67   5.73193e+66  -2.11179e+65  -2.79302e+66   5.04291e+65  -1.51371e+65  -1.11371e+67
   -1.2871e+60   3.57062e+57  -1.06301e+59   8.69689e+65 -9.73321e+133  1.58352e+199   9.90396e+66   4.21021e+66  -1.52487e+65  -3.18804e+66   3.63959e+65  -9.87909e+64  -9.14394e+66
   -1.2944e+60   3.11676e+46  -1.03591e+59   1.01814e+66 -9.34049e+133  1.23494e+199    9.7181e+66   4.19039e+66  -1.20925e+65  -3.05132e+66  -3.45202e+65   1.28063e+65  -8.96356e+66
  -8.71781e+59  -2.31392e+46  -3.13107e+59  -3.14521e+66 -1.45692e+134 -5.63879e+199   1.24733e+67   4.44378e+66   4.01013e+65     -7.99e+66  -4.06309e+65   9.60919e+63  -1.04211e+67
  -8.63181e+59  -1.13208e+58   -3.1331e+59  -3.14066e+66 -1.49498e+134 -5.72521e+199   1.26239e+67   4.48432e+66    4.0198e+65  -8.02696e+66   5.24076e+65   3.97849e+63  -1.05738e+67
   -1.3297e+60    -1.144e+58  -3.91196e+59  -6.22024e+66  -9.5801e+133  2.46083e+199   1.15971e+67   2.70291e+66  -2.41471e+65  -8.68167e+66   3.89653e+65   2.29398e+64  -8.58059e+66
  -1.33646e+60  -1.55474e+46  -3.90591e+59  -6.25741e+66 -9.19405e+133    2.431e+199   1.14497e+67   2.64361e+66  -2.49375e+65  -8.65165e+66  -3.19508e+65   2.85705e+64   -8.3943e+66
  -8.08655e+59   8.37237e+57  -7.06045e+58   2.88143e+66 -1.40501e+134  1.78116e+199   1.21985e+67    5.7646e+66  -1.22832e+65  -2.76035e+66  -4.30026e+65   1.16786e+64  -1.11371e+67
   -7.7986e+59   1.61556e+58  -7.56534e+58   2.43433e+66 -1.55509e+134  3.63784e+199   1.27057e+67   5.83639e+66  -2.17885e+65  -3.18418e+66   4.65041e+65  -2.06202e+65  -1.16657e+67
  -1.26434e+60     6.742e+57   -1.1483e+59   5.59684e+65 -1.10991e+134  2.06587e+199   1.05501e+67   4.32308e+66   -1.8067e+65  -3.58273e+66   3.29429e+65  -4.18101e+64  -9.76004e+66
   -1.2871e+60   3.57062e+57  -1.06301e+59   9.73839e+65 -9.72744e+133  1.04552e+199   9.91074e+66   4.23236e+66  -9.26214e+64   -3.1659e+66  -3.65727e+65   1.76071e+65  -9.14394e+66
  -8.63181e+59  -1.13208e+58   -3.1331e+59  -3.18197e+66 -1.49235e+134 -5.50004e+199   1.26238e+67   4.47554e+66   3.78234e+65  -8.03574e+66  -3.46605e+65  -1.01336e+64  -1.05738e+67
  -8.36151e+59  -2.24832e+58  -3.13215e+59  -3.14573e+66 -1.63104e+134  -5.9506e+199   1.31529e+67   4.65008e+66   3.85939e+65  -8.18175e+66   5.48462e+65  -2.81024e+64  -1.11083e+67
  -1.30884e+60  -2.29827e+58  -3.92727e+59  -6.12423e+66 -1.09199e+134   2.4469e+199   1.21122e+67   2.90209e+66  -2.11348e+65  -8.81497e+66   4.18817e+65   4.87547e+64  -9.20265e+66
   -1.3297e+60    -1.144e+58  -3.91196e+59  -6.19342e+66 -9.58582e+133  2.29231e+199   1.15852e+67   2.70861e+66  -2.26058e+65  -8.67597e+66  -2.76339e+65   6.67235e+64  -8.58059e+66
  -1.26434e+60    -6.742e+57   -1.1483e+59   1.30968e+66 -1.95695e+134  6.38201e+198   1.40503e+67   4.48253e+66  -2.12212e+64  -3.15163e+66  -3.29429e+65   2.42965e+65  -1.34674e+67
   -1.2871e+60  -3.57062e+57  -1.06301e+59     1.648e+66 -1.75543e+134 -7.84281e+198   1.33514e+67   4.37568e+66   5.07047e+64  -2.77838e+66   3.65727e+65  -7.58036e+64    -1.278e+67
   -1.8425e+60   3.35344e+57  -1.39414e+59  -2.31204e+66   -1.322e+134  2.18615e+199    1.1728e+67    1.4619e+66  -1.53657e+65  -3.62028e+66   2.62587e+65  -2.26461e+65  -1.12747e+67
   -1.8273e+60   6.92933e+57  -1.51131e+59  -2.64007e+66 -1.50257e+134  3.42339e+199    1.2539e+67   1.57467e+66  -2.23395e+65  -3.99134e+66  -1.91193e+65    9.2307e+64  -1.20194e+67
  -1.30884e+60   2.29827e+58  -3.92727e+59  -2.84745e+66 -1.81332e+134 -8.51158e+199   1.37637e+67   3.59873e+66    4.8529e+65  -6.93147e+66  -4.18817e+65   7.83711e+64  -1.24334e+67
   -1.3297e+60     1.144e+58  -3.91196e+59  -2.82515e+66 -1.62705e+134 -7.83886e+199   1.30647e+67    3.4247e+66   4.90032e+65  -6.73988e+66   2.76339e+65   9.78518e+62   -1.1744e+67
  -1.86317e+60   1.29922e+58  -4.56169e+59    -8.118e+66  -1.0299e+134  5.17783e+199   1.29959e+67   2.27562e+65  -4.80436e+65  -7.86513e+66   1.71335e+65  -9.24482e+64  -1.02388e+67
  -1.84991e+60   2.61731e+58  -4.59678e+59  -8.13001e+66 -1.20347e+134  6.04205e+199   1.36544e+67   4.07512e+65  -4.82989e+65  -8.05454e+66  -2.82445e+65  -1.50555e+64  -1.09854e+67
   -1.2871e+60  -3.57062e+57  -1.06301e+59   1.54385e+66 -1.75706e+134  3.65814e+198    1.3345e+67   4.35354e+66  -9.16073e+63  -2.80053e+66  -3.63959e+65   1.99058e+65    -1.278e+67
   -1.2944e+60   3.11676e+46  -1.03591e+59   1.71493e+66 -1.69596e+134 -3.25632e+198   1.31354e+67   4.33852e+66   2.72109e+64   -2.6508e+66   3.45202e+65  -1.28063e+65  -1.25701e+67
  -1.84747e+60   5.54295e+46  -1.35504e+59   -2.2217e+66 -1.26554e+134  2.08124e+199   1.14669e+67   1.42149e+66  -1.55468e+65  -3.48772e+66   2.34797e+65  -1.84741e+65  -1.10376e+67
   -1.8425e+60   3.35344e+57  -1.39414e+59  -2.37007e+66 -1.32045e+134   2.5613e+199    1.1733e+67   1.44956e+66  -1.87012e+65  -3.63262e+66  -2.20576e+65    1.4238e+65  -1.12747e+67
   -1.3297e+60     1.144e+58  -3.91196e+59  -2.85196e+66 -1.62718e+134 -7.49793e+199    1.3071e+67     3.419e+66   4.74618e+65  -6.74558e+66  -3.89653e+65   4.47622e+64   -1.1744e+67
  -1.33646e+60  -1.55474e+46  -3.90591e+59  -2.83124e+66 -1.57162e+134 -7.35856e+199   1.28522e+67   3.37201e+66   4.79023e+65  -6.68228e+66   3.19508e+65  -2.85705e+64    -1.153e+67
  -1.86751e+60  -1.23209e+45  -4.54941e+59  -8.16923e+66 -9.73232e+133  5.20814e+199   1.28086e+67   1.57059e+65  -5.09158e+65  -7.81713e+66    2.0499e+65  -5.80173e+64  -9.99751e+66
  -1.86317e+60   1.29922e+58  -4.56169e+59  -8.16724e+66 -1.02709e+134  5.47738e+199   1.30159e+67   2.17095e+65  -5.08735e+65   -7.8756e+66  -2.50383e+65   1.53154e+64  -1.02388e+67
   -1.2944e+60   3.11676e+46  -1.03591e+59   1.71493e+66 -1.69596e+134 -3.25632e+198   1.31354e+67   4.33852e+66   2.72109e+64   -2.6508e+66  -3.45202e+65   1.28063e+65  -1.25701e+67
   -1.2871e+60   3.57062e+57  -1.06301e+59   1.54385e+66 -1.75706e+134  3.65814e+198    1.3345e+67   4.35354e+66  -9.16073e+63  -2.80053e+66   3.63959e+65  -1.99058e+65    -1.278e+67
   -1.8425e+60  -3.35344e+57  -1.39414e+59  -2.37007e+66 -1.32045e+134   2.5613e+199    1.1733e+67   1.44956e+66  -1.87012e+65  -3.63262e+66   2.20576e+65   -1.4238e+65  -1.12747e+67
  -1.84747e+60   5.54295e+46  -1.35504e+59   -2.2217e+66 -1.26554e+134  2.08124e+199   1.14669e+67   1.42149e+66  -1.55468e+65  -3.48772e+66  -2.34797e+65   1.84741e+65  -1.10376e+67
  -1.33646e+60  -1.55474e+46  -3.90591e+59  -2.83124e+66 -1.57162e+134 -7.35856e+199   1.28522e+67   3.37201e+66   4.79023e+65  -6.68228e+66  -3.19508e+65   2.85705e+64    -1.153e+67
   -1.3297e+60    -1.144e+58  -3.91196e+59  -2.85196e+66 -1.62718e+134 -7.49793e+199    1.3071e+67     3.419e+66   4.74618e+65  -6.74558e+66   3.89653e+65  -4.47622e+64   -1.1744e+67
  -1.86317e+60  -1.29922e+58  -4.56169e+59  -8.16724e+66 -1.02709e+134  5.47738e+199   1.30159e+67   2.17095e+65  -5.08735e+65   -7.8756e+66   2.50383e+65  -1.53154e+64  -1.02388e+67
  -1.86751e+60  -1.23209e+45  -4.54941e+59  -8.16923e+66 -9.73232e+133  5.20814e+199   1.28086e+67   1.57059e+65  -5.09158e+65  -7.81713e+66   -2.0499e+65   5.80173e+64  -9.99751e+66
   -1.2871e+60   3.57062e+57  -1.06301e+59     1.648e+66 -1.75543e+134 -7.84281e+198   1.33514e+67   4.37568e+66   5.07047e+64  -2.77838e+66  -3.65727e+65   7.58036e+64    -1.278e+67
  -1.26434e+60     6.742e+57   -1.1483e+59   1.30968e+66 -1.95695e+134  6.38201e+198   1.40503e+67   4.48253e+66  -2.12212e+64  -3.15163e+66   3.29429e+65  -2.42965e+65  -1.34674e+67
   -1.8273e+60  -6.92933e+57  -1.51131e+59  -2.64007e+66 -1.50257e+134  3.42339e+199    1.2539e+67   1.57467e+66  -2.23395e+65  -3.99134e+66   1.91193e+65   -9.2307e+64  -1.20194e+67
   -1.8425e+60  -3.35344e+57  -1.39414e+59  -2.31204e+66   -1.322e+134  2.18615e+199    1.1728e+67    1.4619e+66  -1.53657e+65  -3.62028e+66  -2.62587e+65   2.26461e+65  -1.12747e+67
   -1.3297e+60    -1.144e+58  -3.91196e+59  -2.82515e+66 -1.62705e+134 -7.83886e+199   1.30647e+67    3.4247e+66   4.90032e+65  -6.73988e+66  -2.76339e+65  -9.78518e+62   -1.1744e+67
  -1.30884e+60  -2.29827e+58  -3.92727e+59  -2.84745e+66 -1.81332e+134 -8.51158e+199   1.37637e+67   3.59873e+66    4.8529e+65  -6.93147e+66   4.18817e+65  -7.83711e+64  -1.24334e+67
  -1.84991e+60  -2.61731e+58  -4.59678e+59  -8.13001e+66 -1.20347e+134  6.04205e+199   1.36544e+67   4.07512e+65  -4.82989e+65  -8.05454e+66   2.82445e+65   1.50555e+64  -1.09854e+67
  -1.86317e+60  -1.29922e+58  -4.56169e+59    -8.118e+66  -1.0299e+134  5.17783e+199   1.29959e+67   2.27562e+65  -4.80436e+65  -7.86513e+66  -1.71335e+65   9.24482e+64  -1.02388e+67
   -1.8273e+60   6.92933e+57  -1.51131e+59  -3.39868e+65 -2.13407e+134 -5.51069e+199   1.46124e+67   2.06368e+66   2.65624e+65  -2.66918e+66  -1.91193e+65   2.86073e+65   -1.4409e+67
   -1.8425e+60   3.35344e+57  -1.39414e+59  -5.79849e+61 -1.89384e+134 -6.28555e+199   1.37617e+67   1.95342e+66   3.37867e+65  -2.29135e+66   2.62587e+65  -1.31594e+65  -1.35907e+67
  -2.44693e+60   1.22855e+58  -1.63664e+59   -6.1771e+66 -1.47351e+134  2.18556e+199   1.36201e+67  -2.43249e+66   -1.4003e+65  -3.60458e+66   1.21702e+65  -2.84386e+65  -1.25247e+67
  -2.44084e+60    2.4702e+58  -1.78616e+59  -6.64079e+66  -1.6876e+134  4.08584e+199   1.45897e+67  -2.39344e+66  -2.38608e+65  -4.00874e+66  -4.99703e+64   1.33281e+65  -1.34113e+67
  -1.84991e+60   2.61731e+58  -4.59678e+59  -3.34348e+66  -1.7485e+134 -9.11715e+199   1.36392e+67   1.42512e+66   5.34619e+65  -5.30322e+66  -2.82445e+65   1.02175e+65  -1.28502e+67
  -1.86317e+60   1.29922e+58  -4.56169e+59  -3.38058e+66 -1.53746e+134 -7.95954e+199    1.2852e+67   1.23473e+66   5.26733e+65  -5.14204e+66   1.71335e+65  -3.33848e+64  -1.20544e+67
  -2.43508e+60   1.57946e+58  -5.02983e+59  -1.11153e+67 -8.84354e+133  8.24142e+199   1.45598e+67  -3.48236e+66  -8.46548e+65  -6.78644e+66   5.28844e+64  -1.17918e+65  -1.09884e+67
  -2.43045e+60   3.18448e+58  -5.08281e+59  -1.12021e+67   -1.081e+134  1.01377e+200   1.52836e+67  -3.36317e+66  -8.64997e+65  -6.97396e+66  -1.18788e+65   1.76412e+64  -1.18525e+67
   -1.8425e+60   3.35344e+57  -1.39414e+59  -5.80862e+64 -1.89395e+134 -5.61821e+199   1.37622e+67   1.94109e+66   3.04512e+65  -2.30369e+66  -2.20576e+65   2.37248e+65  -1.35907e+67
  -1.84747e+60   5.54295e+46  -1.35504e+59   6.30456e+64 -1.81901e+134 -5.88058e+199   1.34872e+67   1.90723e+66   3.30264e+65  -2.17445e+66   2.34797e+65  -1.84741e+65  -1.33258e+67
  -2.44897e+60   8.52497e+46  -1.58658e+59  -6.05891e+66 -1.40577e+134  1.87085e+199   1.33149e+67  -2.45567e+66  -1.27277e+65  -3.47596e+66   9.65508e+64  -2.36485e+65  -1.22394e+67
  -2.44693e+60   1.22855e+58  -1.63664e+59  -6.21127e+66  -1.4713e+134  2.40629e+199   1.36275e+67  -2.43976e+66  -1.59668e+65  -3.61184e+66  -6.92294e+64   1.85503e+65  -1.25247e+67
  -1.86317e+60   1.29922e+58  -4.56169e+59  -3.42981e+66 -1.53642e+134 -7.48054e+199    1.2861e+67   1.22426e+66   4.98434e+65  -5.15251e+66  -2.50383e+65   7.43788e+64  -1.20544e+67
  -1.86751e+60  -1.23209e+45  -4.54941e+59  -3.42127e+66 -1.47066e+134  -7.2075e+199   1.26004e+67   1.16647e+66   5.00249e+65  -5.08799e+66    2.0499e+65  -5.80173e+64  -1.17951e+67
  -2.43661e+60   1.84373e+46  -5.01091e+59  -1.11423e+67 -8.18937e+133  7.98504e+199   1.43542e+67  -3.53639e+66  -8.76433e+65  -6.72946e+66   7.23991e+64  -8.93709e+64  -1.07087e+67
  -2.43508e+60   1.57946e+58  -5.02983e+59   -1.1182e+67 -8.78647e+133   8.5958e+199   1.45912e+67  -3.49654e+66  -8.84887e+65  -6.80062e+66  -9.33811e+64   4.30252e+64  -1.09884e+67
  -1.84747e+60   5.54295e+46  -1.35504e+59   6.30456e+64 -1.81901e+134 -5.88058e+199   1.34872e+67   1.90723e+66   3.30264e+65  -2.17445e+66  -2.34797e+65   1.84741e+65  -1.33258e+67
   -1.8425e+60  -3.35344e+57  -1.39414e+59  -5.80862e+64 -1.89395e+134 -5.61821e+199   1.37622e+67   1.94109e+66   3.04512e+65  -2.30369e+66   2.20576e+65  -2.37248e+65  -1.35907e+67
  -2.44693e+60  -1.22855e+58  -1.63664e+59  -6.21127e+66  -1.4713e+134  2.40629e+199   1.36275e+67  -2.43976e+66  -1.59668e+65  -3.61184e+66   6.92294e+64  -1.85503e+65  -1.25247e+67
  -2.44897e+60   8.52497e+46  -1.58658e+59  -6.05891e+66 -1.40577e+134  1.87085e+199   1.33149e+67  -2.45567e+66  -1.27277e+65  -3.47596e+66  -9.65508e+64   2.36485e+65  -1.22394e+67
  -1.86751e+60  -1.23209e+45  -4.54941e+59  -3.42127e+66 -1.47066e+134  -7.2075e+199   1.26004e+67   1.16647e+66   5.00249e+65  -5.08799e+66   -2.0499e+65   5.80173e+64  -1.17951e+67
  -1.86317e+60  -1.29922e+58  -4.56169e+59  -3.42981e+66 -1.53642e+134 -7.48054e+199    1.2861e+67   1.22426e+66   4.98434e+65  -5.15251e+66   2.50383e+65  -7.43788e+64  -1.20544e+67
  -2.43508e+60  -1.57946e+58  -5.02983e+59   -1.1182e+67 -8.78647e+133   8.5958e+199   1.45912e+67  -3.49654e+66  -8.84887e+65  -6.80062e+66   9.33811e+64  -4.30252e+64  -1.09884e+67
  -2.43661e+60   1.84373e+46  -5.01091e+59  -1.11423e+67 -8.18937e+133  7.98504e+199   1.43542e+67  -3.53639e+66  -8.76433e+65  -6.72946e+66  -7.23991e+64   8.93709e+64  -1.07087e+67
   -1.8425e+60  -3.35344e+57  -1.39414e+59  -5.79849e+61 -1.89384e+134 -6.28555e+199   1.37617e+67   1.95342e+66   3.37867e+65  -2.29135e+66  -2.62587e+65   1.31594e+65  -1.35907e+67
   -1.8273e+60  -6.92933e+57  -1.51131e+59  -3.39868e+65 -2.13407e+134 -5.51069e+199   1.46124e+67   2.06368e+66   2.65624e+65  -2.66918e+66   1.91193e+65  -2.86073e+65   -1.4409e+67
  -2.44084e+60   -2.4702e+58  -1.78616e+59  -6.64079e+66  -1.6876e+134  4.08584e+199   1.45897e+67  -2.39344e+66  -2.38608e+65  -4.00874e+66   4.99703e+64  -1.33281e+65  -1.34113e+67
  -2.44693e+60  -1.22855e+58  -1.63664e+59   -6.1771e+66 -1.47351e+134  2.18556e+199   1.36201e+67  -2.43249e+66   -1.4003e+65  -3.60458e+66  -1.21702e+65   2.84386e+65  -1.25247e+67
  -1.86317e+60  -1.29922e+58  -4.56169e+59  -3.38058e+66 -1.53746e+134 -7.95954e+199    1.2852e+67   1.23473e+66   5.26733e+65  -5.14204e+66  -1.71335e+65   3.33848e+64  -1.20544e+67
  -1.84991e+60  -2.61731e+58  -4.59678e+59  -3.34348e+66  -1.7485e+134 -9.11715e+199   1.36392e+67   1.42512e+66   5.34619e+65  -5.30322e+66   2.82445e+65  -1.02175e+65  -1.28502e+67
  -2.43045e+60  -3.18448e+58  -5.08281e+59  -1.12021e+67   -1.081e+134  1.01377e+200   1.52836e+67  -3.36317e+66  -8.64997e+65  -6.97396e+66   1.18788e+65  -1.76412e+64  -1.18525e+67
  -2.43508e+60  -1.57946e+58  -5.02983e+59  -1.11153e+67 -8.84354e+133  8.24142e+199   1.45598e+67  -3.48236e+66  -8.46548e+65  -6.78644e+66  -5.28844e+64   1.17918e+65  -1.09884e+67
  -2.44084e+60    2.4702e+58  -1.78616e+59  -2.15724e+66 -1.97183e+134 -1.38819e+200   1.42069e+67  -1.44024e+66   7.14586e+65  -1.43159e+66  -4.99703e+64   2.99294e+65  -1.40393e+67
  -2.44693e+60   1.22855e+58  -1.63664e+59  -1.92256e+66 -1.71093e+134 -1.28454e+200   1.32208e+67  -1.52799e+66   7.64479e+65  -1.15906e+66   1.21702e+65  -2.04088e+65  -1.30673e+67
  -3.06283e+60   2.29173e+58  -1.71605e+59  -9.92808e+66  -1.3208e+134 -8.86115e+198   1.51871e+67  -7.13635e+66   6.92808e+64  -2.86102e+66  -6.26617e+64  -3.15407e+65  -1.23167e+67
  -3.06767e+60   4.59887e+58  -1.88913e+59  -1.05767e+67 -1.53989e+134  1.04378e+199   1.63051e+67  -7.28654e+66  -6.86147e+64  -3.22155e+66    9.1484e+64   1.87975e+65  -1.33469e+67
  -2.43045e+60   3.18448e+58  -5.08281e+59  -5.03224e+66 -1.39706e+134 -6.09566e+199   1.28464e+67  -2.05146e+66    4.4671e+65  -3.42749e+66  -1.18788e+65   9.79736e+64  -1.20111e+67
  -2.43508e+60   1.57946e+58  -5.02983e+59  -5.11903e+66 -1.18535e+134 -4.96254e+199   1.20308e+67  -2.20755e+66    4.2826e+65  -3.33974e+66   5.28844e+64  -7.95897e+64  -1.11141e+67
  -3.00965e+60   1.94082e+58  -5.26811e+59  -1.49236e+67 -4.52298e+133  8.18853e+199    1.6369e+67  -8.19839e+66  -1.30106e+66  -5.42418e+66  -5.65142e+64   -1.3269e+65  -1.03635e+67
  -3.01435e+60   3.92169e+58  -5.33233e+59  -1.52508e+67 -6.27325e+133  1.12012e+200   1.71848e+67  -8.28024e+66  -1.37061e+66  -5.59994e+66   9.76316e+64    4.4873e+64  -1.13187e+67
  -2.44693e+60   1.22855e+58  -1.63664e+59  -1.95673e+66 -1.71051e+134 -1.25255e+200   1.32242e+67  -1.53525e+66   7.44841e+65  -1.16632e+66  -6.92294e+64   2.65801e+65  -1.30673e+67
  -2.44897e+60   8.52497e+46  -1.58658e+59  -1.84455e+66 -1.63149e+134 -1.23137e+200   1.29055e+67   -1.5597e+66    7.6869e+65  -1.05354e+66   9.65508e+64  -2.36485e+65  -1.27561e+67
  -3.06141e+60   1.18111e+47  -1.65658e+59  -9.73877e+66 -1.25218e+134 -1.16763e+199   1.48345e+67   -7.1019e+66   9.49649e+64  -2.73183e+66  -6.75194e+64  -2.80953e+65  -1.19834e+67
  -3.06283e+60   2.29173e+58  -1.71605e+59   -9.9683e+66  -1.3172e+134  -6.2151e+198   1.52015e+67   -7.1449e+66   4.61673e+64  -2.86957e+66   9.82623e+64   2.21334e+65  -1.23167e+67
  -2.43508e+60   1.57946e+58  -5.02983e+59  -5.18573e+66  -1.1826e+134 -4.50456e+199   1.20479e+67  -2.22173e+66    3.8992e+65  -3.35392e+66  -9.33811e+64   8.13537e+64  -1.11141e+67
  -2.43661e+60   1.84373e+46  -5.01091e+59  -5.19572e+66 -1.11817e+134 -4.23417e+199   1.17819e+67  -2.27216e+66   3.87797e+65  -3.31136e+66   7.23991e+64  -8.93709e+64  -1.08241e+67
  -3.00816e+60   4.17785e+46  -5.24446e+59  -1.49207e+67  -3.8746e+133  7.61264e+199   1.61671e+67  -8.20358e+66  -1.33828e+66  -5.37888e+66  -7.04187e+64  -1.11714e+65  -1.00515e+67
  -3.00965e+60   1.94082e+58  -5.26811e+59  -1.50281e+67 -4.40401e+133  8.52069e+199   1.64281e+67   -8.2206e+66   -1.3611e+66  -5.44639e+66   9.53631e+64    5.9011e+64  -1.03635e+67
  -2.44897e+60   8.52497e+46  -1.58658e+59  -1.84455e+66 -1.63149e+134 -1.23137e+200   1.29055e+67   -1.5597e+66    7.6869e+65  -1.05354e+66  -9.65508e+64   2.36485e+65  -1.27561e+67
  -2.44693e+60  -1.22855e+58  -1.63664e+59  -1.95673e+66 -1.71051e+134 -1.25255e+200   1.32242e+67  -1.53525e+66   7.44841e+65  -1.16632e+66   6.92294e+64  -2.65801e+65  -1.30673e+67
  -3.06283e+60  -2.29173e+58  -1.71605e+59   -9.9683e+66  -1.3172e+134  -6.2151e+198   1.52015e+67   -7.1449e+66   4.61673e+64  -2.86957e+66  -9.82623e+64  -2.21334e+65  -1.23167e+67
  -3.06141e+60   1.18111e+47  -1.65658e+59  -9.73877e+66 -1.25218e+134 -1.16763e+199   1.48345e+67   -7.1019e+66   9.49649e+64  -2.73183e+66   6.75194e+64   2.80953e+65  -1.19834e+67
  -2.43661e+60   1.84373e+46  -5.01091e+59  -5.19572e+66 -1.11817e+134 -4.23417e+199   1.17819e+67  -2.27216e+66   3.87797e+65  -3.31136e+66  -7.23991e+64   8.93709e+64  -1.08241e+67
  -2.43508e+60  -1.57946e+58  -5.02983e+59  -5.18573e+66  -1.1826e+134 -4.50456e+199   1.20479e+67  -2.22173e+66    3.8992e+65  -3.35392e+66   9.33811e+64  -8.13537e+64  -1.11141e+67
  -3.00965e+60  -1.94082e+58  -5.26811e+59  -1.50281e+67 -4.40401e+133  8.52069e+199   1.64281e+67   -8.2206e+66   -1.3611e+66  -5.44639e+66  -9.53631e+64   -5.9011e+64  -1.03635e+67
  -3.00816e+60   4.17785e+46  -5.24446e+59  -1.49207e+67  -3.8746e+133  7.61264e+199   1.61671e+67  -8.20358e+66  -1.33828e+66  -5.37888e+66   7.04187e+64   1.11714e+65  -1.00515e+67
  -2.44693e+60  -1.22855e+58  -1.63664e+59  -1.92256e+66 -1.71093e+134 -1.28454e+200   1.32208e+67  -1.52799e+66   7.64479e+65  -1.15906e+66  -1.21702e+65   2.04088e+65  -1.30673e+67
  -2.44084e+60   -2.4702e+58  -1.78616e+59  -2.15724e+66 -1.97183e+134 -1.38819e+200   1.42069e+67  -1.44024e+66   7.14586e+65  -1.43159e+66   4.99703e+64  -2.99294e+65  -1.40393e+67
  -3.06767e+60  -4.59887e+58  -1.88913e+59  -1.05767e+67 -1.53989e+134  1.04378e+199   1.63051e+67  -7.28654e+66  -6.86147e+64  -3.22155e+66   -9.1484e+64  -1.87975e+65  -1.33469e+67
  -3.06283e+60  -2.29173e+58  -1.71605e+59  -9.92808e+66  -1.3208e+134 -8.86115e+198   1.51871e+67  -7.13635e+66   6.92808e+64  -2.86102e+66   6.26617e+64   3.15407e+65  -1.23167e+67
  -2.43508e+60  -1.57946e+58  -5.02983e+59  -5.11903e+66 -1.18535e+134 -4.96254e+199   1.20308e+67  -2.20755e+66    4.2826e+65  -3.33974e+66  -5.28844e+64   7.95897e+64  -1.11141e+67
  -2.43045e+60  -3.18448e+58  -5.08281e+59  -5.03224e+66 -1.39706e+134 -6.09566e+199   1.28464e+67  -2.05146e+66    4.4671e+65  -3.42749e+66   1.18788e+65  -9.79736e+64  -1.20111e+67
  -3.01435e+60  -3.92169e+58  -5.33233e+59  -1.52508e+67 -6.27325e+133  1.12012e+200   1.71848e+67  -8.28024e+66  -1.37061e+66  -5.59994e+66  -9.76316e+64   -4.4873e+64  -1.13187e+67
  -3.00965e+60  -1.94082e+58  -5.26811e+59  -1.49236e+67 -4.52298e+133  8.18853e+199    1.6369e+67  -8.19839e+66  -1.30106e+66  -5.42418e+66   5.65142e+64    1.3269e+65  -1.03635e+67
  -3.06767e+60   4.59887e+58  -1.88913e+59  -4.43862e+66 -1.41679e+134 -1.66524e+200   1.27035e+67  -5.98159e+66   1.23633e+66    3.0664e+65    9.1484e+64   2.69555e+65  -1.15216e+67
  -3.06283e+60   2.29173e+58  -1.71605e+59  -4.15096e+66 -1.18706e+134 -1.44669e+200   1.16592e+67  -5.90814e+66   1.29749e+66   4.59694e+65  -6.26617e+64  -2.70899e+65  -1.04328e+67
  -3.63887e+60   3.44911e+58    -1.574e+59  -1.19872e+67 -9.10219e+133 -5.86802e+199   1.53204e+67  -1.14934e+67   7.12414e+65  -1.20629e+66  -2.64604e+65  -3.16847e+65  -9.78102e+66
  -3.65586e+60   6.90021e+58  -1.75681e+59  -1.30045e+67 -1.08018e+134 -5.07604e+199   1.66474e+67  -1.19862e+67   4.96138e+65  -1.51446e+66   2.55146e+65   2.23606e+65  -1.09251e+67
  -3.01435e+60   3.92169e+58  -5.33233e+59  -8.58349e+66 -7.72074e+133 -3.65042e+198   1.22835e+67  -6.86278e+66    4.6848e+64  -1.76755e+66   9.76316e+64   4.56358e+64  -9.42984e+66
  -3.00965e+60   1.94082e+58  -5.26811e+59  -8.60098e+66 -5.99188e+133 -2.57089e+198   1.15713e+67  -6.85421e+66    4.3129e+64   -1.7899e+66  -5.65142e+64  -1.29213e+65  -8.47316e+66
   -3.5442e+60   2.30955e+58  -5.26402e+59   -1.8456e+67  1.73115e+133  1.90401e+199   1.79809e+67  -1.28686e+67  -1.70234e+66  -3.88507e+66  -1.26318e+65  -1.19897e+65   -7.8214e+66
  -3.55827e+60   4.66051e+58  -5.32627e+59  -1.91682e+67  7.33455e+132    4.589e+199   1.89759e+67  -1.32966e+67  -1.85375e+66  -4.01784e+66   3.93433e+65   5.49514e+64  -8.83334e+66
  -3.06283e+60   2.29173e+58  -1.71605e+59  -4.19117e+66 -1.18558e+134  -1.4224e+200   1.16672e+67  -5.91669e+66   1.27438e+66   4.51145e+65   9.82623e+64   2.65842e+65  -1.04328e+67
  -3.06141e+60   1.18111e+47  -1.65658e+59  -4.10046e+66   -1.127e+134 -1.36581e+200   1.13804e+67   -5.9032e+66   1.29366e+66   5.09081e+65  -6.75194e+64  -2.80953e+65  -1.01308e+67
  -3.63463e+60   1.53024e+47  -1.51044e+59  -1.17829e+67 -8.63753e+133 -5.79638e+199   1.50071e+67  -1.14127e+67   7.53972e+65   -1.1242e+66  -2.00248e+65  -3.00279e+65  -9.46692e+66
  -3.63887e+60   3.44911e+58    -1.574e+59  -1.19924e+67 -9.09762e+133 -5.88182e+199    1.5323e+67  -1.14945e+67   7.09428e+65  -1.20739e+66   3.38127e+65   2.46516e+65  -9.78102e+66
  -3.00965e+60   1.94082e+58  -5.26811e+59  -8.70544e+66 -5.91997e+133  9.46041e+197   1.16183e+67  -6.87642e+66  -1.69161e+64  -1.81211e+66   9.53631e+64   6.24887e+64  -8.47316e+66
  -3.00816e+60   4.17785e+46  -5.24446e+59  -8.68172e+66 -5.47065e+133  6.16314e+197   1.14052e+67  -6.87717e+66  -1.18721e+64  -1.79268e+66  -7.04187e+64  -1.11714e+65  -8.19271e+66
  -3.54036e+60   6.86902e+46  -5.23885e+59  -1.84215e+67  2.17517e+133  1.23642e+199   1.78214e+67   -1.2824e+67  -1.73414e+66  -3.86334e+66  -1.81629e+65   -1.1891e+65  -7.52882e+66
   -3.5442e+60   2.30955e+58  -5.26402e+59  -1.85641e+67  1.87182e+133  1.92725e+199   1.80529e+67  -1.28916e+67  -1.76444e+66  -3.90804e+66   3.56746e+65   5.52927e+64   -7.8214e+66
  -3.06141e+60   1.18111e+47  -1.65658e+59  -4.10046e+66   -1.127e+134 -1.36581e+200   1.13804e+67   -5.9032e+66   1.29366e+66   5.09081e+65   6.75194e+64   2.80953e+65  -1.01308e+67
  -3.06283e+60  -2.29173e+58  -1.71605e+59  -4.19117e+66 -1.18558e+134  -1.4224e+200   1.16672e+67  -5.91669e+66   1.27438e+66   4.51145e+65  -9.82623e+64  -2.65842e+65  -1.04328e+67
  -3.63887e+60  -3.44911e+58    -1.574e+59  -1.19924e+67 -9.09762e+133 -5.88182e+199    1.5323e+67  -1.14945e+67   7.09428e+65  -1.20739e+66  -3.38127e+65  -2.46516e+65  -9.78102e+66
  -3.63463e+60   1.53024e+47  -1.51044e+59  -1.17829e+67 -8.63753e+133 -5.79638e+199   1.50071e+67  -1.14127e+67   7.53972e+65   -1.1242e+66   2.00248e+65   3.00279e+65  -9.46692e+66
  -3.00816e+60   4.17785e+46  -5.24446e+59  -8.68172e+66 -5.47065e+133  6.16314e+197   1.14052e+67  -6.87717e+66  -1.18721e+64  -1.79268e+66   7.04187e+64   1.11714e+65  -8.19271e+66
  -3.00965e+60  -1.94082e+58  -5.26811e+59  -8.70544e+66 -5.91997e+133  9.46041e+197   1.16183e+67  -6.87642e+66  -1.69161e+64  -1.81211e+66  -9.53631e+64  -6.24887e+64  -8.47316e+66
   -3.5442e+60  -2.30955e+58  -5.26402e+59  -1.85641e+67  1.87182e+133  1.92725e+199   1.80529e+67  -1.28916e+67  -1.76444e+66  -3.90804e+66  -3.56746e+65  -5.52927e+64   -7.8214e+66
  -3.54036e+60   6.86902e+46  -5.23885e+59  -1.84215e+67  2.17517e+133  1.23642e+199   1.78214e+67   -1.2824e+67  -1.73414e+66  -3.86334e+66   1.81629e+65    1.1891e+65  -7.52882e+66
  -3.06283e+60  -2.29173e+58  -1.71605e+59  -4.15096e+66 -1.18706e+134 -1.44669e+200   1.16592e+67  -5.90814e+66   1.29749e+66   4.59694e+65   6.26617e+64   2.70899e+65  -1.04328e+67
  -3.06767e+60  -4.59887e+58  -1.88913e+59  -4.43862e+66 -1.41679e+134 -1.66524e+200   1.27035e+67  -5.98159e+66   1.23633e+66    3.0664e+65   -9.1484e+64  -2.69555e+65  -1.15216e+67
  -3.65586e+60  -6.90021e+58  -1.75681e+59  -1.30045e+67 -1.08018e+134 -5.07604e+199   1.66474e+67  -1.19862e+67   4.96138e+65  -1.51446e+66  -2.55146e+65  -2.23606e+65  -1.09251e+67
  -3.63887e+60  -3.44911e+58    -1.574e+59  -1.19872e+67 -9.10219e+133 -5.86802e+199   1.53204e+67  -1.14934e+67   7.12414e+65  -1.20629e+66   2.64604e+65   3.16847e+65  -9.78102e+66
  -3.00965e+60  -1.94082e+58  -5.26811e+59  -8.60098e+66 -5.99188e+133 -2.57089e+198   1.15713e+67  -6.85421e+66    4.3129e+64   -1.7899e+66   5.65142e+64   1.29213e+65  -8.47316e+66
  -3.01435e+60  -3.92169e+58  -5.33233e+59  -8.58349e+66 -7.72074e+133 -3.65042e+198   1.22835e+67  -6.86278e+66    4.6848e+64  -1.76755e+66  -9.76316e+64  -4.56358e+64  -9.42984e+66
  -3.55827e+60  -4.66051e+58  -5.32627e+59  -1.91682e+67  7.33455e+132    4.589e+199   1.89759e+67  -1.32966e+67  -1.85375e+66  -4.01784e+66  -3.93433e+65  -5.49514e+64  -8.83334e+66
   -3.5442e+60  -2.30955e+58  -5.26402e+59   -1.8456e+67  1.73115e+133  1.90401e+199   1.79809e+67  -1.28686e+67  -1.70234e+66  -3.88507e+66   1.26318e+65   1.19897e+65   -7.8214e+66
  -3.65586e+60   6.90021e+58  -1.75681e+59  -7.42044e+66 -6.44125e+133 -8.26938e+199   1.09305e+67   -1.0799e+67   1.68331e+66    1.6953e+66   2.55146e+65   2.01506e+65  -5.53848e+66
  -3.63887e+60   3.44911e+58    -1.574e+59   -6.8682e+66 -5.70022e+133 -7.42159e+199   1.02066e+67  -1.04051e+67   1.80071e+66   1.73615e+66  -2.64604e+65  -2.95851e+65  -4.81348e+66
  -4.10976e+60   4.65094e+58  -1.23572e+59  -1.06597e+67 -5.39898e+133 -5.63655e+199   1.29467e+67  -1.35791e+67   1.98937e+66   9.30094e+65  -2.56628e+64  -2.57577e+65  -4.01614e+66
  -4.13004e+60   9.15478e+58  -1.41043e+59  -1.14148e+67 -5.96911e+133 -6.52136e+199   1.37837e+67  -1.40898e+67   1.82882e+66   8.46093e+65   8.99145e+65    2.3978e+65  -4.76273e+66
  -3.55827e+60   4.66051e+58  -5.32627e+59  -1.45739e+67  1.01783e+133  1.79136e+198   1.42204e+67  -1.23199e+67  -8.76999e+65  -1.37701e+66   3.93433e+65  -2.84031e+64  -4.31773e+66
   -3.5442e+60   2.30955e+58  -5.26402e+59  -1.41409e+67  1.40678e+133 -2.75148e+198   1.36344e+67  -1.19512e+67  -7.84945e+65   -1.4047e+66  -1.26318e+65  -1.20704e+65  -3.62948e+66
  -3.99003e+60   2.67657e+58  -5.09451e+59   -2.0169e+67  6.82752e+133 -6.36025e+199   1.83987e+67  -1.56008e+67  -1.88191e+66  -2.68626e+66   1.49376e+65  -6.08338e+64  -2.83214e+66
  -4.00661e+60    5.2229e+58  -5.14409e+59  -2.08049e+67  6.76564e+133 -5.94636e+199   1.91099e+67  -1.60861e+67   -2.0171e+66  -2.70172e+66   1.07418e+66   3.14667e+64  -3.54198e+66
  -3.63887e+60   3.44911e+58    -1.574e+59  -6.87339e+66 -5.69991e+133 -7.44356e+199   1.02099e+67  -1.04062e+67   1.79773e+66   1.73505e+66   3.38127e+65   2.67513e+65  -4.81348e+66
  -3.63463e+60   1.53024e+47  -1.51044e+59  -6.76407e+66 -5.63178e+133 -7.35545e+199    1.0103e+67  -1.03457e+67   1.82097e+66   1.76065e+66  -2.00248e+65  -3.00279e+65  -4.72644e+66
  -4.10751e+60   1.86601e+47  -1.17191e+59  -1.03488e+67 -5.64817e+133 -6.23495e+199   1.27898e+67  -1.35418e+67   2.19444e+66   9.98541e+65  -1.05921e+65  -3.01458e+65  -3.91563e+66
  -4.10976e+60   4.65094e+58  -1.23572e+59  -1.02759e+67 -5.81321e+133 -6.73249e+199   1.27956e+67  -1.34975e+67   2.20994e+66   1.01167e+66   8.26849e+65   2.66333e+65  -4.01614e+66
   -3.5442e+60   2.30955e+58  -5.26402e+59  -1.42489e+67  1.51436e+133 -3.24592e+198   1.37072e+67  -1.19742e+67   -8.4704e+65  -1.42766e+66   3.56746e+65   5.44861e+64  -3.62948e+66
  -3.54036e+60   6.86902e+46  -5.23885e+59  -1.42139e+67  1.61017e+133 -4.06584e+198   1.36358e+67  -1.19295e+67  -8.39609e+65  -1.44481e+66  -1.81629e+65   -1.1891e+65  -3.50945e+66
  -3.98748e+60   9.37922e+46  -5.07194e+59  -1.99764e+67  6.56782e+133 -5.88422e+199   1.82587e+67  -1.55886e+67  -1.71791e+66   -2.6699e+66  -1.20297e+65  -1.06622e+65  -2.69863e+66
  -3.99003e+60   2.67657e+58  -5.09451e+59  -1.98292e+67   6.2506e+133 -5.34472e+199   1.81849e+67  -1.55286e+67  -1.68661e+66  -2.61403e+66   8.12473e+65   6.67742e+64  -2.83214e+66
  -3.63463e+60   1.53024e+47  -1.51044e+59  -6.76407e+66 -5.63178e+133 -7.35545e+199    1.0103e+67  -1.03457e+67   1.82097e+66   1.76065e+66   2.00248e+65   3.00279e+65  -4.72644e+66
  -3.63887e+60  -3.44911e+58    -1.574e+59  -6.87339e+66 -5.69991e+133 -7.44356e+199   1.02099e+67  -1.04062e+67   1.79773e+66   1.73505e+66  -3.38127e+65  -2.67513e+65  -4.81348e+66
  -4.10976e+60  -4.65094e+58  -1.23572e+59  -1.02759e+67 -5.81321e+133 -6.73249e+199   1.27956e+67  -1.34975e+67   2.20994e+66   1.01167e+66  -8.26849e+65  -2.66333e+65  -4.01614e+66
  -4.10751e+60   1.86601e+47  -1.17191e+59  -1.03488e+67 -5.64817e+133 -6.23495e+199   1.27898e+67  -1.35418e+67   2.19444e+66   9.98541e+65   1.05921e+65   3.01458e+65  -3.91563e+66
  -3.54036e+60   6.86902e+46  -5.23885e+59  -1.42139e+67  1.61017e+133 -4.06584e+198   1.36358e+67  -1.19295e+67  -8.39609e+65  -1.44481e+66   1.81629e+65    1.1891e+65  -3.50945e+66
   -3.5442e+60  -2.30955e+58  -5.26402e+59  -1.42489e+67  1.51436e+133 -3.24592e+198   1.37072e+67  -1.19742e+67   -8.4704e+65  -1.42766e+66  -3.56746e+65  -5.44861e+64  -3.62948e+66
  -3.99003e+60  -2.67657e+58  -5.09451e+59  -1.98292e+67   6.2506e+133 -5.34472e+199   1.81849e+67  -1.55286e+67  -1.68661e+66  -2.61403e+66  -8.12473e+65  -6.67742e+64  -2.83214e+66
  -3.98748e+60   9.37922e+46  -5.07194e+59  -1.99764e+67  6.56782e+133 -5.88422e+199   1.82587e+67  -1.55886e+67  -1.71791e+66   -2.6699e+66   1.20297e+65   1.06622e+65  -2.69863e+66
  -3.63887e+60  -3.44911e+58    -1.574e+59   -6.8682e+66 -5.70022e+133 -7.42159e+199   1.02066e+67  -1.04051e+67   1.80071e+66   1.73615e+66   2.64604e+65   2.95851e+65  -4.81348e+66
  -3.65586e+60  -6.90021e+58  -1.75681e+59  -7.42044e+66 -6.44125e+133 -8.26938e+199   1.09305e+67   -1.0799e+67   1.68331e+66    1.6953e+66  -2.55146e+65  -2.01506e+65  -5.53848e+66
  -4.13004e+60  -9.15478e+58  -1.41043e+59  -1.14148e+67 -5.96911e+133 -6.52136e+199   1.37837e+67  -1.40898e+67   1.82882e+66   8.46093e+65  -8.99145e+65   -2.3978e+65  -4.76273e+66
  -4.10976e+60  -4.65094e+58  -1.23572e+59  -1.06597e+67 -5.39898e+133 -5.63655e+199   1.29467e+67  -1.35791e+67   1.98937e+66   9.30094e+65   2.56628e+64   2.57577e+65  -4.01614e+66
   -3.5442e+60  -2.30955e+58  -5.26402e+59  -1.41409e+67  1.40678e+133 -2.75148e+198   1.36344e+67  -1.19512e+67  -7.84945e+65   -1.4047e+66   1.26318e+65   1.20704e+65  -3.62948e+66
  -3.55827e+60  -4.66051e+58  -5.32627e+59  -1.45739e+67  1.01783e+133  1.79136e+198   1.42204e+67  -1.23199e+67  -8.76999e+65  -1.37701e+66  -3.93433e+65   2.84031e+64  -4.31773e+66
  -4.00661e+60   -5.2229e+58  -5.14409e+59  -2.08049e+67  6.76564e+133 -5.94636e+199   1.91099e+67  -1.60861e+67   -2.0171e+66  -2.70172e+66  -1.07418e+66  -3.14667e+64  -3.54198e+66
  -3.99003e+60  -2.67657e+58  -5.09451e+59   -2.0169e+67  6.82752e+133 -6.36025e+199   1.83987e+67  -1.56008e+67  -1.88191e+66  -2.68626e+66  -1.49376e+65   6.08338e+64  -2.83214e+66
  -7.18842e+59  -5.79064e+58    1.8053e+59   1.04752e+67 -1.11593e+134   5.2322e+199   1.48769e+67   7.99244e+66  -4.69194e+65   2.95192e+66  -5.28852e+65   3.75595e+65  -1.13855e+67
  -7.49399e+59  -2.93717e+58   1.90927e+59   1.11625e+67 -9.41645e+133  2.88166e+199   1.47908e+67   7.97214e+66  -3.23061e+65   3.51346e+66   4.51537e+65  -3.96874e+64  -1.08747e+67
  -1.24111e+60  -1.98144e+58   2.02995e+59   9.99365e+66 -5.08619e+133 -1.29492e+199   1.22774e+67   6.46969e+66   2.59001e+65   3.26495e+66   4.18022e+65   -2.4739e+65  -8.61804e+66
  -1.21602e+60   -3.9559e+58   1.88202e+59   9.45724e+66 -6.49501e+133 -9.01329e+198   1.24254e+67   6.57677e+66   1.44962e+65   2.73551e+66  -3.64965e+65   1.67892e+65  -9.17221e+66
   -7.7986e+59  -1.61556e+58  -7.56534e+58   3.66727e+66 -1.35718e+134  -2.4533e+198   1.22134e+67   6.54509e+66   4.42363e+64  -2.92206e+66  -6.12071e+65   2.06202e+65  -1.07859e+67
  -8.08655e+59  -8.37237e+57  -7.06045e+58   4.11548e+66 -1.20768e+134 -1.64826e+199   1.17348e+67   6.47395e+66   1.39526e+65  -2.49799e+66   3.68318e+65  -1.16786e+64  -1.02477e+67
   -1.2871e+60  -3.57062e+57  -1.06301e+59    1.8566e+66 -7.79313e+133 -6.41171e+198   9.02099e+66   4.73977e+66   9.50521e+64  -2.97822e+66   3.07464e+65  -1.76071e+65  -7.99107e+66
  -1.26434e+60    -6.742e+57   -1.1483e+59   1.55934e+66 -9.01745e+133 -1.77249e+198    9.6232e+66   4.89769e+66   3.18559e+64   -3.3702e+66  -4.75523e+65   4.18101e+64  -8.57258e+66
  -7.49399e+59  -2.93717e+58   1.90927e+59   1.09442e+67 -9.62837e+133  4.26957e+199    1.4699e+67   7.92572e+66  -4.48553e+65   3.46704e+66  -5.34536e+65    3.2899e+65  -1.08747e+67
  -7.59084e+59    5.0759e+46   1.93521e+59   1.13331e+67 -9.06395e+133  3.18169e+199   1.48013e+67   7.94547e+66  -3.65875e+65   3.75351e+66   4.57557e+65  -1.22534e+65  -1.07684e+67
  -1.24954e+60   8.11298e+46   2.07746e+59   1.02447e+67 -4.61821e+133  -1.4356e+199   1.22937e+67   6.41681e+66   3.05781e+65   3.52211e+66    3.9833e+65  -2.24427e+65  -8.46245e+66
  -1.24111e+60  -1.98144e+58   2.02995e+59   9.97544e+66 -5.09553e+133 -1.25513e+199   1.22664e+67   6.46582e+66   2.48535e+65   3.26108e+66  -3.69093e+65   2.27097e+65  -8.61804e+66
  -8.08655e+59  -8.37237e+57  -7.06045e+58   3.96179e+66 -1.21459e+134 -3.78982e+198   1.17113e+67   6.44127e+66   5.11796e+64  -2.53066e+66  -5.65999e+65   1.51371e+65  -1.02477e+67
  -8.17674e+59   1.26535e+46  -6.90068e+58   4.07839e+66 -1.17665e+134 -7.89737e+198   1.15887e+67   6.40313e+66   7.59688e+64  -2.40071e+66   4.26094e+65  -7.54833e+64  -1.01197e+67
   -1.2944e+60   3.11676e+46  -1.03591e+59   1.74942e+66 -7.44839e+133 -1.60997e+198   8.80593e+66   4.61073e+66   3.45434e+64  -2.89585e+66   3.45202e+65  -1.28063e+65  -7.81381e+66
   -1.2871e+60  -3.57062e+57  -1.06301e+59   1.75245e+66 -7.81393e+133 -1.58949e+198   9.01168e+66   4.71763e+66   3.51866e+64  -3.00036e+66  -4.22221e+65   9.87909e+64  -7.99107e+66
  -7.59084e+59    5.0759e+46   1.93521e+59   1.13331e+67 -9.06395e+133  3.18169e+199   1.48013e+67   7.94547e+66  -3.65875e+65   3.75351e+66  -4.57557e+65   1.22534e+65  -1.07684e+67
  -7.49399e+59   2.93717e+58   1.90927e+59   1.09442e+67 -9.62837e+133  4.26957e+199    1.4699e+67   7.92572e+66  -4.48553e+65   3.46704e+66   5.34536e+65   -3.2899e+65  -1.08747e+67
  -1.24111e+60   1.98144e+58   2.02995e+59   9.97544e+66 -5.09553e+133 -1.25513e+199   1.22664e+67   6.46582e+66   2.48535e+65   3.26108e+66   3.69093e+65  -2.27097e+65  -8.61804e+66
  -1.24954e+60   8.11298e+46   2.07746e+59   1.02447e+67 -4.61821e+133  -1.4356e+199   1.22937e+67   6.41681e+66   3.05781e+65   3.52211e+66   -3.9833e+65   2.24427e+65  -8.46245e+66
  -8.17674e+59   1.26535e+46  -6.90068e+58   4.07839e+66 -1.17665e+134 -7.89737e+198   1.15887e+67   6.40313e+66   7.59688e+64  -2.40071e+66  -4.26094e+65   7.54833e+64  -1.01197e+67
  -8.08655e+59   8.37237e+57  -7.06045e+58   3.96179e+66 -1.21459e+134 -3.78982e+198   1.17113e+67   6.44127e+66   5.11796e+64  -2.53066e+66   5.65999e+65  -1.51371e+65  -1.02477e+67
   -1.2871e+60   3.57062e+57  -1.06301e+59   1.75245e+66 -7.81393e+133 -1.58949e+198   9.01168e+66   4.71763e+66   3.51866e+64  -3.00036e+66   4.22221e+65  -9.87909e+64  -7.99107e+66
   -1.2944e+60   3.11676e+46  -1.03591e+59   1.74942e+66 -7.44839e+133 -1.60997e+198   8.80593e+66   4.61073e+66   3.45434e+64  -2.89585e+66  -3.45202e+65   1.28063e+65  -7.81381e+66
  -7.49399e+59   2.93717e+58   1.90927e+59   1.11625e+67 -9.41645e+133  2.88166e+199   1.47908e+67   7.97214e+66  -3.23061e+65   3.51346e+66  -4.51537e+65   3.96874e+64  -1.08747e+67
  -7.18842e+59   5.79064e+58    1.8053e+59   1.04752e+67 -1.11593e+134   5.2322e+199   1.48769e+67   7.99244e+66  -4.69194e+65   2.95192e+66   5.28852e+65  -3.75595e+65  -1.13855e+67
  -1.21602e+60    3.9559e+58   1.88202e+59   9.45724e+66 -6.49501e+133 -9.01329e+198   1.24254e+67   6.57677e+66   1.44962e+65   2.73551e+66   3.64965e+65  -1.67892e+65  -9.17221e+66
  -1.24111e+60   1.98144e+58   2.02995e+59   9.99365e+66 -5.08619e+133 -1.29492e+199   1.22774e+67   6.46969e+66   2.59001e+65   3.26495e+66  -4.18022e+65    2.4739e+65  -8.61804e+66
  -8.08655e+59   8.37237e+57  -7.06045e+58   4.11548e+66 -1.20768e+134 -1.64826e+199   1.17348e+67   6.47395e+66   1.39526e+65  -2.49799e+66  -3.68318e+65   1.16786e+64  -1.02477e+67
   -7.7986e+59   1.61556e+58  -7.56534e+58   3.66727e+66 -1.35718e+134  -2.4533e+198   1.22134e+67   6.54509e+66   4.42363e+64  -2.92206e+66   6.12071e+65  -2.06202e+65  -1.07859e+67
  -1.26434e+60     6.742e+57   -1.1483e+59   1.55934e+66 -9.01745e+133 -1.77249e+198    9.6232e+66   4.89769e+66   3.18559e+64   -3.3702e+66   4.75523e+65  -4.18101e+64  -8.57258e+66
   -1.2871e+60   3.57062e+57  -1.06301e+59    1.8566e+66 -7.79313e+133 -6.41171e+198   9.02099e+66   4.73977e+66   9.50521e+64  -2.97822e+66  -3.07464e+65   1.76071e+65  -7.99107e+66
  -1.21602e+60   -3.9559e+58   1.88202e+59   7.05756e+66 -1.74754e+134  6.56416e+199   1.49854e+67    6.0666e+66  -3.65207e+65   1.35616e+66  -3.64965e+65   4.34322e+65  -1.34145e+67
  -1.24111e+60  -1.98144e+58   2.02995e+59   7.82094e+66 -1.53641e+134  3.16944e+199   1.46563e+67   6.00778e+66  -2.02913e+65   2.01607e+66   4.18022e+65   -1.2453e+65  -1.28037e+67
  -1.82142e+60  -7.65662e+57   2.06735e+59   4.40979e+66 -1.18063e+134 -2.01569e+199   1.17264e+67   2.92933e+66   1.89585e+65   1.29087e+66   3.50467e+65  -3.73338e+65  -1.10626e+67
  -1.80299e+60  -1.55722e+58   1.86675e+59   3.87893e+66 -1.36226e+134  -9.7611e+198   1.22993e+67   3.12181e+66   7.67257e+64   6.80392e+65  -1.92436e+65   1.85514e+65  -1.17716e+67
  -1.26434e+60    -6.742e+57   -1.1483e+59   2.30934e+66 -1.65542e+134 -2.84882e+199   1.30719e+67   5.05714e+66   1.91305e+65   -2.9391e+66  -4.75523e+65   2.42965e+65    -1.228e+67
   -1.2871e+60  -3.57062e+57  -1.06301e+59   2.53076e+66 -1.47393e+134 -3.44829e+199   1.24015e+67    4.8831e+66   2.38378e+65  -2.59071e+66   3.07464e+65  -7.58036e+64  -1.16271e+67
   -1.8425e+60   3.35344e+57  -1.39414e+59  -2.20607e+66 -1.03031e+134  1.44824e+199   1.03874e+67   1.52281e+66  -1.31128e+65  -3.59775e+66   1.97799e+65  -2.26461e+65  -9.88602e+66
   -1.8273e+60   6.92933e+57  -1.51131e+59  -2.19497e+66 -1.20142e+134  1.66145e+199   1.11786e+67   1.83051e+66  -1.28768e+65  -3.89671e+66  -3.45105e+65    9.2307e+64  -1.06371e+67
  -1.24111e+60  -1.98144e+58   2.02995e+59   7.80273e+66 -1.53823e+134  3.47007e+199   1.46528e+67   6.00391e+66   -2.1338e+65    2.0122e+66  -3.69093e+65   3.49957e+65  -1.28037e+67
  -1.24954e+60   8.11298e+46   2.07746e+59   7.95612e+66  -1.4758e+134  2.79797e+199   1.45217e+67   5.93026e+66  -1.80769e+65   2.20663e+66    3.9833e+65  -2.24427e+65   -1.2609e+67
  -1.82777e+60   1.17322e+47   2.13198e+59   4.56427e+66 -1.12496e+134  -2.6404e+199   1.15468e+67   2.83184e+66   2.46896e+65   1.48553e+66   2.99962e+65  -3.05334e+65  -1.08437e+67
  -1.82142e+60  -7.65662e+57   2.06735e+59   4.47734e+66  -1.1769e+134 -2.60419e+199   1.17361e+67   2.94369e+66   2.28415e+65   1.30523e+66  -2.20199e+65    2.6905e+65  -1.10626e+67
   -1.2871e+60  -3.57062e+57  -1.06301e+59   2.42661e+66 -1.47706e+134 -2.41726e+199   1.23933e+67   4.86095e+66   1.78513e+65  -2.61285e+66  -4.22221e+65   1.99058e+65  -1.16271e+67
   -1.2944e+60   3.11676e+46  -1.03591e+59   2.44621e+66  -1.4202e+134  -2.4766e+199   1.21657e+67   4.75887e+66    1.8268e+65  -2.49533e+66   3.45202e+65  -1.28063e+65  -1.14203e+67
  -1.84747e+60   5.54295e+46  -1.35504e+59  -2.31097e+66 -9.77409e+133  1.80842e+199   1.01529e+67   1.37018e+66  -1.74447e+65   -3.5067e+66   2.34797e+65  -1.84741e+65  -9.65503e+66
   -1.8425e+60   3.35344e+57  -1.39414e+59   -2.2641e+66 -1.02943e+134  1.80391e+199   1.03956e+67   1.51048e+66  -1.64483e+65  -3.61009e+66  -2.85364e+65    1.4238e+65  -9.88602e+66
  -1.24954e+60   8.11298e+46   2.07746e+59   7.95612e+66  -1.4758e+134  2.79797e+199   1.45217e+67   5.93026e+66  -1.80769e+65   2.20663e+66   -3.9833e+65   2.24427e+65   -1.2609e+67
  -1.24111e+60   1.98144e+58   2.02995e+59   7.80273e+66 -1.53823e+134  3.47007e+199   1.46528e+67   6.00391e+66   -2.1338e+65    2.0122e+66   3.69093e+65  -3.49957e+65  -1.28037e+67
  -1.82142e+60   7.65662e+57   2.06735e+59   4.47734e+66  -1.1769e+134 -2.60419e+199   1.17361e+67   2.94369e+66   2.28415e+65   1.30523e+66   2.20199e+65   -2.6905e+65  -1.10626e+67
  -1.82777e+60   1.17322e+47   2.13198e+59   4.56427e+66 -1.12496e+134  -2.6404e+199   1.15468e+67   2.83184e+66   2.46896e+65   1.48553e+66  -2.99962e+65   3.05334e+65  -1.08437e+67
   -1.2944e+60   3.11676e+46  -1.03591e+59   2.44621e+66  -1.4202e+134  -2.4766e+199   1.21657e+67   4.75887e+66    1.8268e+65  -2.49533e+66  -3.45202e+65   1.28063e+65  -1.14203e+67
   -1.2871e+60   3.57062e+57  -1.06301e+59   2.42661e+66 -1.47706e+134 -2.41726e+199   1.23933e+67   4.86095e+66   1.78513e+65  -2.61285e+66   4.22221e+65  -1.99058e+65  -1.16271e+67
   -1.8425e+60  -3.35344e+57  -1.39414e+59   -2.2641e+66 -1.02943e+134  1.80391e+199   1.03956e+67   1.51048e+66  -1.64483e+65  -3.61009e+66   2.85364e+65   -1.4238e+65  -9.88602e+66
  -1.84747e+60   5.54295e+46  -1.35504e+59  -2.31097e+66 -9.77409e+133  1.80842e+199   1.01529e+67   1.37018e+66  -1.74447e+65   -3.5067e+66  -2.34797e+65   1.84741e+65  -9.65503e+66
  -1.24111e+60   1.98144e+58   2.02995e+59   7.82094e+66 -1.53641e+134  3.16944e+199   1.46563e+67   6.00778e+66  -2.02913e+65   2.01607e+66  -4.18022e+65    1.2453e+65  -1.28037e+67
  -1.21602e+60    3.9559e+58   1.88202e+59   7.05756e+66 -1.74754e+134  6.56416e+199   1.49854e+67    6.0666e+66  -3.65207e+65   1.35616e+66   3.64965e+65  -4.34322e+65  -1.34145e+67
  -1.80299e+60   1.55722e+58   1.86675e+59   3.87893e+66 -1.36226e+134  -9.7611e+198   1.22993e+67   3.12181e+66   7.67257e+64   6.80392e+65   1.92436e+65  -1.85514e+65  -1.17716e+67
  -1.82142e+60   7.65662e+57   2.06735e+59   4.40979e+66 -1.18063e+134 -2.01569e+199   1.17264e+67   2.92933e+66   1.89585e+65   1.29087e+66  -3.50467e+65   3.73338e+65  -1.10626e+67
   -1.2871e+60   3.57062e+57  -1.06301e+59   2.53076e+66 -1.47393e+134 -3.44829e+199   1.24015e+67    4.8831e+66   2.38378e+65  -2.59071e+66  -3.07464e+65   7.58036e+64  -1.16271e+67
  -1.26434e+60     6.742e+57   -1.1483e+59   2.30934e+66 -1.65542e+134 -2.84882e+199   1.30719e+67   5.05714e+66   1.91305e+65   -2.9391e+66   4.75523e+65  -2.42965e+65    -1.228e+67
   -1.8273e+60  -6.92933e+57  -1.51131e+59  -2.19497e+66 -1.20142e+134  1.66145e+199   1.11786e+67   1.83051e+66  -1.28768e+65  -3.89671e+66   3.45105e+65   -9.2307e+64  -1.06371e+67
   -1.8425e+60  -3.35344e+57  -1.39414e+59  -2.20607e+66 -1.03031e+134  1.44824e+199   1.03874e+67   1.52281e+66  -1.31128e+65  -3.59775e+66  -1.97799e+65   2.26461e+65  -9.88602e+66
  -1.80299e+60  -1.55722e+58   1.86675e+59   2.90126e+66 -2.21073e+134   3.0965e+199   1.51489e+67   2.91396e+66  -1.31125e+65   1.18424e+65  -1.92436e+65    4.7817e+65  -1.48578e+67
  -1.82142e+60  -7.65662e+57   2.06735e+59    3.3696e+66 -1.95717e+134  8.20739e+198     1.439e+67   2.70819e+66  -3.15567e+64   6.92966e+65   3.50467e+65  -2.30464e+65  -1.40467e+67
  -2.46489e+60   7.52533e+57   2.06487e+59  -2.90322e+66 -1.65682e+134 -5.30805e+198   1.31951e+67  -2.31472e+66   5.21208e+64  -6.40626e+65    2.2878e+65  -4.67951e+65  -1.29127e+67
  -2.45529e+60   1.46092e+58     1.814e+59   -3.2969e+66 -1.88153e+134  6.21669e+198   1.41075e+67  -2.06603e+66  -3.15755e+64   -1.1993e+66  -2.31553e+64   2.40684e+65  -1.38085e+67
   -1.8273e+60   6.92933e+57  -1.51131e+59   1.05229e+65 -1.75959e+134 -6.05948e+199   1.32654e+67   2.31953e+66   3.60251e+65  -2.57455e+66  -3.45105e+65   2.86073e+65  -1.30267e+67
   -1.8425e+60   3.35344e+57  -1.39414e+59    1.0591e+65 -1.53608e+134 -5.46173e+199   1.23943e+67   2.01434e+66   3.60395e+65  -2.26882e+66   1.97799e+65  -1.31594e+65  -1.22021e+67
  -2.44693e+60   1.22855e+58  -1.63664e+59  -7.77356e+66 -1.05877e+134  5.30776e+199    1.2896e+67  -3.35014e+66  -4.79434e+65  -3.94398e+66   6.25909e+64  -2.84386e+65  -1.10681e+67
  -2.44084e+60    2.4702e+58  -1.78616e+59  -7.69958e+66 -1.27446e+134  6.14383e+199   1.36649e+67  -3.00204e+66  -4.63706e+65  -4.23384e+66  -1.89345e+65   1.33281e+65  -1.19774e+67
  -1.82142e+60  -7.65662e+57   2.06735e+59   3.43715e+66 -1.95578e+134  6.30874e+197   1.44011e+67   2.72255e+66   7.27324e+63   7.07328e+65  -2.20199e+65   4.11923e+65  -1.40467e+67
  -1.82777e+60   1.17322e+47   2.13198e+59    3.5966e+66 -1.87779e+134 -5.53192e+198   1.41674e+67   2.62612e+66   4.11714e+64   9.29308e+65   2.99962e+65  -3.05334e+65  -1.37907e+67
  -2.46837e+60   1.58068e+47   2.14941e+59  -2.64409e+66 -1.58774e+134 -2.15052e+199    1.2875e+67  -2.39556e+66   1.48925e+65  -3.97453e+65    1.6452e+65  -3.99376e+65  -1.26144e+67
  -2.46489e+60   7.52533e+57   2.06487e+59  -2.78806e+66 -1.65776e+134 -1.88321e+199   1.31738e+67  -2.29023e+66   1.18319e+65  -6.16142e+65  -6.03714e+64   3.17882e+65  -1.29127e+67
   -1.8425e+60   3.35344e+57  -1.39414e+59   4.78821e+64 -1.53686e+134 -4.84614e+199   1.23971e+67     2.002e+66   3.27041e+65  -2.28116e+66  -2.85364e+65   2.37248e+65  -1.22021e+67
  -1.84747e+60   5.54295e+46  -1.35504e+59  -2.62243e+64 -1.46906e+134 -4.45754e+199   1.21205e+67   1.85591e+66   3.11286e+65  -2.19342e+66   2.34797e+65  -1.84741e+65  -1.19432e+67
  -2.44897e+60   8.52497e+46  -1.58658e+59  -7.89732e+66 -9.85875e+133  5.37513e+199   1.26868e+67  -3.51239e+66  -5.18119e+65  -3.86681e+66   9.65508e+64  -2.36485e+65   -1.0767e+67
  -2.44693e+60   1.22855e+58  -1.63664e+59  -7.80772e+66  -1.0564e+134  5.52246e+199   1.29074e+67  -3.35741e+66  -4.99072e+65  -3.95125e+66  -1.28341e+65   1.85503e+65  -1.10681e+67
  -1.82777e+60   1.17322e+47   2.13198e+59    3.5966e+66 -1.87779e+134 -5.53192e+198   1.41674e+67   2.62612e+66   4.11714e+64   9.29308e+65  -2.99962e+65   3.05334e+65  -1.37907e+67
  -1.82142e+60   7.65662e+57   2.06735e+59   3.43715e+66 -1.95578e+134  6.30874e+197   1.44011e+67   2.72255e+66   7.27324e+63   7.07328e+65   2.20199e+65  -4.11923e+65  -1.40467e+67
  -2.46489e+60  -7.52533e+57   2.06487e+59  -2.78806e+66 -1.65776e+134 -1.88321e+199   1.31738e+67  -2.29023e+66   1.18319e+65  -6.16142e+65   6.03714e+64  -3.17882e+65  -1.29127e+67
  -2.46837e+60   1.58068e+47   2.14941e+59  -2.64409e+66 -1.58774e+134 -2.15052e+199    1.2875e+67  -2.39556e+66   1.48925e+65  -3.97453e+65   -1.6452e+65   3.99376e+65  -1.26144e+67
  -1.84747e+60   5.54295e+46  -1.35504e+59  -2.62243e+64 -1.46906e+134 -4.45754e+199   1.21205e+67   1.85591e+66   3.11286e+65  -2.19342e+66  -2.34797e+65   1.84741e+65  -1.19432e+67
   -1.8425e+60  -3.35344e+57  -1.39414e+59   4.78821e+64 -1.53686e+134 -4.84614e+199   1.23971e+67     2.002e+66   3.27041e+65  -2.28116e+66   2.85364e+65  -2.37248e+65  -1.22021e+67
  -2.44693e+60  -1.22855e+58  -1.63664e+59  -7.80772e+66  -1.0564e+134  5.52246e+199   1.29074e+67  -3.35741e+66  -4.99072e+65  -3.95125e+66   1.28341e+65  -1.85503e+65  -1.10681e+67
  -2.44897e+60   8.52497e+46  -1.58658e+59  -7.89732e+66 -9.85875e+133  5.37513e+199   1.26868e+67  -3.51239e+66  -5.18119e+65  -3.86681e+66  -9.65508e+64   2.36485e+65   -1.0767e+67
  -1.82142e+60   7.65662e+57   2.06735e+59    3.3696e+66 -1.95717e+134  8.20739e+198     1.439e+67   2.70819e+66  -3.15567e+64   6.92966e+65  -3.50467e+65   2.30464e+65  -1.40467e+67
  -1.80299e+60   1.55722e+58   1.86675e+59   2.90126e+66 -2.21073e+134   3.0965e+199   1.51489e+67   2.91396e+66  -1.31125e+65   1.18424e+65   1.92436e+65   -4.7817e+65  -1.48578e+67
  -2.45529e+60  -1.46092e+58     1.814e+59   -3.2969e+66 -1.88153e+134  6.21669e+198   1.41075e+67  -2.06603e+66  -3.15755e+64   -1.1993e+66   2.31553e+64  -2.40684e+65  -1.38085e+67
  -2.46489e+60  -7.52533e+57   2.06487e+59  -2.90322e+66 -1.65682e+134 -5.30805e+198   1.31951e+67  -2.31472e+66   5.21208e+64  -6.40626e+65   -2.2878e+65   4.67951e+65  -1.29127e+67
   -1.8425e+60  -3.35344e+57  -1.39414e+59    1.0591e+65 -1.53608e+134 -5.46173e+199   1.23943e+67   2.01434e+66   3.60395e+65  -2.26882e+66  -1.97799e+65   1.31594e+65  -1.22021e+67
   -1.8273e+60  -6.92933e+57  -1.51131e+59   1.05229e+65 -1.75959e+134 -6.05948e+199   1.32654e+67   2.31953e+66   3.60251e+65  -2.57455e+66   3.45105e+65  -2.86073e+65  -1.30267e+67
  -2.44084e+60   -2.4702e+58  -1.78616e+59  -7.69958e+66 -1.27446e+134  6.14383e+199   1.36649e+67  -3.00204e+66  -4.63706e+65  -4.23384e+66   1.89345e+65  -1.33281e+65  -1.19774e+67
  -2.44693e+60  -1.22855e+58  -1.63664e+59  -7.77356e+66 -1.05877e+134  5.30776e+199    1.2896e+67  -3.35014e+66  -4.79434e+65  -3.94398e+66  -6.25909e+64   2.84386e+65  -1.10681e+67
  -2.45529e+60   1.46092e+58     1.814e+59  -1.78925e+66 -2.34742e+134 -6.65575e+199   1.54254e+67  -1.74551e+66   2.88949e+65  -3.32692e+65  -2.31553e+64   5.80463e+65  -1.53096e+67
  -2.46489e+60   7.52533e+57   2.06487e+59  -1.22161e+66  -2.0481e+134 -8.14722e+199   1.43632e+67  -1.95721e+66   4.09629e+65   3.25971e+65    2.2878e+65  -2.96869e+65  -1.42605e+67
  -3.13689e+60   2.63285e+58   2.12686e+59  -1.10093e+67 -1.69618e+134 -1.03701e+199   1.70535e+67  -9.33787e+66   8.34431e+64  -1.75488e+66   4.45831e+64   -5.6586e+65  -1.35925e+67
  -3.13936e+60   5.19826e+58   1.81905e+59  -1.18769e+67 -1.94919e+134  1.92312e+199   1.83298e+67  -9.29859e+66  -1.01009e+65  -2.47731e+66   1.66597e+65   3.11471e+65  -1.47993e+67
  -2.44084e+60    2.4702e+58  -1.78616e+59  -3.21604e+66 -1.57441e+134 -7.44445e+199   1.29531e+67  -2.04884e+66   4.89488e+65  -1.65669e+66  -1.89345e+65   2.99294e+65  -1.26054e+67
  -2.44693e+60   1.22855e+58  -1.63664e+59  -3.51902e+66 -1.32864e+134 -5.53408e+199   1.20519e+67  -2.44563e+66   4.25074e+65  -1.49846e+66   6.25909e+64  -2.04088e+65  -1.16106e+67
  -3.06283e+60   2.29173e+58  -1.71605e+59  -1.53716e+67 -6.30557e+133  8.59741e+199   1.73015e+67  -1.02653e+67    -1.088e+66  -4.01829e+66  -6.72819e+64  -3.15407e+65  -1.09426e+67
  -3.06767e+60   4.59887e+58  -1.88913e+59  -1.53686e+67 -8.82237e+133  1.12893e+200   1.80116e+67  -1.00409e+67  -1.08735e+66  -4.24029e+66   5.47321e+64   1.87975e+65  -1.20951e+67
  -2.46489e+60   7.52533e+57   2.06487e+59  -1.10644e+66 -2.05036e+134 -9.57852e+199   1.43618e+67  -1.93272e+66   4.75827e+65   3.50455e+65  -6.03714e+64   4.88964e+65  -1.42605e+67
  -2.46837e+60   1.58068e+47   2.14941e+59  -1.07288e+66 -1.95814e+134 -9.19734e+199   1.40344e+67  -2.06153e+66   4.82963e+65   5.05687e+65    1.6452e+65  -3.99376e+65  -1.39224e+67
  -3.13666e+60   2.02439e+47   2.22707e+59  -1.07382e+67 -1.62809e+134 -3.08685e+199   1.66769e+67  -9.39386e+66   2.04811e+65  -1.54914e+66  -1.07046e+64  -4.73424e+65  -1.32248e+67
  -3.13689e+60   2.63285e+58   2.12686e+59  -1.08334e+67 -1.71012e+134 -3.12112e+199   1.69816e+67  -9.30046e+66    1.8458e+65  -1.71747e+66   1.50457e+65   4.14916e+65  -1.35925e+67
  -2.44693e+60   1.22855e+58  -1.63664e+59  -3.55318e+66 -1.32805e+134 -5.21679e+199   1.20595e+67   -2.4529e+66   4.05437e+65  -1.50572e+66  -1.28341e+65   2.65801e+65  -1.16106e+67
  -2.44897e+60   8.52497e+46  -1.58658e+59  -3.68295e+66 -1.25142e+134  -4.6005e+199   1.17773e+67  -2.61643e+66   3.77848e+65  -1.44438e+66   9.65508e+64  -2.36485e+65  -1.12837e+67
  -3.06141e+60   1.18111e+47  -1.65658e+59    -1.548e+67 -5.48787e+133  8.03019e+199   1.71612e+67   -1.0402e+67   -1.1256e+66   -3.9524e+66  -6.75194e+64  -2.80953e+65  -1.05861e+67
  -3.06283e+60   2.29173e+58  -1.71605e+59  -1.54118e+67 -6.25381e+133  8.71627e+199   1.73223e+67  -1.02738e+67  -1.11111e+66  -4.02684e+66   9.36421e+64   2.21334e+65  -1.09426e+67
  -2.46837e+60   1.58068e+47   2.14941e+59  -1.07288e+66 -1.95814e+134 -9.19734e+199   1.40344e+67  -2.06153e+66   4.82963e+65   5.05687e+65   -1.6452e+65   3.99376e+65  -1.39224e+67
  -2.46489e+60  -7.52533e+57   2.06487e+59  -1.10644e+66 -2.05036e+134 -9.57852e+199   1.43618e+67  -1.93272e+66   4.75827e+65   3.50455e+65   6.03714e+64  -4.88964e+65  -1.42605e+67
  -3.13689e+60  -2.63285e+58   2.12686e+59  -1.08334e+67 -1.71012e+134 -3.12112e+199   1.69816e+67  -9.30046e+66    1.8458e+65  -1.71747e+66  -1.50457e+65  -4.14916e+65  -1.35925e+67
  -3.13666e+60   2.02439e+47   2.22707e+59  -1.07382e+67 -1.62809e+134 -3.08685e+199   1.66769e+67  -9.39386e+66   2.04811e+65  -1.54914e+66   1.07046e+64   4.73424e+65  -1.32248e+67
  -2.44897e+60   8.52497e+46  -1.58658e+59  -3.68295e+66 -1.25142e+134  -4.6005e+199   1.17773e+67  -2.61643e+66   3.77848e+65  -1.44438e+66  -9.65508e+64   2.36485e+65  -1.12837e+67
  -2.44693e+60  -1.22855e+58  -1.63664e+59  -3.55318e+66 -1.32805e+134 -5.21679e+199   1.20595e+67   -2.4529e+66   4.05437e+65  -1.50572e+66   1.28341e+65  -2.65801e+65  -1.16106e+67
  -3.06283e+60  -2.29173e+58  -1.71605e+59  -1.54118e+67 -6.25381e+133  8.71627e+199   1.73223e+67  -1.02738e+67  -1.11111e+66  -4.02684e+66  -9.36421e+64  -2.21334e+65  -1.09426e+67
  -3.06141e+60   1.18111e+47  -1.65658e+59    -1.548e+67 -5.48787e+133  8.03019e+199   1.71612e+67   -1.0402e+67   -1.1256e+66   -3.9524e+66   6.75194e+64   2.80953e+65  -1.05861e+67
  -2.46489e+60  -7.52533e+57   2.06487e+59  -1.22161e+66  -2.0481e+134 -8.14722e+199   1.43632e+67  -1.95721e+66   4.09629e+65   3.25971e+65   -2.2878e+65   2.96869e+65  -1.42605e+67
  -2.45529e+60  -1.46092e+58     1.814e+59  -1.78925e+66 -2.34742e+134 -6.65575e+199   1.54254e+67  -1.74551e+66   2.88949e+65  -3.32692e+65   2.31553e+64  -5.80463e+65  -1.53096e+67
  -3.13936e+60  -5.19826e+58   1.81905e+59  -1.18769e+67 -1.94919e+134  1.92312e+199   1.83298e+67  -9.29859e+66  -1.01009e+65  -2.47731e+66  -1.66597e+65  -3.11471e+65  -1.47993e+67
  -3.13689e+60  -2.63285e+58   2.12686e+59  -1.10093e+67 -1.69618e+134 -1.03701e+199   1.70535e+67  -9.33787e+66   8.34431e+64  -1.75488e+66  -4.45831e+64    5.6586e+65  -1.35925e+67
  -2.44693e+60  -1.22855e+58  -1.63664e+59  -3.51902e+66 -1.32864e+134 -5.53408e+199   1.20519e+67  -2.44563e+66   4.25074e+65  -1.49846e+66  -6.25909e+64   2.04088e+65  -1.16106e+67
  -2.44084e+60   -2.4702e+58  -1.78616e+59  -3.21604e+66 -1.57441e+134 -7.44445e+199   1.29531e+67  -2.04884e+66   4.89488e+65  -1.65669e+66   1.89345e+65  -2.99294e+65  -1.26054e+67
  -3.06767e+60  -4.59887e+58  -1.88913e+59  -1.53686e+67 -8.82237e+133  1.12893e+200   1.80116e+67  -1.00409e+67  -1.08735e+66  -4.24029e+66  -5.47321e+64  -1.87975e+65  -1.20951e+67
  -3.06283e+60  -2.29173e+58  -1.71605e+59  -1.53716e+67 -6.30557e+133  8.59741e+199   1.73015e+67  -1.02653e+67    -1.088e+66  -4.01829e+66   6.72819e+64   3.15407e+65  -1.09426e+67
  -3.13936e+60   5.19826e+58   1.81905e+59   -5.9919e+66 -2.00424e+134 -2.20476e+200   1.53729e+67  -8.04745e+66   1.15013e+66    9.0541e+65   1.66597e+65   5.98335e+65  -1.35845e+67
  -3.13689e+60   2.63285e+58   2.12686e+59  -5.83898e+66 -1.68342e+134 -1.87155e+200    1.4228e+67  -8.23867e+66   1.18265e+66   1.21704e+66   4.45831e+64  -4.19246e+65  -1.22406e+67
  -3.78027e+60    4.8235e+58   2.38704e+59    -1.779e+67 -1.26634e+134 -7.39266e+199   2.10503e+67  -1.71433e+67    6.7705e+65  -1.32372e+66  -1.74595e+65  -5.58807e+65  -1.16825e+67
  -3.79771e+60   9.54279e+58   2.04969e+59  -1.86762e+67 -1.50769e+134 -7.00363e+199    2.2351e+67  -1.73736e+67   4.88641e+65  -1.79125e+66   4.24547e+65   4.58775e+65    -1.312e+67
  -3.06767e+60   4.59887e+58  -1.88913e+59  -9.23047e+66 -1.01378e+134 -2.12615e+199   1.36594e+67  -8.73596e+66   2.17592e+65    -7.121e+65   5.47321e+64   2.69555e+65  -1.02697e+67
  -3.06283e+60   2.29173e+58  -1.71605e+59  -9.59444e+66 -7.71989e+133 -1.02858e+199   1.30097e+67  -9.03707e+66   1.40213e+65  -6.97583e+65  -6.72819e+64  -2.70899e+65  -9.05871e+66
  -3.63887e+60   3.44911e+58    -1.574e+59    -2.418e+67  3.98129e+133    4.845e+198   2.33422e+67  -1.85018e+67  -1.87975e+66  -3.79845e+66  -1.53659e+65  -3.16847e+65   -8.5006e+66
  -3.65586e+60   6.90021e+58  -1.75681e+59  -2.45493e+67  2.17569e+133  4.33052e+199   2.41021e+67  -1.86222e+67  -1.95826e+66  -3.96886e+66   4.45483e+65   2.23606e+65  -9.80525e+66
  -3.13689e+60   2.63285e+58   2.12686e+59  -5.66303e+66 -1.69377e+134 -2.05072e+200   1.41932e+67  -8.20126e+66   1.28378e+66   1.25445e+66   1.50457e+65    5.6153e+65  -1.22406e+67
  -3.13666e+60   2.02439e+47   2.22707e+59  -5.61618e+66   -1.623e+134 -1.96378e+200   1.39227e+67  -8.30493e+66   1.29374e+66   1.39501e+66  -1.07046e+64  -4.73424e+65  -1.18975e+67
  -3.77686e+60    2.4893e+47   2.50107e+59  -1.73722e+67 -1.24701e+134 -9.08478e+199   2.06518e+67  -1.71323e+67   8.64329e+65  -1.10431e+66   -1.6136e+65  -5.38723e+65  -1.12934e+67
  -3.78027e+60    4.8235e+58   2.38704e+59  -1.75181e+67  -1.3063e+134 -9.68584e+199   2.09168e+67  -1.70855e+67   8.33323e+65  -1.26592e+66    4.8796e+65    4.9623e+65  -1.16825e+67
  -3.06283e+60   2.29173e+58  -1.71605e+59  -9.63465e+66 -7.68941e+133 -8.66676e+198   1.30277e+67  -9.04562e+66   1.17099e+65  -7.06131e+65   9.36421e+64   2.65842e+65  -9.05871e+66
  -3.06141e+60   1.18111e+47  -1.65658e+59  -9.84166e+66 -7.05343e+133 -4.69797e+198    1.2938e+67  -9.20326e+66   7.30906e+64  -7.11488e+65  -6.75194e+64  -2.80953e+65  -8.73351e+66
  -3.63463e+60   1.53024e+47  -1.51044e+59  -2.42932e+67  4.68397e+133  -7.3547e+198   2.33092e+67  -1.86036e+67   -1.9057e+66  -3.78386e+66  -2.00248e+65  -3.00279e+65  -8.12942e+66
  -3.63887e+60   3.44911e+58    -1.574e+59  -2.41852e+67  3.97698e+133  3.69372e+198   2.33485e+67  -1.85029e+67  -1.88273e+66  -3.79955e+66   4.49072e+65   2.46516e+65   -8.5006e+66
  -3.13666e+60   2.02439e+47   2.22707e+59  -5.61618e+66   -1.623e+134 -1.96378e+200   1.39227e+67  -8.30493e+66   1.29374e+66   1.39501e+66   1.07046e+64   4.73424e+65  -1.18975e+67
  -3.13689e+60  -2.63285e+58   2.12686e+59  -5.66303e+66 -1.69377e+134 -2.05072e+200   1.41932e+67  -8.20126e+66   1.28378e+66   1.25445e+66  -1.50457e+65   -5.6153e+65  -1.22406e+67
  -3.78027e+60   -4.8235e+58   2.38704e+59  -1.75181e+67  -1.3063e+134 -9.68584e+199   2.09168e+67  -1.70855e+67   8.33323e+65  -1.26592e+66   -4.8796e+65   -4.9623e+65  -1.16825e+67
  -3.77686e+60    2.4893e+47   2.50107e+59  -1.73722e+67 -1.24701e+134 -9.08478e+199   2.06518e+67  -1.71323e+67   8.64329e+65  -1.10431e+66    1.6136e+65   5.38723e+65  -1.12934e+67
  -3.06141e+60   1.18111e+47  -1.65658e+59  -9.84166e+66 -7.05343e+133 -4.69797e+198    1.2938e+67  -9.20326e+66   7.30906e+64  -7.11488e+65   6.75194e+64   2.80953e+65  -8.73351e+66
  -3.06283e+60  -2.29173e+58  -1.71605e+59  -9.63465e+66 -7.68941e+133 -8.66676e+198   1.30277e+67  -9.04562e+66   1.17099e+65  -7.06131e+65  -9.36421e+64  -2.65842e+65  -9.05871e+66
  -3.63887e+60  -3.44911e+58    -1.574e+59  -2.41852e+67  3.97698e+133  3.69372e+198   2.33485e+67  -1.85029e+67  -1.88273e+66  -3.79955e+66  -4.49072e+65  -2.46516e+65   -8.5006e+66
  -3.63463e+60   1.53024e+47  -1.51044e+59  -2.42932e+67  4.68397e+133  -7.3547e+198   2.33092e+67  -1.86036e+67   -1.9057e+66  -3.78386e+66   2.00248e+65   3.00279e+65  -8.12942e+66
  -3.13689e+60  -2.63285e+58   2.12686e+59  -5.83898e+66 -1.68342e+134 -1.87155e+200    1.4228e+67  -8.23867e+66   1.18265e+66   1.21704e+66  -4.45831e+64   4.19246e+65  -1.22406e+67
  -3.13936e+60  -5.19826e+58   1.81905e+59   -5.9919e+66 -2.00424e+134 -2.20476e+200   1.53729e+67  -8.04745e+66   1.15013e+66    9.0541e+65  -1.66597e+65  -5.98335e+65  -1.35845e+67
  -3.79771e+60  -9.54279e+58   2.04969e+59  -1.86762e+67 -1.50769e+134 -7.00363e+199    2.2351e+67  -1.73736e+67   4.88641e+65  -1.79125e+66  -4.24547e+65  -4.58775e+65    -1.312e+67
  -3.78027e+60   -4.8235e+58   2.38704e+59    -1.779e+67 -1.26634e+134 -7.39266e+199   2.10503e+67  -1.71433e+67    6.7705e+65  -1.32372e+66   1.74595e+65   5.58807e+65  -1.16825e+67
  -3.06283e+60  -2.29173e+58  -1.71605e+59  -9.59444e+66 -7.71989e+133 -1.02858e+199   1.30097e+67  -9.03707e+66   1.40213e+65  -6.97583e+65   6.72819e+64   2.70899e+65  -9.05871e+66
  -3.06767e+60  -4.59887e+58  -1.88913e+59  -9.23047e+66 -1.01378e+134 -2.12615e+199   1.36594e+67  -8.73596e+66   2.17592e+65    -7.121e+65  -5.47321e+64  -2.69555e+65  -1.02697e+67
  -3.65586e+60  -6.90021e+58  -1.75681e+59  -2.45493e+67  2.17569e+133  4.33052e+199   2.41021e+67  -1.86222e+67  -1.95826e+66  -3.96886e+66  -4.45483e+65  -2.23606e+65  -9.80525e+66
  -3.63887e+60  -3.44911e+58    -1.574e+59    -2.418e+67  3.98129e+133    4.845e+198   2.33422e+67  -1.85018e+67  -1.87975e+66  -3.79845e+66   1.53659e+65   3.16847e+65   -8.5006e+66
  -3.79771e+60   9.54279e+58   2.04969e+59  -1.13367e+67 -1.19165e+134 -1.86093e+200   1.57381e+67  -1.58132e+67     2.049e+66   2.42749e+66   4.24547e+65    5.4538e+65  -7.27143e+66
  -3.78027e+60    4.8235e+58   2.38704e+59  -1.08456e+67  -1.1039e+134 -1.74396e+200   1.51002e+67  -1.56669e+67   2.15342e+66   2.66794e+66  -1.74595e+65  -4.81101e+65  -6.35121e+66
  -4.31081e+60   7.17863e+58   2.91342e+59  -2.07387e+67 -9.14293e+133 -8.24324e+199   2.28369e+67  -2.34065e+67   2.10312e+66    5.6468e+65   1.80165e+65  -5.49116e+65  -5.46252e+66
  -4.33228e+60   1.40706e+59   2.56168e+59  -2.14212e+67  -9.6534e+133 -9.87843e+199    2.3567e+67  -2.36628e+67   1.95802e+66    2.8355e+65   1.30843e+66   4.77366e+65  -6.48904e+66
  -3.65586e+60   6.90021e+58  -1.75681e+59  -1.89652e+67  7.50104e+132  4.91491e+198   1.87664e+67   -1.7435e+67  -7.71093e+65  -7.59105e+65   4.45483e+65   2.01506e+65  -4.41863e+66
  -3.63887e+60   3.44911e+58    -1.574e+59   -1.9061e+67  1.67718e+133 -6.94984e+197   1.86158e+67  -1.74135e+67  -7.91446e+65  -8.56007e+65  -1.53659e+65  -2.95851e+65  -3.53306e+66
  -4.10976e+60   4.65094e+58  -1.23572e+59  -3.18758e+67  1.59175e+134 -2.12797e+200   2.92727e+67  -2.57742e+67  -2.52114e+66  -3.58041e+66   2.35754e+65  -2.57577e+65  -2.64437e+66
  -4.13004e+60   9.15478e+58  -1.41043e+59  -3.19714e+67  1.50952e+134 -1.92756e+200   2.95164e+67  -2.59057e+67  -2.54147e+66  -3.52419e+66   1.36402e+66    2.3978e+65  -3.63623e+66
  -3.78027e+60    4.8235e+58   2.38704e+59  -1.05737e+67 -1.13208e+134 -1.90502e+200   1.50004e+67  -1.56091e+67   2.30969e+66   2.72574e+66    4.8796e+65   5.73936e+65  -6.35121e+66
  -3.77686e+60    2.4893e+47   2.50107e+59  -1.07002e+67 -1.11979e+134 -1.83845e+200    1.5049e+67  -1.57138e+67    2.2828e+66   2.73081e+66   -1.6136e+65  -5.38723e+65  -6.25412e+66
  -4.31039e+60   2.93647e+47   3.03083e+59  -2.03772e+67 -1.00713e+134 -1.01844e+200   2.27143e+67  -2.35015e+67   2.45081e+66   6.73498e+65  -2.00019e+64  -5.54702e+65  -5.35064e+66
  -4.31081e+60   7.17863e+58   2.91342e+59   -1.9991e+67 -1.05403e+134 -1.19109e+200   2.24731e+67  -2.32475e+67   2.53291e+66   7.23644e+65   1.17419e+66   5.57957e+65  -5.46252e+66
  -3.63887e+60   3.44911e+58    -1.574e+59  -1.90662e+67  1.66862e+133 -1.37118e+198   1.86234e+67  -1.74146e+67  -7.94433e+65  -8.57111e+65   4.49072e+65   2.67513e+65  -3.53306e+66
  -3.63463e+60   1.53024e+47  -1.51044e+59  -1.92744e+67  1.96126e+133 -2.38062e+198   1.87587e+67  -1.75366e+67  -8.38699e+65  -8.99019e+65  -2.00248e+65  -3.00279e+65  -3.38894e+66
  -4.10751e+60   1.86601e+47  -1.17191e+59  -3.19599e+67  1.58031e+134 -2.07014e+200   2.93838e+67  -2.59639e+67  -2.40005e+66  -3.59595e+66  -1.05921e+65  -3.01458e+65  -2.48546e+66
  -4.10976e+60   4.65094e+58  -1.23572e+59   -3.1492e+67  1.48803e+134 -1.86288e+200   2.90335e+67  -2.56926e+67  -2.30057e+66  -3.49883e+66   1.08827e+66   2.66333e+65  -2.64437e+66
  -3.77686e+60    2.4893e+47   2.50107e+59  -1.07002e+67 -1.11979e+134 -1.83845e+200    1.5049e+67  -1.57138e+67    2.2828e+66   2.73081e+66    1.6136e+65   5.38723e+65  -6.25412e+66
  -3.78027e+60   -4.8235e+58   2.38704e+59  -1.05737e+67 -1.13208e+134 -1.90502e+200   1.50004e+67  -1.56091e+67   2.30969e+66   2.72574e+66   -4.8796e+65  -5.73936e+65  -6.35121e+66
  -4.31081e+60  -7.17863e+58   2.91342e+59   -1.9991e+67 -1.05403e+134 -1.19109e+200   2.24731e+67  -2.32475e+67   2.53291e+66   7.23644e+65  -1.17419e+66  -5.57957e+65  -5.46252e+66
  -4.31039e+60   2.93647e+47   3.03083e+59  -2.03772e+67 -1.00713e+134 -1.01844e+200   2.27143e+67  -2.35015e+67   2.45081e+66   6.73498e+65   2.00019e+64   5.54702e+65  -5.35064e+66
  -3.63463e+60   1.53024e+47  -1.51044e+59  -1.92744e+67  1.96126e+133 -2.38062e+198   1.87587e+67  -1.75366e+67  -8.38699e+65  -8.99019e+65   2.00248e+65   3.00279e+65  -3.38894e+66
  -3.63887e+60  -3.44911e+58    -1.574e+59  -1.90662e+67  1.66862e+133 -1.37118e+198   1.86234e+67  -1.74146e+67  -7.94433e+65  -8.57111e+65  -4.49072e+65  -2.67513e+65  -3.53306e+66
  -4.10976e+60  -4.65094e+58  -1.23572e+59   -3.1492e+67  1.48803e+134 -1.86288e+200   2.90335e+67  -2.56926e+67  -2.30057e+66  -3.49883e+66  -1.08827e+66  -2.66333e+65  -2.64437e+66
  -4.10751e+60   1.86601e+47  -1.17191e+59  -3.19599e+67  1.58031e+134 -2.07014e+200   2.93838e+67  -2.59639e+67  -2.40005e+66  -3.59595e+66   1.05921e+65   3.01458e+65  -2.48546e+66
  -3.78027e+60   -4.8235e+58   2.38704e+59  -1.08456e+67  -1.1039e+134 -1.74396e+200   1.51002e+67  -1.56669e+67   2.15342e+66   2.66794e+66   1.74595e+65   4.81101e+65  -6.35121e+66
  -3.79771e+60  -9.54279e+58   2.04969e+59  -1.13367e+67 -1.19165e+134 -1.86093e+200   1.57381e+67  -1.58132e+67     2.049e+66   2.42749e+66  -4.24547e+65   -5.4538e+65  -7.27143e+66
  -4.33228e+60  -1.40706e+59   2.56168e+59  -2.14212e+67  -9.6534e+133 -9.87843e+199    2.3567e+67  -2.36628e+67   1.95802e+66    2.8355e+65  -1.30843e+66  -4.77366e+65  -6.48904e+66
  -4.31081e+60  -7.17863e+58   2.91342e+59  -2.07387e+67 -9.14293e+133 -8.24324e+199   2.28369e+67  -2.34065e+67   2.10312e+66    5.6468e+65  -1.80165e+65   5.49116e+65  -5.46252e+66
  -3.63887e+60  -3.44911e+58    -1.574e+59   -1.9061e+67  1.67718e+133 -6.94984e+197   1.86158e+67  -1.74135e+67  -7.91446e+65  -8.56007e+65   1.53659e+65   2.95851e+65  -3.53306e+66
  -3.65586e+60  -6.90021e+58  -1.75681e+59  -1.89652e+67  7.50104e+132  4.91491e+198   1.87664e+67   -1.7435e+67  -7.71093e+65  -7.59105e+65  -4.45483e+65  -2.01506e+65  -4.41863e+66
  -4.13004e+60  -9.15478e+58  -1.41043e+59  -3.19714e+67  1.50952e+134 -1.92756e+200   2.95164e+67  -2.59057e+67  -2.54147e+66  -3.52419e+66  -1.36402e+66   -2.3978e+65  -3.63623e+66
  -4.10976e+60  -4.65094e+58  -1.23572e+59  -3.18758e+67  1.59175e+134 -2.12797e+200   2.92727e+67  -2.57742e+67  -2.52114e+66  -3.58041e+66  -2.35754e+65   2.57577e+65  -2.64437e+66
  -6.53862e+59  -1.01016e+59    4.8442e+59   2.01025e+67 -2.18461e+132 -7.82149e+198   2.01567e+67   1.04136e+67  -6.24141e+65    1.0313e+67  -5.00177e+65   6.66984e+65  -9.79535e+66
  -6.86385e+59    -4.918e+58   4.96889e+59   2.19255e+67  2.55936e+133 -1.20563e+199   2.13338e+67   1.06154e+67  -2.36579e+65   1.15466e+67   6.00672e+65   4.26494e+64  -9.55892e+66
  -1.19468e+60   -3.5808e+58   5.69758e+59   2.10475e+67  7.20991e+133  4.34929e+199   1.92587e+67    8.8621e+66   8.25433e+65   1.13599e+67   6.42347e+65  -3.80365e+65  -6.68644e+66
  -1.16509e+60   -7.4429e+58   5.48335e+59   1.98851e+67  5.29017e+133   2.3899e+199   1.85072e+67   9.03999e+66   5.78313e+65   1.02668e+67   -2.4945e+65    2.4397e+65  -7.13818e+66
  -7.18842e+59  -5.79064e+58    1.8053e+59   1.15089e+67 -5.95784e+133  1.57471e+199   1.38576e+67   8.58663e+66  -2.49424e+65   3.17169e+66  -5.93045e+65   3.75595e+65  -9.13165e+66
  -7.49399e+59  -2.93717e+58   1.90927e+59    1.2143e+67 -4.69061e+133  4.56608e+198   1.39412e+67    8.5357e+66  -1.14619e+65    3.7219e+66   5.07804e+65  -3.96874e+64  -8.77558e+66
  -1.24111e+60  -1.98144e+58   2.02995e+59   1.01107e+67 -1.07974e+133 -3.53972e+198   1.06312e+67   6.53696e+66   2.83879e+65   3.28983e+66   4.29841e+65   -2.4739e+65   -5.9031e+66
  -1.21602e+60   -3.9559e+58   1.88202e+59   1.01372e+67 -1.92423e+133 -6.13316e+198   1.10456e+67    6.9676e+66   2.89517e+65   2.88006e+66  -4.61955e+65   1.67892e+65  -6.47448e+66
  -6.86385e+59    -4.918e+58   4.96889e+59   2.26183e+67  3.78129e+133  5.01949e+198   2.17664e+67   1.07627e+67   1.61696e+65   1.16939e+67   -3.4033e+65   4.33575e+65  -9.55892e+66
  -6.98989e+59   9.41023e+46   5.01084e+59   2.22953e+67  3.55252e+133  7.86387e+197   2.14838e+67   1.04182e+67   9.30111e+64   1.17841e+67   5.95496e+65   -1.9817e+65  -9.42945e+66
  -1.20614e+60   1.38126e+47   5.75634e+59   2.14284e+67  8.04973e+133  6.48685e+199   1.94597e+67   8.65641e+66   1.17221e+66   1.15998e+67   5.41669e+65    -2.776e+65  -6.57944e+66
  -1.19468e+60   -3.5808e+58   5.69758e+59   2.17813e+67  8.45831e+133  7.31207e+199   1.97444e+67   9.01811e+66   1.24723e+66   1.15159e+67  -2.13936e+65   3.54146e+65  -6.68644e+66
  -7.49399e+59  -2.93717e+58   1.90927e+59   1.19247e+67 -4.90664e+133  1.20012e+199   1.38298e+67   8.48929e+66  -2.40111e+65   3.67548e+66  -4.78269e+65    3.2899e+65  -8.77558e+66
  -7.59084e+59    5.0759e+46   1.93521e+59   1.17256e+67 -4.69256e+133  1.22747e+199     1.358e+67   8.17109e+66  -2.82426e+65   3.83696e+66   4.57557e+65  -1.22534e+65  -8.64071e+66
  -1.24954e+60   8.11298e+46   2.07746e+59   9.86361e+66 -1.02478e+133 -2.56604e+198   1.03701e+67   6.19775e+66   2.24759e+65   3.44109e+66    3.9833e+65  -2.24427e+65   -5.7907e+66
  -1.24111e+60  -1.98144e+58   2.02995e+59   1.00925e+67 -1.08737e+133 -3.45649e+198   1.06175e+67   6.53309e+66   2.73413e+65   3.28596e+66  -3.57274e+65   2.27097e+65   -5.9031e+66
  -6.98989e+59   9.41023e+46   5.01084e+59   2.22953e+67  3.55252e+133  7.86387e+197   2.14838e+67   1.04182e+67   9.30111e+64   1.17841e+67  -5.95496e+65    1.9817e+65  -9.42945e+66
  -6.86385e+59     4.918e+58   4.96889e+59   2.26183e+67  3.78129e+133  5.01949e+198   2.17664e+67   1.07627e+67   1.61696e+65   1.16939e+67    3.4033e+65  -4.33575e+65  -9.55892e+66
  -1.19468e+60    3.5808e+58   5.69758e+59   2.17813e+67  8.45831e+133  7.31207e+199   1.97444e+67   9.01811e+66   1.24723e+66   1.15159e+67   2.13936e+65  -3.54146e+65  -6.68644e+66
  -1.20614e+60   1.38126e+47   5.75634e+59   2.14284e+67  8.04973e+133  6.48685e+199   1.94597e+67   8.65641e+66   1.17221e+66   1.15998e+67  -5.41669e+65     2.776e+65  -6.57944e+66
  -7.59084e+59    5.0759e+46   1.93521e+59   1.17256e+67 -4.69256e+133  1.22747e+199     1.358e+67   8.17109e+66  -2.82426e+65   3.83696e+66  -4.57557e+65   1.22534e+65  -8.64071e+66
  -7.49399e+59   2.93717e+58   1.90927e+59   1.19247e+67 -4.90664e+133  1.20012e+199   1.38298e+67   8.48929e+66  -2.40111e+65   3.67548e+66   4.78269e+65   -3.2899e+65  -8.77558e+66
  -1.24111e+60   1.98144e+58   2.02995e+59   1.00925e+67 -1.08737e+133 -3.45649e+198   1.06175e+67   6.53309e+66   2.73413e+65   3.28596e+66   3.57274e+65  -2.27097e+65   -5.9031e+66
  -1.24954e+60   8.11298e+46   2.07746e+59   9.86361e+66 -1.02478e+133 -2.56604e+198   1.03701e+67   6.19775e+66   2.24759e+65   3.44109e+66   -3.9833e+65   2.24427e+65   -5.7907e+66
  -6.86385e+59     4.918e+58   4.96889e+59   2.19255e+67  2.55936e+133 -1.20563e+199   2.13338e+67   1.06154e+67  -2.36579e+65   1.15466e+67  -6.00672e+65  -4.26494e+64  -9.55892e+66
  -6.53862e+59   1.01016e+59    4.8442e+59   2.01025e+67 -2.18461e+132 -7.82149e+198   2.01567e+67   1.04136e+67  -6.24141e+65    1.0313e+67   5.00177e+65  -6.66984e+65  -9.79535e+66
  -1.16509e+60    7.4429e+58   5.48335e+59   1.98851e+67  5.29017e+133   2.3899e+199   1.85072e+67   9.03999e+66   5.78313e+65   1.02668e+67    2.4945e+65   -2.4397e+65  -7.13818e+66
  -1.19468e+60    3.5808e+58   5.69758e+59   2.10475e+67  7.20991e+133  4.34929e+199   1.92587e+67    8.8621e+66   8.25433e+65   1.13599e+67  -6.42347e+65   3.80365e+65  -6.68644e+66
  -7.49399e+59   2.93717e+58   1.90927e+59    1.2143e+67 -4.69061e+133  4.56608e+198   1.39412e+67    8.5357e+66  -1.14619e+65    3.7219e+66  -5.07804e+65   3.96874e+64  -8.77558e+66
  -7.18842e+59   5.79064e+58    1.8053e+59   1.15089e+67 -5.95784e+133  1.57471e+199   1.38576e+67   8.58663e+66  -2.49424e+65   3.17169e+66   5.93045e+65  -3.75595e+65  -9.13165e+66
  -1.21602e+60    3.9559e+58   1.88202e+59   1.01372e+67 -1.92423e+133 -6.13316e+198   1.10456e+67    6.9676e+66   2.89517e+65   2.88006e+66   4.61955e+65  -1.67892e+65  -6.47448e+66
  -1.24111e+60   1.98144e+58   2.02995e+59   1.01107e+67 -1.07974e+133 -3.53972e+198   1.06312e+67   6.53696e+66   2.83879e+65   3.28983e+66  -4.29841e+65    2.4739e+65   -5.9031e+66
  -1.16509e+60   -7.4429e+58   5.48335e+59   1.57561e+67 -8.04467e+133  2.29309e+199   1.81301e+67   8.16217e+66  -2.99513e+65   7.89341e+66   -2.4945e+65   5.17375e+65   -1.1821e+67
  -1.19468e+60   -3.5808e+58   5.69758e+59   1.57657e+67 -6.79052e+133  1.83335e+199   1.77894e+67   7.73921e+66  -2.97463e+65   8.32396e+66   6.42347e+65   -2.4949e+65  -1.12727e+67
  -1.80004e+60  -1.96659e+58   6.22381e+59   1.34629e+67  -3.3168e+133 -3.03088e+199    1.4643e+67   4.88183e+66   7.46699e+65   7.83439e+66   5.95478e+65  -4.63741e+65  -8.96324e+66
  -1.77543e+60  -4.20549e+58   5.96423e+59   1.38934e+67 -3.73008e+133 -4.04175e+199   1.51766e+67   5.55779e+66   8.38225e+65   7.49741e+66  -8.83061e+64   3.03124e+65  -9.47699e+66
  -1.21602e+60   -3.9559e+58   1.88202e+59    7.7375e+66 -1.07316e+134  2.59655e+199     1.293e+67   6.45744e+66  -2.20652e+65   1.50072e+66  -4.61955e+65   4.34322e+65  -1.07168e+67
  -1.24111e+60  -1.98144e+58   2.02995e+59   7.93796e+66 -9.10294e+133  1.65223e+199   1.24113e+67   6.07504e+66  -1.78035e+65   2.04095e+66   4.29841e+65   -1.2453e+65  -1.00888e+67
  -1.82142e+60  -7.65662e+57   2.06735e+59   4.48658e+66 -5.59811e+133 -1.04342e+199   8.72413e+66   2.97347e+66   2.05912e+65   1.30719e+66    3.0326e+65  -3.73338e+65  -7.77934e+66
  -1.80299e+60  -1.55722e+58   1.86675e+59   4.72628e+66 -6.60293e+133 -1.62765e+199   9.40037e+66   3.60887e+66    2.5687e+65   8.60537e+65  -3.80524e+65   1.85514e+65   -8.3728e+66
  -1.19468e+60   -3.5808e+58   5.69758e+59   1.64995e+67 -5.83668e+133 -7.38126e+198   1.81824e+67   7.89522e+66   1.24334e+65   8.47997e+66  -2.13936e+65   4.85021e+65  -1.12727e+67
  -1.20614e+60   1.38126e+47   5.75634e+59   1.65682e+67 -5.55702e+133  -7.8007e+198    1.8168e+67   7.62314e+66    1.3894e+65   8.80613e+66   5.41669e+65    -2.776e+65   -1.1163e+67
  -1.81031e+60   1.87645e+47   6.31554e+59   1.40107e+67 -2.48091e+133 -4.26285e+199   1.48697e+67   4.62783e+66   1.12046e+66   8.26241e+66   4.85188e+65   -4.3338e+65  -8.77872e+66
  -1.80004e+60  -1.96659e+58   6.22381e+59   1.41733e+67  -2.5229e+133 -4.64891e+199    1.5037e+67   5.03285e+66   1.15502e+66   7.98542e+66  -8.21794e+64   3.29241e+65  -8.96324e+66
  -1.24111e+60  -1.98144e+58   2.02995e+59   7.91975e+66 -9.11941e+133  1.83742e+199   1.24063e+67   6.07117e+66  -1.88502e+65   2.03708e+66  -3.57274e+65   3.49957e+65  -1.00888e+67
  -1.24954e+60   8.11298e+46   2.07746e+59   7.57502e+66 -8.88692e+133   2.3825e+199   1.20934e+67    5.7112e+66   -2.6179e+65   2.12561e+66    3.9833e+65  -2.24427e+65  -9.93722e+66
  -1.82777e+60   1.17322e+47   2.13198e+59   3.97811e+66  -5.3363e+133 -5.53203e+198   8.31796e+66   2.49492e+66    1.2228e+65   1.36091e+66   2.99962e+65  -3.05334e+65  -7.55293e+66
  -1.82142e+60  -7.65662e+57   2.06735e+59   4.55413e+66 -5.56587e+133 -1.30363e+199   8.74064e+66   2.98784e+66   2.44742e+65   1.32156e+66  -2.67406e+65    2.6905e+65  -7.77934e+66
  -1.20614e+60   1.38126e+47   5.75634e+59   1.65682e+67 -5.55702e+133  -7.8007e+198    1.8168e+67   7.62314e+66    1.3894e+65   8.80613e+66  -5.41669e+65     2.776e+65   -1.1163e+67
  -1.19468e+60    3.5808e+58   5.69758e+59   1.64995e+67 -5.83668e+133 -7.38126e+198   1.81824e+67   7.89522e+66   1.24334e+65   8.47997e+66   2.13936e+65  -4.85021e+65  -1.12727e+67
  -1.80004e+60   1.96659e+58   6.22381e+59   1.41733e+67  -2.5229e+133 -4.64891e+199    1.5037e+67   5.03285e+66   1.15502e+66   7.98542e+66   8.21794e+64  -3.29241e+65  -8.96324e+66
  -1.81031e+60   1.87645e+47   6.31554e+59   1.40107e+67 -2.48091e+133 -4.26285e+199   1.48697e+67   4.62783e+66   1.12046e+66   8.26241e+66  -4.85188e+65    4.3338e+65  -8.77872e+66
  -1.24954e+60   8.11298e+46   2.07746e+59   7.57502e+66 -8.88692e+133   2.3825e+199   1.20934e+67    5.7112e+66   -2.6179e+65   2.12561e+66   -3.9833e+65   2.24427e+65  -9.93722e+66
  -1.24111e+60   1.98144e+58   2.02995e+59   7.91975e+66 -9.11941e+133  1.83742e+199   1.24063e+67   6.07117e+66  -1.88502e+65   2.03708e+66   3.57274e+65  -3.49957e+65  -1.00888e+67
  -1.82142e+60   7.65662e+57   2.06735e+59   4.55413e+66 -5.56587e+133 -1.30363e+199   8.74064e+66   2.98784e+66   2.44742e+65   1.32156e+66   2.67406e+65   -2.6905e+65  -7.77934e+66
  -1.82777e+60   1.17322e+47   2.13198e+59   3.97811e+66  -5.3363e+133 -5.53203e+198   8.31796e+66   2.49492e+66    1.2228e+65   1.36091e+66  -2.99962e+65   3.05334e+65  -7.55293e+66
  -1.19468e+60    3.5808e+58   5.69758e+59   1.57657e+67 -6.79052e+133  1.83335e+199   1.77894e+67   7.73921e+66  -2.97463e+65   8.32396e+66  -6.42347e+65    2.4949e+65  -1.12727e+67
  -1.16509e+60    7.4429e+58   5.48335e+59   1.57561e+67 -8.04467e+133  2.29309e+199   1.81301e+67   8.16217e+66  -2.99513e+65   7.89341e+66    2.4945e+65  -5.17375e+65   -1.1821e+67
  -1.77543e+60   4.20549e+58   5.96423e+59   1.38934e+67 -3.73008e+133 -4.04175e+199   1.51766e+67   5.55779e+66   8.38225e+65   7.49741e+66   8.83061e+64  -3.03124e+65  -9.47699e+66
  -1.80004e+60   1.96659e+58   6.22381e+59   1.34629e+67  -3.3168e+133 -3.03088e+199    1.4643e+67   4.88183e+66   7.46699e+65   7.83439e+66  -5.95478e+65   4.63741e+65  -8.96324e+66
  -1.24111e+60   1.98144e+58   2.02995e+59   7.93796e+66 -9.10294e+133  1.65223e+199   1.24113e+67   6.07504e+66  -1.78035e+65   2.04095e+66  -4.29841e+65    1.2453e+65  -1.00888e+67
  -1.21602e+60    3.9559e+58   1.88202e+59    7.7375e+66 -1.07316e+134  2.59655e+199     1.293e+67   6.45744e+66  -2.20652e+65   1.50072e+66   4.61955e+65  -4.34322e+65  -1.07168e+67
  -1.80299e+60   1.55722e+58   1.86675e+59   4.72628e+66 -6.60293e+133 -1.62765e+199   9.40037e+66   3.60887e+66    2.5687e+65   8.60537e+65   3.80524e+65  -1.85514e+65   -8.3728e+66
  -1.82142e+60   7.65662e+57   2.06735e+59   4.48658e+66 -5.59811e+133 -1.04342e+199   8.72413e+66   2.97347e+66   2.05912e+65   1.30719e+66   -3.0326e+65   3.73338e+65  -7.77934e+66
  -1.77543e+60  -4.20549e+58   5.96423e+59   6.92142e+66 -1.66357e+134  1.03332e+200   1.46377e+67   4.07555e+66  -6.44013e+65   3.48988e+66  -8.83061e+64   6.90102e+65  -1.32372e+67
  -1.80004e+60  -1.96659e+58   6.22381e+59   7.89132e+66 -1.46142e+134  6.45127e+199   1.44366e+67   3.69732e+66  -4.37815e+65   4.63182e+66   5.95478e+65  -2.83201e+65  -1.26169e+67
  -2.48275e+60   2.97673e+56   6.53645e+59   3.03121e+66 -1.27167e+134 -5.28945e+199   1.16771e+67  -1.04289e+66    4.7554e+65   3.59857e+66   4.79685e+65  -7.51069e+65  -1.11281e+67
  -2.46537e+60  -1.48975e+57   6.17784e+59   2.47688e+66 -1.43871e+134 -5.20242e+199   1.22477e+67  -4.25789e+65    3.5769e+65   2.54498e+66   6.05693e+64   2.22234e+65  -1.19788e+67
  -1.80299e+60  -1.55722e+58   1.86675e+59   3.74861e+66 -1.30485e+134 -3.03771e+198   1.20224e+67   3.40102e+66   4.90194e+64   2.98569e+65  -3.80524e+65    4.7817e+65   -1.1459e+67
  -1.82142e+60  -7.65662e+57   2.06735e+59   3.44639e+66 -1.14097e+134  3.02781e+198   1.12238e+67   2.75233e+66  -1.52303e+64   7.09292e+65    3.0326e+65  -2.30464e+65  -1.07634e+67
  -2.46489e+60   7.52533e+57   2.06487e+59  -2.87514e+66  -8.4962e+133 -3.42686e+198   9.65549e+66  -2.29858e+66   5.80908e+64  -6.34656e+65   1.12208e+65  -4.67951e+65  -9.27464e+66
  -2.45529e+60   1.46092e+58     1.814e+59  -2.15736e+66 -1.03353e+134 -1.99593e+199   1.03927e+67  -1.41102e+66   2.10689e+65  -9.57031e+65  -3.06908e+65   2.40684e+65  -1.02006e+67
  -1.80004e+60  -1.96659e+58   6.22381e+59   8.60169e+66 -1.41301e+134  4.17623e+198   1.46728e+67   3.84834e+66  -2.94893e+64   4.78284e+66  -8.21794e+64   5.09781e+65  -1.26169e+67
  -1.81031e+60   1.87645e+47   6.31554e+59   8.25753e+66 -1.36559e+134  1.72686e+199    1.4309e+67   3.40472e+66  -1.02657e+65   4.95547e+66   4.85188e+65   -4.3338e+65  -1.23349e+67
  -2.48976e+60   2.41669e+47    6.6542e+59   3.33313e+66 -1.20648e+134 -8.60239e+199   1.14786e+67  -1.31216e+66   7.36745e+65   3.90855e+66   3.31249e+65  -5.56278e+65  -1.08173e+67
  -2.48275e+60   2.97673e+56   6.53645e+59   3.57515e+66 -1.25232e+134 -1.00095e+200   1.17479e+67  -9.27254e+65   7.88198e+65   3.71421e+66  -1.02156e+64   3.86883e+65  -1.11281e+67
  -1.82142e+60  -7.65662e+57   2.06735e+59   3.51395e+66 -1.14008e+134   -8.368e+197   1.12408e+67   2.76669e+66   2.35997e+64   7.23654e+65  -2.67406e+65   4.11923e+65  -1.07634e+67
  -1.82777e+60   1.17322e+47   2.13198e+59   3.01045e+66 -1.08848e+134  1.06833e+199   1.08587e+67    2.2892e+66  -8.34437e+64   8.04693e+65   2.99962e+65  -3.05334e+65  -1.04999e+67
  -2.46837e+60   1.58068e+47   2.14941e+59  -3.16133e+66 -7.96264e+133 -1.46654e+198   9.46681e+66  -2.69288e+66   3.89606e+64  -5.07418e+65    1.6452e+65  -3.99376e+65  -8.98229e+66
  -2.46489e+60   7.52533e+57   2.06487e+59  -2.75997e+66 -8.51221e+133 -9.22649e+198   9.63014e+66  -2.27409e+66   1.24289e+65  -6.10172e+65  -1.76944e+65   3.17882e+65  -9.27464e+66
  -1.81031e+60   1.87645e+47   6.31554e+59   8.25753e+66 -1.36559e+134  1.72686e+199    1.4309e+67   3.40472e+66  -1.02657e+65   4.95547e+66  -4.85188e+65    4.3338e+65  -1.23349e+67
  -1.80004e+60   1.96659e+58   6.22381e+59   8.60169e+66 -1.41301e+134  4.17623e+198   1.46728e+67   3.84834e+66  -2.94893e+64   4.78284e+66   8.21794e+64  -5.09781e+65  -1.26169e+67
  -2.48275e+60  -2.97673e+56   6.53645e+59   3.57515e+66 -1.25232e+134 -1.00095e+200   1.17479e+67  -9.27254e+65   7.88198e+65   3.71421e+66   1.02156e+64  -3.86883e+65  -1.11281e+67
  -2.48976e+60   2.41669e+47    6.6542e+59   3.33313e+66 -1.20648e+134 -8.60239e+199   1.14786e+67  -1.31216e+66   7.36745e+65   3.90855e+66  -3.31249e+65   5.56278e+65  -1.08173e+67
  -1.82777e+60   1.17322e+47   2.13198e+59   3.01045e+66 -1.08848e+134  1.06833e+199   1.08587e+67    2.2892e+66  -8.34437e+64   8.04693e+65  -2.99962e+65   3.05334e+65  -1.04999e+67
  -1.82142e+60   7.65662e+57   2.06735e+59   3.51395e+66 -1.14008e+134   -8.368e+197   1.12408e+67   2.76669e+66   2.35997e+64   7.23654e+65   2.67406e+65  -4.11923e+65  -1.07634e+67
  -2.46489e+60  -7.52533e+57   2.06487e+59  -2.75997e+66 -8.51221e+133 -9.22649e+198   9.63014e+66  -2.27409e+66   1.24289e+65  -6.10172e+65   1.76944e+65  -3.17882e+65  -9.27464e+66
  -2.46837e+60   1.58068e+47   2.14941e+59  -3.16133e+66 -7.96264e+133 -1.46654e+198   9.46681e+66  -2.69288e+66   3.89606e+64  -5.07418e+65   -1.6452e+65   3.99376e+65  -8.98229e+66
  -1.80004e+60   1.96659e+58   6.22381e+59   7.89132e+66 -1.46142e+134  6.45127e+199   1.44366e+67   3.69732e+66  -4.37815e+65   4.63182e+66  -5.95478e+65   2.83201e+65  -1.26169e+67
  -1.77543e+60   4.20549e+58   5.96423e+59   6.92142e+66 -1.66357e+134  1.03332e+200   1.46377e+67   4.07555e+66  -6.44013e+65   3.48988e+66   8.83061e+64  -6.90102e+65  -1.32372e+67
  -2.46537e+60   1.48975e+57   6.17784e+59   2.47688e+66 -1.43871e+134 -5.20242e+199   1.22477e+67  -4.25789e+65    3.5769e+65   2.54498e+66  -6.05693e+64  -2.22234e+65  -1.19788e+67
  -2.48275e+60  -2.97673e+56   6.53645e+59   3.03121e+66 -1.27167e+134 -5.28945e+199   1.16771e+67  -1.04289e+66    4.7554e+65   3.59857e+66  -4.79685e+65   7.51069e+65  -1.11281e+67
  -1.82142e+60   7.65662e+57   2.06735e+59   3.44639e+66 -1.14097e+134  3.02781e+198   1.12238e+67   2.75233e+66  -1.52303e+64   7.09292e+65   -3.0326e+65   2.30464e+65  -1.07634e+67
  -1.80299e+60   1.55722e+58   1.86675e+59   3.74861e+66 -1.30485e+134 -3.03771e+198   1.20224e+67   3.40102e+66   4.90194e+64   2.98569e+65   3.80524e+65   -4.7817e+65   -1.1459e+67
  -2.45529e+60  -1.46092e+58     1.814e+59  -2.15736e+66 -1.03353e+134 -1.99593e+199   1.03927e+67  -1.41102e+66   2.10689e+65  -9.57031e+65   3.06908e+65  -2.40684e+65  -1.02006e+67
  -2.46489e+60  -7.52533e+57   2.06487e+59  -2.87514e+66  -8.4962e+133 -3.42686e+198   9.65549e+66  -2.29858e+66   5.80908e+64  -6.34656e+65  -1.12208e+65   4.67951e+65  -9.27464e+66
  -2.46537e+60  -1.48975e+57   6.17784e+59  -5.97783e+65 -2.24619e+134  6.55217e+199   1.49992e+67  -1.07946e+66  -2.95978e+65   7.77653e+65   6.05693e+64   8.74729e+65  -1.49365e+67
  -2.48275e+60   2.97673e+56   6.53645e+59  -4.10362e+65 -1.95955e+134  5.55189e+199   1.40044e+67  -1.77457e+66  -2.56133e+65   1.62034e+66   4.79685e+65  -4.12353e+65  -1.38823e+67
  -3.22375e+60   2.74307e+58   6.71717e+59  -1.13038e+67 -1.70873e+134  1.38539e+199   1.72814e+67  -1.06103e+67   2.11277e+63  -6.95581e+65   3.28028e+65  -8.13773e+65  -1.33214e+67
  -3.21791e+60   5.28866e+58   6.27359e+59  -1.13528e+67 -1.95873e+134 -3.92036e+197   1.80211e+67  -9.83566e+66  -8.31989e+63  -1.50885e+66   3.18663e+65    4.7331e+65   -1.4508e+67
  -2.45529e+60   1.46092e+58     1.814e+59  -6.49711e+65  -1.3789e+134 -6.81413e+199   1.17606e+67   -1.0905e+66   5.31214e+65  -9.04273e+64  -3.06908e+65   5.80463e+65  -1.17017e+67
  -2.46489e+60   7.52533e+57   2.06487e+59  -1.19353e+66  -1.1425e+134 -4.62878e+199   1.07552e+67  -1.94107e+66   4.15599e+65   3.31941e+65   1.12208e+65  -2.96869e+65  -1.06224e+67
  -3.13689e+60   2.63285e+58   2.12686e+59  -1.43495e+67 -6.52077e+133    4.893e+199   1.64656e+67  -1.12578e+67  -6.26669e+65  -2.46499e+66  -6.45051e+64   -5.6586e+65  -1.00615e+67
  -3.13936e+60   5.19826e+58   1.81905e+59  -1.36673e+67 -9.13202e+133  4.85294e+199   1.66768e+67  -1.03277e+67  -4.81642e+65  -2.85795e+66  -7.38699e+64   3.11471e+65  -1.12732e+67
  -2.48275e+60   2.97673e+56   6.53645e+59   1.33577e+65 -1.96121e+134 -9.97715e+198    1.4005e+67  -1.65893e+66   5.65248e+64   1.73598e+66  -1.02156e+64   7.25599e+65  -1.38823e+67
  -2.48976e+60   2.41669e+47    6.6542e+59  -1.27855e+64 -1.87259e+134   6.4403e+197   1.36843e+67   -2.0235e+66   2.54084e+64   1.98531e+66   3.31249e+65  -5.56278e+65  -1.35211e+67
  -3.22644e+60   2.99208e+47    6.8646e+59  -1.07745e+67 -1.66833e+134 -4.15895e+199   1.68203e+67  -1.07731e+67   3.01242e+65  -3.02615e+65   1.26968e+65    -6.965e+65   -1.2894e+67
  -3.22375e+60   2.74307e+58   6.71717e+59  -1.07886e+67 -1.74987e+134  -5.0267e+199   1.70698e+67  -1.05008e+67   2.98249e+65  -5.86051e+65   1.79042e+65   5.85377e+65  -1.33214e+67
  -2.46489e+60   7.52533e+57   2.06487e+59  -1.07836e+66 -1.14541e+134 -5.24081e+199   1.07566e+67  -1.91658e+66   4.81798e+65   3.56425e+65  -1.76944e+65   4.88964e+65  -1.06224e+67
  -2.46837e+60   1.58068e+47   2.14941e+59  -1.59012e+66 -1.07743e+134 -3.81273e+199    1.0501e+67  -2.35884e+66   3.72999e+65   3.95723e+65    1.6452e+65  -3.99376e+65  -1.02903e+67
  -3.13666e+60   2.02439e+47   2.22707e+59  -1.45248e+67 -5.80045e+133  4.21932e+199   1.64005e+67  -1.15704e+67  -6.00222e+65  -2.35418e+66  -1.07046e+64  -4.73424e+65  -9.66318e+66
  -3.13689e+60   2.63285e+58   2.12686e+59  -1.41735e+67 -6.69963e+133  4.04771e+199   1.63672e+67  -1.12204e+67  -5.25532e+65  -2.42758e+66   4.13688e+64   4.14916e+65  -1.00615e+67
  -2.48976e+60   2.41669e+47    6.6542e+59  -1.27855e+64 -1.87259e+134   6.4403e+197   1.36843e+67   -2.0235e+66   2.54084e+64   1.98531e+66  -3.31249e+65   5.56278e+65  -1.35211e+67
  -2.48275e+60  -2.97673e+56   6.53645e+59   1.33577e+65 -1.96121e+134 -9.97715e+198    1.4005e+67  -1.65893e+66   5.65248e+64   1.73598e+66   1.02156e+64  -7.25599e+65  -1.38823e+67
  -3.22375e+60  -2.74307e+58   6.71717e+59  -1.07886e+67 -1.74987e+134  -5.0267e+199   1.70698e+67  -1.05008e+67   2.98249e+65  -5.86051e+65  -1.79042e+65  -5.85377e+65  -1.33214e+67
  -3.22644e+60   2.99208e+47    6.8646e+59  -1.07745e+67 -1.66833e+134 -4.15895e+199   1.68203e+67  -1.07731e+67   3.01242e+65  -3.02615e+65  -1.26968e+65     6.965e+65   -1.2894e+67
  -2.46837e+60   1.58068e+47   2.14941e+59  -1.59012e+66 -1.07743e+134 -3.81273e+199    1.0501e+67  -2.35884e+66   3.72999e+65   3.95723e+65   -1.6452e+65   3.99376e+65  -1.02903e+67
  -2.46489e+60  -7.52533e+57   2.06487e+59  -1.07836e+66 -1.14541e+134 -5.24081e+199   1.07566e+67  -1.91658e+66   4.81798e+65   3.56425e+65   1.76944e+65  -4.88964e+65  -1.06224e+67
  -3.13689e+60  -2.63285e+58   2.12686e+59  -1.41735e+67 -6.69963e+133  4.04771e+199   1.63672e+67  -1.12204e+67  -5.25532e+65  -2.42758e+66  -4.13688e+64  -4.14916e+65  -1.00615e+67
  -3.13666e+60   2.02439e+47   2.22707e+59  -1.45248e+67 -5.80045e+133  4.21932e+199   1.64005e+67  -1.15704e+67  -6.00222e+65  -2.35418e+66   1.07046e+64   4.73424e+65  -9.66318e+66
  -2.48275e+60  -2.97673e+56   6.53645e+59  -4.10362e+65 -1.95955e+134  5.55189e+199   1.40044e+67  -1.77457e+66  -2.56133e+65   1.62034e+66  -4.79685e+65   4.12353e+65  -1.38823e+67
  -2.46537e+60   1.48975e+57   6.17784e+59  -5.97783e+65 -2.24619e+134  6.55217e+199   1.49992e+67  -1.07946e+66  -2.95978e+65   7.77653e+65  -6.05693e+64  -8.74729e+65  -1.49365e+67
  -3.21791e+60  -5.28866e+58   6.27359e+59  -1.13528e+67 -1.95873e+134 -3.92036e+197   1.80211e+67  -9.83566e+66  -8.31989e+63  -1.50885e+66  -3.18663e+65   -4.7331e+65   -1.4508e+67
  -3.22375e+60  -2.74307e+58   6.71717e+59  -1.13038e+67 -1.70873e+134  1.38539e+199   1.72814e+67  -1.06103e+67   2.11277e+63  -6.95581e+65  -3.28028e+65   8.13773e+65  -1.33214e+67
  -2.46489e+60  -7.52533e+57   2.06487e+59  -1.19353e+66  -1.1425e+134 -4.62878e+199   1.07552e+67  -1.94107e+66   4.15599e+65   3.31941e+65  -1.12208e+65   2.96869e+65  -1.06224e+67
  -2.45529e+60  -1.46092e+58     1.814e+59  -6.49711e+65  -1.3789e+134 -6.81413e+199   1.17606e+67   -1.0905e+66   5.31214e+65  -9.04273e+64   3.06908e+65  -5.80463e+65  -1.17017e+67
  -3.13936e+60  -5.19826e+58   1.81905e+59  -1.36673e+67 -9.13202e+133  4.85294e+199   1.66768e+67  -1.03277e+67  -4.81642e+65  -2.85795e+66   7.38699e+64  -3.11471e+65  -1.12732e+67
  -3.13689e+60  -2.63285e+58   2.12686e+59  -1.43495e+67 -6.52077e+133    4.893e+199   1.64656e+67  -1.12578e+67  -6.26669e+65  -2.46499e+66   6.45051e+64    5.6586e+65  -1.00615e+67
  -3.21791e+60   5.28866e+58   6.27359e+59  -7.81315e+66 -2.38405e+134 -1.70414e+200   1.73046e+67  -9.08313e+66    7.4421e+65   5.25765e+65   3.18663e+65   1.16999e+66  -1.50263e+67
  -3.22375e+60   2.74307e+58   6.71717e+59  -7.21988e+66 -2.07304e+134 -1.68664e+200   1.61069e+67  -9.74206e+66   8.70339e+65   1.65185e+66   3.28028e+65  -4.26081e+65  -1.35603e+67
  -3.96981e+60   6.27699e+58   7.05444e+59  -2.51912e+67 -1.30708e+134 -6.54055e+198   2.76641e+67  -2.32642e+67   2.41811e+65  -2.16883e+66   1.38075e+65  -9.26057e+65  -1.31961e+67
  -3.98142e+60   1.22009e+59   6.50503e+59  -2.64318e+67 -1.47176e+134  1.01597e+198   2.90829e+67  -2.29773e+67  -2.19383e+64  -3.43253e+66     7.072e+65   6.70014e+65  -1.50225e+67
  -3.13936e+60   5.19826e+58   1.81905e+59  -7.78229e+66 -1.12878e+134 -7.73807e+199   1.31697e+67  -9.07657e+66   7.69502e+65   5.24777e+65  -7.38699e+64   5.98335e+65  -1.00584e+67
  -3.13689e+60   2.63285e+58   2.12686e+59  -9.17913e+66 -8.57472e+133  -3.6966e+199   1.30385e+67  -1.01586e+67   4.72534e+65    5.0693e+65  -6.45051e+64  -4.19246e+65  -8.70958e+66
  -3.78027e+60    4.8235e+58   2.38704e+59  -3.03447e+67  8.37685e+133 -4.86174e+199   2.89315e+67  -2.43598e+67  -1.99207e+66  -3.99284e+66  -1.37226e+65  -5.58807e+65  -8.34539e+66
  -3.79771e+60   9.54279e+58   2.04969e+59  -2.95952e+67  4.66516e+133  8.78373e+198   2.87962e+67  -2.36499e+67  -1.83272e+66  -4.11261e+66   4.31899e+65   4.58775e+65  -1.00546e+67
  -3.22375e+60   2.74307e+58   6.71717e+59  -6.70468e+66 -2.11009e+134 -2.29945e+200   1.59988e+67  -9.63253e+66   1.16648e+66   1.76138e+66   1.79042e+65   9.73069e+65  -1.35603e+67
  -3.22644e+60   2.99208e+47    6.8646e+59  -7.07732e+66 -2.02973e+134 -2.03329e+200   1.59079e+67   -9.9871e+66   1.08725e+66   1.82253e+66   1.26968e+65    -6.965e+65  -1.32436e+67
  -3.97051e+60   3.58869e+47   7.21672e+59  -2.49577e+67 -1.35625e+134 -5.98746e+199   2.75411e+67  -2.36039e+67   6.25052e+65  -1.97881e+66   3.33417e+64  -7.66688e+65  -1.28745e+67
  -3.96981e+60   6.27699e+58   7.05444e+59  -2.42702e+67 -1.49269e+134 -9.65263e+199   2.71719e+67  -2.30684e+67   7.71221e+65  -1.97302e+66    7.2003e+65   9.02881e+65  -1.31961e+67
  -3.13689e+60   2.63285e+58   2.12686e+59  -9.00318e+66 -8.71772e+133 -4.38917e+199   1.29705e+67  -1.01212e+67   5.73672e+65   5.44337e+65   4.13688e+64    5.6153e+65  -8.70958e+66
  -3.13666e+60   2.02439e+47   2.22707e+59  -9.40281e+66 -8.07286e+133 -3.47162e+199   1.30054e+67  -1.04815e+67   4.88711e+65   5.89976e+65  -1.07046e+64  -4.73424e+65  -8.33585e+66
  -3.77686e+60    2.4893e+47   2.50107e+59  -3.07874e+67  9.17483e+133 -6.32825e+199   2.92594e+67  -2.48433e+67   -1.9877e+66  -3.95635e+66   -1.6136e+65  -5.38723e+65  -7.96677e+66
  -3.78027e+60    4.8235e+58   2.38704e+59  -3.00728e+67   7.7299e+133 -4.49818e+199   2.87589e+67   -2.4302e+67   -1.8358e+66  -3.93504e+66   5.25329e+65    4.9623e+65  -8.34539e+66
  -3.22644e+60   2.99208e+47    6.8646e+59  -7.07732e+66 -2.02973e+134 -2.03329e+200   1.59079e+67   -9.9871e+66   1.08725e+66   1.82253e+66  -1.26968e+65     6.965e+65  -1.32436e+67
  -3.22375e+60  -2.74307e+58   6.71717e+59  -6.70468e+66 -2.11009e+134 -2.29945e+200   1.59988e+67  -9.63253e+66   1.16648e+66   1.76138e+66  -1.79042e+65  -9.73069e+65  -1.35603e+67
  -3.96981e+60  -6.27699e+58   7.05444e+59  -2.42702e+67 -1.49269e+134 -9.65263e+199   2.71719e+67  -2.30684e+67   7.71221e+65  -1.97302e+66   -7.2003e+65  -9.02881e+65  -1.31961e+67
  -3.97051e+60   3.58869e+47   7.21672e+59  -2.49577e+67 -1.35625e+134 -5.98746e+199   2.75411e+67  -2.36039e+67   6.25052e+65  -1.97881e+66  -3.33417e+64   7.66688e+65  -1.28745e+67
  -3.13666e+60   2.02439e+47   2.22707e+59  -9.40281e+66 -8.07286e+133 -3.47162e+199   1.30054e+67  -1.04815e+67   4.88711e+65   5.89976e+65   1.07046e+64   4.73424e+65  -8.33585e+66
  -3.13689e+60  -2.63285e+58   2.12686e+59  -9.00318e+66 -8.71772e+133 -4.38917e+199   1.29705e+67  -1.01212e+67   5.73672e+65   5.44337e+65  -4.13688e+64   -5.6153e+65  -8.70958e+66
  -3.78027e+60   -4.8235e+58   2.38704e+59  -3.00728e+67   7.7299e+133 -4.49818e+199   2.87589e+67   -2.4302e+67   -1.8358e+66  -3.93504e+66  -5.25329e+65   -4.9623e+65  -8.34539e+66
  -3.77686e+60    2.4893e+47   2.50107e+59  -3.07874e+67  9.17483e+133 -6.32825e+199   2.92594e+67  -2.48433e+67   -1.9877e+66  -3.95635e+66    1.6136e+65   5.38723e+65  -7.96677e+66
  -3.22375e+60  -2.74307e+58   6.71717e+59  -7.21988e+66 -2.07304e+134 -1.68664e+200   1.61069e+67  -9.74206e+66   8.70339e+65   1.65185e+66  -3.28028e+65   4.26081e+65  -1.35603e+67
  -3.21791e+60  -5.28866e+58   6.27359e+59  -7.81315e+66 -2.38405e+134 -1.70414e+200   1.73046e+67  -9.08313e+66    7.4421e+65   5.25765e+65  -3.18663e+65  -1.16999e+66  -1.50263e+67
  -3.98142e+60  -1.22009e+59   6.50503e+59  -2.64318e+67 -1.47176e+134  1.01597e+198   2.90829e+67  -2.29773e+67  -2.19383e+64  -3.43253e+66    -7.072e+65  -6.70014e+65  -1.50225e+67
  -3.96981e+60  -6.27699e+58   7.05444e+59  -2.51912e+67 -1.30708e+134 -6.54055e+198   2.76641e+67  -2.32642e+67   2.41811e+65  -2.16883e+66  -1.38075e+65   9.26057e+65  -1.31961e+67
  -3.13689e+60  -2.63285e+58   2.12686e+59  -9.17913e+66 -8.57472e+133  -3.6966e+199   1.30385e+67  -1.01586e+67   4.72534e+65    5.0693e+65   6.45051e+64   4.19246e+65  -8.70958e+66
  -3.13936e+60  -5.19826e+58   1.81905e+59  -7.78229e+66 -1.12878e+134 -7.73807e+199   1.31697e+67  -9.07657e+66   7.69502e+65   5.24777e+65   7.38699e+64  -5.98335e+65  -1.00584e+67
  -3.79771e+60  -9.54279e+58   2.04969e+59  -2.95952e+67  4.66516e+133  8.78373e+198   2.87962e+67  -2.36499e+67  -1.83272e+66  -4.11261e+66  -4.31899e+65  -4.58775e+65  -1.00546e+67
  -3.78027e+60   -4.8235e+58   2.38704e+59  -3.03447e+67  8.37685e+133 -4.86174e+199   2.89315e+67  -2.43598e+67  -1.99207e+66  -3.99284e+66   1.37226e+65   5.58807e+65  -8.34539e+66
  -3.98142e+60   1.22009e+59   6.50503e+59  -1.43567e+67 -2.04252e+134  -3.9894e+200   2.02575e+67  -2.04102e+67   2.54519e+66   3.50824e+66     7.072e+65   1.06516e+66  -9.38055e+66
  -3.96981e+60   6.27699e+58   7.05444e+59  -1.54807e+67 -1.80517e+134 -3.05867e+200    2.0498e+67  -2.11997e+67   2.30625e+66   3.41281e+66   1.38075e+65  -7.75034e+65  -8.15629e+66
  -4.60919e+60   1.01306e+59   7.76394e+59  -3.37136e+67 -1.13478e+134 -4.43648e+199   3.53566e+67  -3.53605e+67   2.11034e+66   -4.6349e+65   6.23612e+65  -8.46789e+65  -7.29115e+66
  -4.62551e+60   1.99496e+59   7.19935e+59   -3.2768e+67 -1.44595e+134 -1.33325e+200   3.49047e+67  -3.46734e+67   2.31138e+66  -4.05959e+65   2.00645e+66   9.93405e+65  -8.51915e+66
  -3.79771e+60   9.54279e+58   2.04969e+59  -2.22557e+67 -1.45315e+133  1.00259e+199   2.25798e+67  -2.20895e+67  -2.72367e+65   1.06127e+65   4.31899e+65    5.4538e+65  -4.20604e+66
  -3.78027e+60    4.8235e+58   2.38704e+59  -2.34003e+67  2.49376e+132  9.56965e+198    2.3347e+67  -2.28834e+67  -5.15703e+65  -1.17941e+63  -1.37226e+65  -4.81101e+65  -3.01407e+66
  -4.31081e+60   7.17863e+58   2.91342e+59  -4.61264e+67  3.19676e+134 -5.76689e+200   4.25202e+67  -3.79994e+67  -3.29426e+66   -4.8327e+66     3.806e+65  -5.49116e+65  -2.14893e+66
  -4.33228e+60   1.40706e+59   2.56168e+59  -4.51601e+67  2.93136e+134 -4.96676e+200   4.17887e+67  -3.73079e+67  -3.08883e+66   -4.7633e+66   1.76344e+66   4.77366e+65  -3.34464e+66
  -3.96981e+60   6.27699e+58   7.05444e+59  -1.45596e+67 -1.93277e+134 -3.94492e+200   2.01311e+67  -2.10039e+67   2.83566e+66   3.60861e+66    7.2003e+65    1.0539e+66  -8.15629e+66
  -3.97051e+60   3.58869e+47   7.21672e+59   -1.4764e+67  -1.9856e+134 -4.02892e+200   2.04092e+67  -2.14368e+67   2.79222e+66   3.88058e+66   3.33417e+64  -7.66688e+65  -8.10945e+66
  -4.61373e+60    4.1861e+47   7.95961e+59  -3.33247e+67 -1.38089e+134 -8.63021e+199   3.53359e+67  -3.57467e+67   2.48742e+66  -6.54058e+64   2.14465e+65  -9.24389e+65  -7.10259e+66
  -4.60919e+60   1.01306e+59   7.76394e+59  -3.29008e+67 -1.37771e+134 -1.02673e+200   3.49319e+67  -3.51877e+67   2.57754e+66  -2.90692e+65   1.60909e+66   8.96203e+65  -7.29115e+66
  -3.78027e+60    4.8235e+58   2.38704e+59  -2.31284e+67  -2.7985e+132  9.41549e+198   2.31889e+67  -2.28256e+67  -3.59431e+65   5.66201e+64   5.25329e+65   5.73936e+65  -3.01407e+66
  -3.77686e+60    2.4893e+47   2.50107e+59  -2.41153e+67  7.35671e+132  9.55451e+198   2.39623e+67  -2.34248e+67  -5.69236e+65  -1.21228e+65   -1.6136e+65  -5.38723e+65  -2.92746e+66
  -4.31039e+60   2.93647e+47   3.03083e+59  -4.65851e+67  3.20559e+134 -5.66229e+200   4.30071e+67  -3.85659e+67  -3.12096e+66  -4.89827e+66  -2.00019e+64  -5.54702e+65   -1.9206e+66
  -4.31081e+60   7.17863e+58   2.91342e+59  -4.53786e+67  2.91818e+134 -4.76057e+200   4.20405e+67  -3.78404e+67  -2.86447e+66  -4.67374e+66   1.37462e+66   5.57957e+65  -2.14893e+66
  -3.97051e+60   3.58869e+47   7.21672e+59   -1.4764e+67  -1.9856e+134 -4.02892e+200   2.04092e+67  -2.14368e+67   2.79222e+66   3.88058e+66  -3.33417e+64   7.66688e+65  -8.10945e+66
  -3.96981e+60  -6.27699e+58   7.05444e+59  -1.45596e+67 -1.93277e+134 -3.94492e+200   2.01311e+67  -2.10039e+67   2.83566e+66   3.60861e+66   -7.2003e+65   -1.0539e+66  -8.15629e+66
  -4.60919e+60  -1.01306e+59   7.76394e+59  -3.29008e+67 -1.37771e+134 -1.02673e+200   3.49319e+67  -3.51877e+67   2.57754e+66  -2.90692e+65  -1.60909e+66  -8.96203e+65  -7.29115e+66
  -4.61373e+60    4.1861e+47   7.95961e+59  -3.33247e+67 -1.38089e+134 -8.63021e+199   3.53359e+67  -3.57467e+67   2.48742e+66  -6.54058e+64  -2.14465e+65   9.24389e+65  -7.10259e+66
  -3.77686e+60    2.4893e+47   2.50107e+59  -2.41153e+67  7.35671e+132  9.55451e+198   2.39623e+67  -2.34248e+67  -5.69236e+65  -1.21228e+65    1.6136e+65   5.38723e+65  -2.92746e+66
  -3.78027e+60   -4.8235e+58   2.38704e+59  -2.31284e+67  -2.7985e+132  9.41549e+198   2.31889e+67  -2.28256e+67  -3.59431e+65   5.66201e+64  -5.25329e+65  -5.73936e+65  -3.01407e+66
  -4.31081e+60  -7.17863e+58   2.91342e+59  -4.53786e+67  2.91818e+134 -4.76057e+200   4.20405e+67  -3.78404e+67  -2.86447e+66  -4.67374e+66  -1.37462e+66  -5.57957e+65  -2.14893e+66
  -4.31039e+60   2.93647e+47   3.03083e+59  -4.65851e+67  3.20559e+134 -5.66229e+200   4.30071e+67  -3.85659e+67  -3.12096e+66  -4.89827e+66   2.00019e+64   5.54702e+65   -1.9206e+66
  -3.96981e+60  -6.27699e+58   7.05444e+59  -1.54807e+67 -1.80517e+134 -3.05867e+200    2.0498e+67  -2.11997e+67   2.30625e+66   3.41281e+66  -1.38075e+65   7.75034e+65  -8.15629e+66
  -3.98142e+60  -1.22009e+59   6.50503e+59  -1.43567e+67 -2.04252e+134  -3.9894e+200   2.02575e+67  -2.04102e+67   2.54519e+66   3.50824e+66    -7.072e+65  -1.06516e+66  -9.38055e+66
  -4.62551e+60  -1.99496e+59   7.19935e+59   -3.2768e+67 -1.44595e+134 -1.33325e+200   3.49047e+67  -3.46734e+67   2.31138e+66  -4.05959e+65  -2.00645e+66  -9.93405e+65  -8.51915e+66
  -4.60919e+60  -1.01306e+59   7.76394e+59  -3.37136e+67 -1.13478e+134 -4.43648e+199   3.53566e+67  -3.53605e+67   2.11034e+66   -4.6349e+65  -6.23612e+65   8.46789e+65  -7.29115e+66
  -3.78027e+60   -4.8235e+58   2.38704e+59  -2.34003e+67  2.49376e+132  9.56965e+198    2.3347e+67  -2.28834e+67  -5.15703e+65  -1.17941e+63   1.37226e+65   4.81101e+65  -3.01407e+66
  -3.79771e+60  -9.54279e+58   2.04969e+59  -2.22557e+67 -1.45315e+133  1.00259e+199   2.25798e+67  -2.20895e+67  -2.72367e+65   1.06127e+65  -4.31899e+65   -5.4538e+65  -4.20604e+66
  -4.33228e+60  -1.40706e+59   2.56168e+59  -4.51601e+67  2.93136e+134 -4.96676e+200   4.17887e+67  -3.73079e+67  -3.08883e+66   -4.7633e+66  -1.76344e+66  -4.77366e+65  -3.34464e+66
  -4.31081e+60  -7.17863e+58   2.91342e+59  -4.61264e+67  3.19676e+134 -5.76689e+200   4.25202e+67  -3.79994e+67  -3.29426e+66   -4.8327e+66    -3.806e+65   5.49116e+65  -2.14893e+66
  -5.78422e+59  -1.38162e+59   8.50346e+59   3.94771e+67  3.30405e+134  3.10669e+200   3.50433e+67    1.5521e+67   1.09564e+66   2.28604e+67    4.0587e+65   1.81688e+65   -8.1404e+66
  -6.24159e+59  -6.09346e+58   8.75934e+59   3.41237e+67  2.18708e+134 -5.47599e+199   3.07525e+67   1.31342e+67  -4.24838e+64   2.10319e+67   1.60548e+66  -5.52191e+65  -7.29358e+66
  -1.15758e+60  -4.70339e+58   1.02174e+60   3.16194e+67  2.20268e+134  1.35393e+200   2.79199e+67    1.0227e+67    8.9288e+65   2.04995e+67   1.40346e+66  -2.06999e+65  -3.84757e+66
  -1.11665e+60  -1.08728e+59   1.00346e+60   3.64844e+67  3.24899e+134   4.9161e+200   3.17209e+67    1.2333e+67   1.92716e+66   2.22242e+67   3.13391e+65    5.2688e+65  -3.92619e+66
  -6.53862e+59  -1.01016e+59    4.8442e+59   2.28312e+67  8.19013e+133 -7.52062e+198    2.0961e+67   1.19821e+67   -4.4013e+64   1.08931e+67  -2.18451e+65   6.66984e+65  -6.86455e+66
  -6.86385e+59    -4.918e+58   4.96889e+59   2.17197e+67  7.63299e+133 -3.50005e+199    1.9885e+67   1.04971e+67   -2.8033e+65   1.15028e+67   9.81163e+65   4.26494e+64  -6.10618e+66
  -1.19468e+60   -3.5808e+58   5.69758e+59   1.86106e+67  7.85465e+133  1.52033e+199   1.63648e+67   7.46136e+66   3.07348e+65   1.08419e+67   8.67595e+65  -3.80365e+65  -2.66017e+66
  -1.16509e+60   -7.4429e+58   5.48335e+59   1.92337e+67  8.89002e+133  3.47835e+199   1.67641e+67   8.66556e+66   4.39825e+65   1.01283e+67  -2.22474e+65    2.4397e+65  -2.65033e+66
  -6.24159e+59  -6.09346e+58   8.75934e+59   3.83741e+67  3.40211e+134  5.89951e+200   3.36506e+67   1.40379e+67   2.40067e+66   2.19356e+67   6.02767e+65   7.19987e+65  -7.29358e+66
  -6.48672e+59   1.44321e+47   8.74595e+59   3.82379e+67  3.21958e+134  5.33044e+200   3.37665e+67   1.28837e+67   2.37172e+66   2.29825e+67    1.1581e+66   6.32613e+64  -7.60664e+66
  -1.18319e+60   2.05152e+47   1.03179e+60   3.47254e+67  2.90387e+134  5.53341e+200   3.02566e+67   9.55122e+66   2.93841e+66   2.22357e+67   1.20973e+66  -4.74682e+65  -3.70211e+66
  -1.15758e+60  -4.70339e+58   1.02174e+60   3.54438e+67  3.20002e+134  6.70413e+200   3.05984e+67   1.10401e+67   3.09116e+66   2.13126e+67   6.79374e+65   1.82044e+65  -3.84757e+66
  -6.86385e+59    -4.918e+58   4.96889e+59   2.24126e+67   8.9164e+133  7.99621e+198   2.03263e+67   1.06445e+67   1.17945e+65   1.16501e+67     4.016e+64   4.33575e+65  -6.10618e+66
  -6.98989e+59   9.41023e+46   5.01084e+59   1.97446e+67  5.13069e+133 -3.01511e+199   1.83995e+67   8.95203e+66  -4.49264e+65   1.12418e+67   5.95496e+65   -1.9817e+65  -6.31378e+66
  -1.20614e+60   1.38126e+47   5.75634e+59   1.60941e+67  5.29433e+133 -7.66776e+197   1.43554e+67   5.59024e+66   3.81425e+64   1.04657e+67   5.41669e+65    -2.776e+65  -2.40926e+66
  -1.19468e+60   -3.5808e+58   5.69758e+59   1.93444e+67  9.01458e+133   5.4946e+199    1.6854e+67   7.61736e+66   7.29145e+65   1.09979e+67   1.13128e+64   3.54146e+65  -2.66017e+66
  -6.48672e+59   1.44321e+47   8.74595e+59   3.82379e+67  3.21958e+134  5.33044e+200   3.37665e+67   1.28837e+67   2.37172e+66   2.29825e+67   -1.1581e+66  -6.32613e+64  -7.60664e+66
  -6.24159e+59   6.09346e+58   8.75934e+59   3.83741e+67  3.40211e+134  5.89951e+200   3.36506e+67   1.40379e+67   2.40067e+66   2.19356e+67  -6.02767e+65  -7.19987e+65  -7.29358e+66
  -1.15758e+60   4.70339e+58   1.02174e+60   3.54438e+67  3.20002e+134  6.70413e+200   3.05984e+67   1.10401e+67   3.09116e+66   2.13126e+67  -6.79374e+65  -1.82044e+65  -3.84757e+66
  -1.18319e+60   2.05152e+47   1.03179e+60   3.47254e+67  2.90387e+134  5.53341e+200   3.02566e+67   9.55122e+66   2.93841e+66   2.22357e+67  -1.20973e+66   4.74682e+65  -3.70211e+66
  -6.98989e+59   9.41023e+46   5.01084e+59   1.97446e+67  5.13069e+133 -3.01511e+199   1.83995e+67   8.95203e+66  -4.49264e+65   1.12418e+67  -5.95496e+65    1.9817e+65  -6.31378e+66
  -6.86385e+59     4.918e+58   4.96889e+59   2.24126e+67   8.9164e+133  7.99621e+198   2.03263e+67   1.06445e+67   1.17945e+65   1.16501e+67    -4.016e+64  -4.33575e+65  -6.10618e+66
  -1.19468e+60    3.5808e+58   5.69758e+59   1.93444e+67  9.01458e+133   5.4946e+199    1.6854e+67   7.61736e+66   7.29145e+65   1.09979e+67  -1.13128e+64  -3.54146e+65  -2.66017e+66
  -1.20614e+60   1.38126e+47   5.75634e+59   1.60941e+67  5.29433e+133 -7.66776e+197   1.43554e+67   5.59024e+66   3.81425e+64   1.04657e+67  -5.41669e+65     2.776e+65  -2.40926e+66
  -6.24159e+59   6.09346e+58   8.75934e+59   3.41237e+67  2.18708e+134 -5.47599e+199   3.07525e+67   1.31342e+67  -4.24838e+64   2.10319e+67  -1.60548e+66   5.52191e+65  -7.29358e+66
  -5.78422e+59   1.38162e+59   8.50346e+59   3.94771e+67  3.30405e+134  3.10669e+200   3.50433e+67    1.5521e+67   1.09564e+66   2.28604e+67   -4.0587e+65  -1.81688e+65   -8.1404e+66
  -1.11665e+60   1.08728e+59   1.00346e+60   3.64844e+67  3.24899e+134   4.9161e+200   3.17209e+67    1.2333e+67   1.92716e+66   2.22242e+67  -3.13391e+65   -5.2688e+65  -3.92619e+66
  -1.15758e+60   4.70339e+58   1.02174e+60   3.16194e+67  2.20268e+134  1.35393e+200   2.79199e+67    1.0227e+67    8.9288e+65   2.04995e+67  -1.40346e+66   2.06999e+65  -3.84757e+66
  -6.86385e+59     4.918e+58   4.96889e+59   2.17197e+67  7.63299e+133 -3.50005e+199    1.9885e+67   1.04971e+67   -2.8033e+65   1.15028e+67  -9.81163e+65  -4.26494e+64  -6.10618e+66
  -6.53862e+59   1.01016e+59    4.8442e+59   2.28312e+67  8.19013e+133 -7.52062e+198    2.0961e+67   1.19821e+67   -4.4013e+64   1.08931e+67   2.18451e+65  -6.66984e+65  -6.86455e+66
  -1.16509e+60    7.4429e+58   5.48335e+59   1.92337e+67  8.89002e+133  3.47835e+199   1.67641e+67   8.66556e+66   4.39825e+65   1.01283e+67   2.22474e+65   -2.4397e+65  -2.65033e+66
  -1.19468e+60    3.5808e+58   5.69758e+59   1.86106e+67  7.85465e+133  1.52033e+199   1.63648e+67   7.46136e+66   3.07348e+65   1.08419e+67  -8.67595e+65   3.80365e+65  -2.66017e+66
  -1.11665e+60  -1.08728e+59   1.00346e+60   2.63325e+67  9.07742e+133 -3.35856e+199   2.45485e+67   1.01748e+67  -2.31108e+65   1.63889e+67   3.13391e+65   7.39971e+65  -8.31829e+66
  -1.15758e+60  -4.70339e+58   1.02174e+60   2.75147e+67  9.59438e+133 -2.78847e+199   2.57122e+67   9.35437e+66   2.02185e+64   1.81401e+67   1.40346e+66  -2.76175e+65  -8.50032e+66
  -1.78949e+60  -3.45974e+58   1.15182e+60   2.62017e+67  1.34538e+134   1.4363e+200   2.34945e+67   6.56737e+66   1.77337e+66    1.7861e+67   1.26203e+66  -1.02613e+66  -4.84115e+66
  -1.74785e+60  -7.47831e+58   1.11766e+60   2.65035e+67  1.53517e+134  1.96262e+200    2.3429e+67   8.24076e+66   1.83753e+66   1.64252e+67   4.21246e+65  -9.98656e+63  -5.19483e+66
  -1.16509e+60   -7.4429e+58   5.48335e+59   1.51047e+67 -5.06157e+131 -3.67931e+198   1.51214e+67   7.78774e+66  -4.38001e+65   7.75492e+66  -2.22474e+65   5.17375e+65  -7.33311e+66
  -1.19468e+60   -3.5808e+58   5.69758e+59   1.33288e+67 -1.53833e+133 -6.59598e+197   1.38939e+67   6.33846e+66  -8.15547e+65   7.80587e+66   8.67595e+65   -2.4949e+65  -7.24639e+66
  -1.80004e+60  -1.96659e+58   6.22381e+59   1.06393e+67  1.18185e+133  8.74994e+197   1.00686e+67   3.25883e+66   1.46411e+65    7.2341e+66   4.57419e+65  -4.63741e+65  -3.58722e+66
  -1.77543e+60  -4.20549e+58   5.96423e+59   1.38992e+67  3.47036e+133  1.94948e+199    1.2589e+67   5.56109e+66   8.39446e+65   7.49863e+66  -3.83369e+65   3.03124e+65  -4.20965e+66
  -1.15758e+60  -4.70339e+58   1.02174e+60   3.13391e+67  1.84579e+134  2.57036e+200   2.82411e+67   1.01674e+67    2.2185e+66   1.89532e+67   6.79374e+65   1.12869e+65  -8.50032e+66
  -1.18319e+60   2.05152e+47   1.03179e+60   2.80702e+67  1.26326e+134    1.137e+200   2.57218e+67   8.13635e+66   1.52354e+66   1.84103e+67   1.20973e+66  -4.74682e+65  -7.88815e+66
  -1.80631e+60   2.70748e+47   1.16348e+60   2.63708e+67  1.44687e+134  1.99629e+200   2.34677e+67   5.98441e+66   2.33734e+66    1.8049e+67   7.94641e+65   -5.5074e+65   -4.3087e+66
  -1.78949e+60  -3.45974e+58   1.15182e+60   2.76595e+67   1.6693e+134  2.64942e+200   2.44565e+67    6.8773e+66   2.61133e+66   1.81709e+67   8.92151e+64   3.68099e+64  -4.84115e+66
  -1.19468e+60   -3.5808e+58   5.69758e+59   1.40626e+67 -6.72958e+132 -1.29254e+198   1.42999e+67   6.49447e+66   -3.9375e+65   7.96188e+66   1.13128e+64   4.85021e+65  -7.24639e+66
  -1.20614e+60   1.38126e+47   5.75634e+59   1.12339e+67 -2.64782e+133  1.33711e+199   1.23563e+67   4.55697e+66  -9.95123e+65   7.67207e+66   5.41669e+65    -2.776e+65  -6.99283e+66
  -1.81031e+60   1.87645e+47   6.31554e+59   1.05012e+67  1.13381e+133  2.15942e+198   9.94669e+66   2.61055e+66   3.74338e+65   7.51629e+66   4.85188e+65   -4.3338e+65  -3.41338e+66
  -1.80004e+60  -1.96659e+58   6.22381e+59   1.13497e+67  1.81455e+133  6.62344e+198     1.052e+67   3.40985e+66   5.54737e+65   7.38513e+66  -2.20238e+65   3.29241e+65  -3.58722e+66
  -1.18319e+60   2.05152e+47   1.03179e+60   2.80702e+67  1.26326e+134    1.137e+200   2.57218e+67   8.13635e+66   1.52354e+66   1.84103e+67  -1.20973e+66   4.74682e+65  -7.88815e+66
  -1.15758e+60   4.70339e+58   1.02174e+60   3.13391e+67  1.84579e+134  2.57036e+200   2.82411e+67   1.01674e+67    2.2185e+66   1.89532e+67  -6.79374e+65  -1.12869e+65  -8.50032e+66
  -1.78949e+60   3.45974e+58   1.15182e+60   2.76595e+67   1.6693e+134  2.64942e+200   2.44565e+67    6.8773e+66   2.61133e+66   1.81709e+67  -8.92151e+64  -3.68099e+64  -4.84115e+66
  -1.80631e+60   2.70748e+47   1.16348e+60   2.63708e+67  1.44687e+134  1.99629e+200   2.34677e+67   5.98441e+66   2.33734e+66    1.8049e+67  -7.94641e+65    5.5074e+65   -4.3087e+66
  -1.20614e+60   1.38126e+47   5.75634e+59   1.12339e+67 -2.64782e+133  1.33711e+199   1.23563e+67   4.55697e+66  -9.95123e+65   7.67207e+66  -5.41669e+65     2.776e+65  -6.99283e+66
  -1.19468e+60    3.5808e+58   5.69758e+59   1.40626e+67 -6.72958e+132 -1.29254e+198   1.42999e+67   6.49447e+66   -3.9375e+65   7.96188e+66  -1.13128e+64  -4.85021e+65  -7.24639e+66
  -1.80004e+60   1.96659e+58   6.22381e+59   1.13497e+67  1.81455e+133  6.62344e+198     1.052e+67   3.40985e+66   5.54737e+65   7.38513e+66   2.20238e+65  -3.29241e+65  -3.58722e+66
  -1.81031e+60   1.87645e+47   6.31554e+59   1.05012e+67  1.13381e+133  2.15942e+198   9.94669e+66   2.61055e+66   3.74338e+65   7.51629e+66  -4.85188e+65    4.3338e+65  -3.41338e+66
  -1.15758e+60   4.70339e+58   1.02174e+60   2.75147e+67  9.59438e+133 -2.78847e+199   2.57122e+67   9.35437e+66   2.02185e+64   1.81401e+67  -1.40346e+66   2.76175e+65  -8.50032e+66
  -1.11665e+60   1.08728e+59   1.00346e+60   2.63325e+67  9.07742e+133 -3.35856e+199   2.45485e+67   1.01748e+67  -2.31108e+65   1.63889e+67  -3.13391e+65  -7.39971e+65  -8.31829e+66
  -1.74785e+60   7.47831e+58   1.11766e+60   2.65035e+67  1.53517e+134  1.96262e+200    2.3429e+67   8.24076e+66   1.83753e+66   1.64252e+67  -4.21246e+65   9.98656e+63  -5.19483e+66
  -1.78949e+60   3.45974e+58   1.15182e+60   2.62017e+67  1.34538e+134   1.4363e+200   2.34945e+67   6.56737e+66   1.77337e+66    1.7861e+67  -1.26203e+66   1.02613e+66  -4.84115e+66
  -1.19468e+60    3.5808e+58   5.69758e+59   1.33288e+67 -1.53833e+133 -6.59598e+197   1.38939e+67   6.33846e+66  -8.15547e+65   7.80587e+66  -8.67595e+65    2.4949e+65  -7.24639e+66
  -1.16509e+60    7.4429e+58   5.48335e+59   1.51047e+67 -5.06157e+131 -3.67931e+198   1.51214e+67   7.78774e+66  -4.38001e+65   7.75492e+66   2.22474e+65  -5.17375e+65  -7.33311e+66
  -1.77543e+60   4.20549e+58   5.96423e+59   1.38992e+67  3.47036e+133  1.94948e+199    1.2589e+67   5.56109e+66   8.39446e+65   7.49863e+66   3.83369e+65  -3.03124e+65  -4.20965e+66
  -1.80004e+60   1.96659e+58   6.22381e+59   1.06393e+67  1.18185e+133  8.74994e+197   1.00686e+67   3.25883e+66   1.46411e+65    7.2341e+66  -4.57419e+65   4.63741e+65  -3.58722e+66
  -1.74785e+60  -7.47831e+58   1.11766e+60   1.66465e+67 -2.15999e+133 -3.58225e+198   1.72831e+67   6.14516e+66   -2.5806e+65   1.07594e+67   4.21246e+65   5.44556e+65  -9.10393e+66
  -1.78949e+60  -3.45974e+58   1.15182e+60   1.39542e+67  -4.0086e+133   1.4783e+199   1.53233e+67   3.96355e+66  -8.30442e+65    1.0821e+67   1.26203e+66  -5.61776e+65  -8.29395e+66
  -2.49449e+60  -1.23321e+58   1.23494e+60   1.42481e+67  3.57098e+132  -2.0678e+199   1.41223e+67   1.91987e+66   1.44472e+66   1.08835e+67   9.48124e+65  -8.78806e+65  -5.84382e+66
  -2.46179e+60  -2.91004e+58   1.19408e+60   1.64934e+67  2.68487e+133   -3.546e+198   1.56584e+67   3.84453e+66   1.92206e+66   1.07268e+67   2.40364e+65   2.27526e+65  -6.50295e+66
  -1.77543e+60  -4.20549e+58   5.96423e+59   6.92717e+66 -5.47684e+133  3.34378e+199   1.01368e+67   4.07886e+66  -6.42792e+65    3.4911e+66  -3.83369e+65   6.90102e+65  -7.96988e+66
  -1.80004e+60  -1.96659e+58   6.22381e+59   5.06774e+66 -5.06954e+133  4.66126e+199   8.73942e+66   2.07432e+66   -1.0381e+66   4.03153e+66   4.57419e+65  -2.83201e+65  -7.24086e+66
  -2.48275e+60   2.97673e+56   6.53645e+59   4.62718e+66 -2.09534e+133 -1.76165e+199   6.50878e+66  -1.25527e+65    8.1484e+65   3.93787e+66   2.24469e+65  -7.51069e+65  -4.79073e+66
  -2.46537e+60  -1.48975e+57   6.17784e+59   6.03957e+66 -1.82601e+133 -2.58681e+199   7.39841e+66   1.62205e+66   1.11511e+66    3.3024e+66  -4.83291e+65   2.22234e+65   -5.3689e+66
  -1.78949e+60  -3.45974e+58   1.15182e+60    1.5412e+67 -2.13651e+133 -2.06302e+198   1.60902e+67   4.27348e+66   7.51075e+63    1.1131e+67   8.92151e+64   5.01166e+65  -8.29395e+66
  -1.80631e+60   2.70748e+47   1.16348e+60   1.41773e+67 -3.12849e+133  5.80906e+198   1.52407e+67   3.39208e+66  -2.54986e+65   1.10402e+67   7.94641e+65   -5.5074e+65  -8.00745e+66
  -2.50773e+60   3.40078e+47   1.24842e+60   1.42547e+67  5.75229e+132 -3.13018e+199   1.40515e+67   1.33277e+66   1.86529e+66   1.10566e+67   6.25497e+65  -6.36585e+65  -5.59436e+66
  -2.49449e+60  -1.23321e+58   1.23494e+60   1.54054e+67  1.78348e+133  -2.1716e+199   1.48153e+67   2.16591e+66   2.10994e+66   1.11296e+67   2.88166e+64   4.15322e+65  -5.84382e+66
  -1.80004e+60  -1.96659e+58   6.22381e+59   5.77812e+66 -4.74664e+133  2.80023e+199   8.99183e+66   2.22534e+66  -6.29777e+65   4.18255e+66  -2.20238e+65   5.09781e+65  -7.24086e+66
  -1.81031e+60   1.87645e+47   6.31554e+59   4.74801e+66 -4.79083e+133  3.79516e+199   8.39356e+66   1.38744e+66  -8.48776e+65   4.20935e+66   4.85188e+65   -4.3338e+65  -6.96956e+66
  -2.48976e+60   2.41669e+47    6.6542e+59   4.22497e+66 -2.14016e+133 -2.07907e+199   6.26514e+66  -7.99533e+65   9.26348e+65   4.09815e+66   3.31249e+65  -5.56278e+65  -4.55648e+66
  -2.48275e+60   2.97673e+56   6.53645e+59   5.17112e+66 -1.86521e+133 -2.52226e+199    6.7374e+66  -9.88676e+63    1.1275e+66   4.05351e+66  -2.65432e+65   3.86883e+65  -4.79073e+66
  -1.80631e+60   2.70748e+47   1.16348e+60   1.41773e+67 -3.12849e+133  5.80906e+198   1.52407e+67   3.39208e+66  -2.54986e+65   1.10402e+67  -7.94641e+65    5.5074e+65  -8.00745e+66
  -1.78949e+60   3.45974e+58   1.15182e+60    1.5412e+67 -2.13651e+133 -2.06302e+198   1.60902e+67   4.27348e+66   7.51075e+63    1.1131e+67  -8.92151e+64  -5.01166e+65  -8.29395e+66
  -2.49449e+60   1.23321e+58   1.23494e+60   1.54054e+67  1.78348e+133  -2.1716e+199   1.48153e+67   2.16591e+66   2.10994e+66   1.11296e+67  -2.88166e+64  -4.15322e+65  -5.84382e+66
  -2.50773e+60   3.40078e+47   1.24842e+60   1.42547e+67  5.75229e+132 -3.13018e+199   1.40515e+67   1.33277e+66   1.86529e+66   1.10566e+67  -6.25497e+65   6.36585e+65  -5.59436e+66
  -1.81031e+60   1.87645e+47   6.31554e+59   4.74801e+66 -4.79083e+133  3.79516e+199   8.39356e+66   1.38744e+66  -8.48776e+65   4.20935e+66  -4.85188e+65    4.3338e+65  -6.96956e+66
  -1.80004e+60   1.96659e+58   6.22381e+59   5.77812e+66 -4.74664e+133  2.80023e+199   8.99183e+66   2.22534e+66  -6.29777e+65   4.18255e+66   2.20238e+65  -5.09781e+65  -7.24086e+66
  -2.48275e+60  -2.97673e+56   6.53645e+59   5.17112e+66 -1.86521e+133 -2.52226e+199    6.7374e+66  -9.88676e+63    1.1275e+66   4.05351e+66   2.65432e+65  -3.86883e+65  -4.79073e+66
  -2.48976e+60   2.41669e+47    6.6542e+59   4.22497e+66 -2.14016e+133 -2.07907e+199   6.26514e+66  -7.99533e+65   9.26348e+65   4.09815e+66  -3.31249e+65   5.56278e+65  -4.55648e+66
  -1.78949e+60   3.45974e+58   1.15182e+60   1.39542e+67  -4.0086e+133   1.4783e+199   1.53233e+67   3.96355e+66  -8.30442e+65    1.0821e+67  -1.26203e+66   5.61776e+65  -8.29395e+66
  -1.74785e+60   7.47831e+58   1.11766e+60   1.66465e+67 -2.15999e+133 -3.58225e+198   1.72831e+67   6.14516e+66   -2.5806e+65   1.07594e+67  -4.21246e+65  -5.44556e+65  -9.10393e+66
  -2.46179e+60   2.91004e+58   1.19408e+60   1.64934e+67  2.68487e+133   -3.546e+198   1.56584e+67   3.84453e+66   1.92206e+66   1.07268e+67  -2.40364e+65  -2.27526e+65  -6.50295e+66
  -2.49449e+60   1.23321e+58   1.23494e+60   1.42481e+67  3.57098e+132  -2.0678e+199   1.41223e+67   1.91987e+66   1.44472e+66   1.08835e+67  -9.48124e+65   8.78806e+65  -5.84382e+66
  -1.80004e+60   1.96659e+58   6.22381e+59   5.06774e+66 -5.06954e+133  4.66126e+199   8.73942e+66   2.07432e+66   -1.0381e+66   4.03153e+66  -4.57419e+65   2.83201e+65  -7.24086e+66
  -1.77543e+60   4.20549e+58   5.96423e+59   6.92717e+66 -5.47684e+133  3.34378e+199   1.01368e+67   4.07886e+66  -6.42792e+65    3.4911e+66   3.83369e+65  -6.90102e+65  -7.96988e+66
  -2.46537e+60   1.48975e+57   6.17784e+59   6.03957e+66 -1.82601e+133 -2.58681e+199   7.39841e+66   1.62205e+66   1.11511e+66    3.3024e+66   4.83291e+65  -2.22234e+65   -5.3689e+66
  -2.48275e+60  -2.97673e+56   6.53645e+59   4.62718e+66 -2.09534e+133 -1.76165e+199   6.50878e+66  -1.25527e+65    8.1484e+65   3.93787e+66  -2.24469e+65   7.51069e+65  -4.79073e+66
  -2.46179e+60  -2.91004e+58   1.19408e+60  -2.17747e+65  -1.3428e+134  2.04884e+200     1.159e+67   2.91759e+65   -1.6307e+66    1.1212e+66   2.40364e+65   1.27888e+66  -1.14285e+67
  -2.49449e+60  -1.23321e+58   1.23494e+60   1.02184e+66 -1.20673e+134  1.61443e+200   1.10326e+67  -8.92017e+65  -1.36717e+66   3.28102e+66   9.48124e+65  -2.54288e+65  -1.06544e+67
  -3.30131e+60   2.31523e+58   1.26737e+60  -7.68213e+66 -1.13302e+134  4.83417e+199   1.31269e+67  -8.96142e+66  -1.51282e+65   1.43057e+66   8.05116e+65  -1.20244e+66  -9.97631e+66
  -3.27999e+60    3.8836e+58   1.20643e+60  -8.87953e+66 -1.18828e+134  4.78961e+199   1.40597e+67   -7.7534e+66  -4.05849e+65  -7.20286e+65   3.43442e+65   3.30733e+65  -1.12971e+67
  -2.46537e+60  -1.48975e+57   6.17784e+59    2.9649e+66 -6.76895e+133 -2.53664e+199   8.74529e+66   9.68386e+65   4.61443e+65   1.53507e+66  -4.83291e+65   8.74729e+65  -8.32662e+66
  -2.48275e+60   2.97673e+56   6.53645e+59    1.1856e+66 -5.87346e+133 -3.43034e+198   7.75502e+66    -8.572e+65   8.31671e+64   1.95964e+66   2.24469e+65  -4.12353e+65  -7.54494e+66
  -3.22375e+60   2.74307e+58   6.71717e+59  -8.87718e+66 -5.10318e+133 -1.66389e+199   1.13946e+67  -9.21549e+66   5.17999e+65  -1.79695e+65   7.38215e+64  -8.13773e+65  -6.86684e+66
  -3.21791e+60   5.28866e+58   6.27359e+59   -7.0557e+66 -7.03583e+133 -5.20802e+199   1.09609e+67  -7.36566e+66   9.05243e+65  -5.95291e+65  -3.87852e+65    4.7331e+65  -8.19524e+66
  -2.49449e+60  -1.23321e+58   1.23494e+60   2.17913e+66 -1.18899e+134  8.13398e+199   1.11197e+67  -6.45979e+65  -7.01955e+65   3.52706e+66   2.88166e+64   1.03984e+66  -1.06544e+67
  -2.50773e+60   3.40078e+47   1.24842e+60   1.38309e+66 -1.18167e+134  1.08041e+200   1.09581e+67  -1.40371e+66  -8.71192e+65   3.65799e+66   6.25497e+65  -6.36585e+65   -1.0501e+67
    -3.313e+60   4.12755e+47   1.28402e+60   -7.2543e+66 -1.20028e+134 -5.95861e+199   1.31397e+67  -9.72136e+66   6.45363e+65    1.8217e+66   5.52414e+65  -7.86668e+65  -9.81306e+66
  -3.30131e+60   2.31523e+58   1.26737e+60  -5.73381e+66 -1.22701e+134 -1.11354e+200   1.24731e+67  -8.54721e+66   9.68616e+65   1.84478e+66   3.50281e+65   8.89757e+65  -9.97631e+66
  -2.48275e+60   2.97673e+56   6.53645e+59   1.72954e+66 -5.85341e+133 -1.99914e+199   7.84381e+66   -7.4156e+65   3.95825e+65   2.07528e+66  -2.65432e+65   7.25599e+65  -7.54494e+66
  -2.48976e+60   2.41669e+47    6.6542e+59   8.79051e+65 -5.62751e+133 -9.13579e+198     7.553e+66  -1.51087e+66   2.15011e+65   2.17491e+66   3.31249e+65  -5.56278e+65  -7.26035e+66
  -3.22644e+60   2.99208e+47    6.8646e+59  -9.93692e+66 -4.74083e+133 -1.39329e+199   1.20893e+67  -1.02917e+67   4.79307e+65  -1.24549e+65   1.26968e+65    -6.965e+65  -6.57239e+66
  -3.22375e+60   2.74307e+58   6.71717e+59  -8.36199e+66 -5.43335e+133 -3.41442e+199    1.1147e+67  -9.10596e+66   8.14136e+65   -7.0165e+64  -7.51644e+64   5.85377e+65  -6.86684e+66
  -2.50773e+60   3.40078e+47   1.24842e+60   1.38309e+66 -1.18167e+134  1.08041e+200   1.09581e+67  -1.40371e+66  -8.71192e+65   3.65799e+66  -6.25497e+65   6.36585e+65   -1.0501e+67
  -2.49449e+60   1.23321e+58   1.23494e+60   2.17913e+66 -1.18899e+134  8.13398e+199   1.11197e+67  -6.45979e+65  -7.01955e+65   3.52706e+66  -2.88166e+64  -1.03984e+66  -1.06544e+67
  -3.30131e+60  -2.31523e+58   1.26737e+60  -5.73381e+66 -1.22701e+134 -1.11354e+200   1.24731e+67  -8.54721e+66   9.68616e+65   1.84478e+66  -3.50281e+65  -8.89757e+65  -9.97631e+66
    -3.313e+60   4.12755e+47   1.28402e+60   -7.2543e+66 -1.20028e+134 -5.95861e+199   1.31397e+67  -9.72136e+66   6.45363e+65    1.8217e+66  -5.52414e+65   7.86668e+65  -9.81306e+66
  -2.48976e+60   2.41669e+47    6.6542e+59   8.79051e+65 -5.62751e+133 -9.13579e+198     7.553e+66  -1.51087e+66   2.15011e+65   2.17491e+66  -3.31249e+65   5.56278e+65  -7.26035e+66
  -2.48275e+60  -2.97673e+56   6.53645e+59   1.72954e+66 -5.85341e+133 -1.99914e+199   7.84381e+66   -7.4156e+65   3.95825e+65   2.07528e+66   2.65432e+65  -7.25599e+65  -7.54494e+66
  -3.22375e+60  -2.74307e+58   6.71717e+59  -8.36199e+66 -5.43335e+133 -3.41442e+199    1.1147e+67  -9.10596e+66   8.14136e+65   -7.0165e+64   7.51644e+64  -5.85377e+65  -6.86684e+66
  -3.22644e+60   2.99208e+47    6.8646e+59  -9.93692e+66 -4.74083e+133 -1.39329e+199   1.20893e+67  -1.02917e+67   4.79307e+65  -1.24549e+65  -1.26968e+65     6.965e+65  -6.57239e+66
  -2.49449e+60   1.23321e+58   1.23494e+60   1.02184e+66 -1.20673e+134  1.61443e+200   1.10326e+67  -8.92017e+65  -1.36717e+66   3.28102e+66  -9.48124e+65   2.54288e+65  -1.06544e+67
  -2.46179e+60   2.91004e+58   1.19408e+60  -2.17747e+65  -1.3428e+134  2.04884e+200     1.159e+67   2.91759e+65   -1.6307e+66    1.1212e+66  -2.40364e+65  -1.27888e+66  -1.14285e+67
  -3.27999e+60   -3.8836e+58   1.20643e+60  -8.87953e+66 -1.18828e+134  4.78961e+199   1.40597e+67   -7.7534e+66  -4.05849e+65  -7.20286e+65  -3.43442e+65  -3.30733e+65  -1.12971e+67
  -3.30131e+60  -2.31523e+58   1.26737e+60  -7.68213e+66 -1.13302e+134  4.83417e+199   1.31269e+67  -8.96142e+66  -1.51282e+65   1.43057e+66  -8.05116e+65   1.20244e+66  -9.97631e+66
  -2.48275e+60  -2.97673e+56   6.53645e+59    1.1856e+66 -5.87346e+133 -3.43034e+198   7.75502e+66    -8.572e+65   8.31671e+64   1.95964e+66  -2.24469e+65   4.12353e+65  -7.54494e+66
  -2.46537e+60   1.48975e+57   6.17784e+59    2.9649e+66 -6.76895e+133 -2.53664e+199   8.74529e+66   9.68386e+65   4.61443e+65   1.53507e+66   4.83291e+65  -8.74729e+65  -8.32662e+66
  -3.21791e+60  -5.28866e+58   6.27359e+59   -7.0557e+66 -7.03583e+133 -5.20802e+199   1.09609e+67  -7.36566e+66   9.05243e+65  -5.95291e+65   3.87852e+65   -4.7331e+65  -8.19524e+66
  -3.22375e+60  -2.74307e+58   6.71717e+59  -8.87718e+66 -5.10318e+133 -1.66389e+199   1.13946e+67  -9.21549e+66   5.17999e+65  -1.79695e+65  -7.38215e+64   8.13773e+65  -6.86684e+66
  -3.27999e+60    3.8836e+58   1.20643e+60  -6.75316e+66 -2.50074e+134 -6.51698e+198   1.71953e+67  -7.30134e+66   4.62151e+64    5.0196e+65   3.43442e+65   1.83323e+66  -1.55761e+67
  -3.30131e+60   2.31523e+58   1.26737e+60  -8.98259e+66 -2.10414e+134  1.10157e+200   1.70617e+67   -9.2379e+66  -4.27758e+65   6.83066e+65   8.05116e+65  -6.65448e+65  -1.43761e+67
  -4.20125e+60   7.00028e+58   1.29481e+60  -3.53305e+67 -3.72567e+133  1.33462e+200   3.58539e+67  -2.93801e+67  -1.03193e+66  -4.91846e+66   9.32137e+65  -9.92988e+65  -1.46731e+67
  -4.18875e+60   1.38575e+59   1.22694e+60  -3.08496e+67 -1.27391e+134  1.30412e+199   3.28495e+67  -2.61494e+67  -7.92957e+64  -4.62091e+66   1.37307e+66   1.50569e+66  -1.57007e+67
  -3.21791e+60   5.28866e+58   6.27359e+59  -3.51603e+66 -9.55404e+133 -1.24903e+200   1.03876e+67  -6.61313e+66   1.65777e+66   1.43933e+66  -3.87852e+65   1.16999e+66  -8.71353e+66
  -3.22375e+60   2.74307e+58   6.71717e+59   -4.7933e+66 -7.73396e+133 -9.31256e+199   1.00158e+67  -8.34726e+66   1.38623e+66   2.16773e+66   7.38215e+64  -4.26081e+65  -7.10576e+66
  -3.96981e+60   6.27699e+58   7.05444e+59  -3.61252e+67  1.47975e+134 -1.39704e+200   3.40155e+67  -2.95491e+67  -2.08274e+66  -4.49338e+66  -2.06904e+65  -9.26057e+65  -7.40277e+66
  -3.98142e+60   1.22009e+59   6.50503e+59  -3.25964e+67  8.88357e+133 -5.41403e+199    3.1204e+67  -2.65208e+67  -1.33253e+66  -4.74312e+66   2.34029e+65   6.70014e+65  -8.83811e+66
  -3.30131e+60   2.31523e+58   1.26737e+60  -7.03427e+66  -2.2386e+134  -1.4629e+200    1.6533e+67  -8.82369e+66    6.9214e+65   1.09727e+66   3.50281e+65   1.42674e+66  -1.43761e+67
    -3.313e+60   4.12755e+47   1.28402e+60   -7.4093e+66 -2.18067e+134 -1.12318e+200   1.65217e+67  -9.75431e+66   6.12411e+65    1.7326e+66   5.52414e+65  -7.86668e+65  -1.39761e+67
  -4.20639e+60   4.88717e+47   1.31903e+60  -3.41384e+67 -5.87192e+133  9.74327e+199   3.49878e+67  -2.95451e+67  -6.43323e+65  -3.94995e+66   2.42544e+65   -1.1442e+66  -1.39857e+67
  -4.20125e+60   7.00028e+58   1.29481e+60  -3.49574e+67 -4.70871e+133  7.69072e+199   3.56245e+67  -2.93008e+67  -8.17445e+65  -4.83913e+66   5.84254e+65   1.06921e+66  -1.46731e+67
  -3.22375e+60   2.74307e+58   6.71717e+59  -4.27811e+66 -8.02314e+133 -1.07679e+200   9.92641e+66  -8.23773e+66   1.68236e+66   2.27726e+66  -7.51644e+64   9.73069e+65  -7.10576e+66
  -3.22644e+60   2.99208e+47    6.8646e+59  -6.23975e+66 -7.69281e+133 -7.88852e+199   1.07639e+67  -9.50566e+66   1.26532e+66    2.0006e+66   1.26968e+65    -6.965e+65  -6.92196e+66
  -3.97051e+60   3.58869e+47   7.21672e+59  -3.59718e+67  1.39493e+134 -1.21568e+200   3.39776e+67  -2.99349e+67  -1.71652e+66  -4.32038e+66   3.33417e+64  -7.66688e+65  -6.93164e+66
  -3.96981e+60   6.27699e+58   7.05444e+59  -3.52042e+67  1.22662e+134 -9.13055e+199   3.34166e+67  -2.93533e+67  -1.55333e+66  -4.29757e+66   3.75051e+65   9.02881e+65  -7.40277e+66
    -3.313e+60   4.12755e+47   1.28402e+60   -7.4093e+66 -2.18067e+134 -1.12318e+200   1.65217e+67  -9.75431e+66   6.12411e+65    1.7326e+66  -5.52414e+65   7.86668e+65  -1.39761e+67
  -3.30131e+60  -2.31523e+58   1.26737e+60  -7.03427e+66  -2.2386e+134  -1.4629e+200    1.6533e+67  -8.82369e+66    6.9214e+65   1.09727e+66  -3.50281e+65  -1.42674e+66  -1.43761e+67
  -4.20125e+60  -7.00028e+58   1.29481e+60  -3.49574e+67 -4.70871e+133  7.69072e+199   3.56245e+67  -2.93008e+67  -8.17445e+65  -4.83913e+66  -5.84254e+65  -1.06921e+66  -1.46731e+67
  -4.20639e+60   4.88717e+47   1.31903e+60  -3.41384e+67 -5.87192e+133  9.74327e+199   3.49878e+67  -2.95451e+67  -6.43323e+65  -3.94995e+66  -2.42544e+65    1.1442e+66  -1.39857e+67
  -3.22644e+60   2.99208e+47    6.8646e+59  -6.23975e+66 -7.69281e+133 -7.88852e+199   1.07639e+67  -9.50566e+66   1.26532e+66    2.0006e+66  -1.26968e+65     6.965e+65  -6.92196e+66
  -3.22375e+60  -2.74307e+58   6.71717e+59  -4.27811e+66 -8.02314e+133 -1.07679e+200   9.92641e+66  -8.23773e+66   1.68236e+66   2.27726e+66   7.51644e+64  -9.73069e+65  -7.10576e+66
  -3.96981e+60  -6.27699e+58   7.05444e+59  -3.52042e+67  1.22662e+134 -9.13055e+199   3.34166e+67  -2.93533e+67  -1.55333e+66  -4.29757e+66  -3.75051e+65  -9.02881e+65  -7.40277e+66
  -3.97051e+60   3.58869e+47   7.21672e+59  -3.59718e+67  1.39493e+134 -1.21568e+200   3.39776e+67  -2.99349e+67  -1.71652e+66  -4.32038e+66  -3.33417e+64   7.66688e+65  -6.93164e+66
  -3.30131e+60  -2.31523e+58   1.26737e+60  -8.98259e+66 -2.10414e+134  1.10157e+200   1.70617e+67   -9.2379e+66  -4.27758e+65   6.83066e+65  -8.05116e+65   6.65448e+65  -1.43761e+67
  -3.27999e+60   -3.8836e+58   1.20643e+60  -6.75316e+66 -2.50074e+134 -6.51698e+198   1.71953e+67  -7.30134e+66   4.62151e+64    5.0196e+65  -3.43442e+65  -1.83323e+66  -1.55761e+67
  -4.18875e+60  -1.38575e+59   1.22694e+60  -3.08496e+67 -1.27391e+134  1.30412e+199   3.28495e+67  -2.61494e+67  -7.92957e+64  -4.62091e+66  -1.37307e+66  -1.50569e+66  -1.57007e+67
  -4.20125e+60  -7.00028e+58   1.29481e+60  -3.53305e+67 -3.72567e+133  1.33462e+200   3.58539e+67  -2.93801e+67  -1.03193e+66  -4.91846e+66  -9.32137e+65   9.92988e+65  -1.46731e+67
  -3.22375e+60  -2.74307e+58   6.71717e+59   -4.7933e+66 -7.73396e+133 -9.31256e+199   1.00158e+67  -8.34726e+66   1.38623e+66   2.16773e+66  -7.38215e+64   4.26081e+65  -7.10576e+66
  -3.21791e+60  -5.28866e+58   6.27359e+59  -3.51603e+66 -9.55404e+133 -1.24903e+200   1.03876e+67  -6.61313e+66   1.65777e+66   1.43933e+66   3.87852e+65  -1.16999e+66  -8.71353e+66
  -3.98142e+60  -1.22009e+59   6.50503e+59  -3.25964e+67  8.88357e+133 -5.41403e+199    3.1204e+67  -2.65208e+67  -1.33253e+66  -4.74312e+66  -2.34029e+65  -6.70014e+65  -8.83811e+66
  -3.96981e+60  -6.27699e+58   7.05444e+59  -3.61252e+67  1.47975e+134 -1.39704e+200   3.40155e+67  -2.95491e+67  -2.08274e+66  -4.49338e+66   2.06904e+65   9.26057e+65  -7.40277e+66
  -4.18875e+60   1.38575e+59   1.22694e+60  -1.92714e+67 -2.55387e+134 -4.28787e+200   2.50355e+67  -2.36879e+67   2.38221e+66   2.03428e+66   1.37307e+66   2.24315e+66  -1.21942e+67
  -4.20125e+60   7.00028e+58   1.29481e+60  -1.74406e+67 -3.19985e+134 -7.17233e+200   2.49832e+67  -2.55768e+67   2.77143e+66    5.3647e+66   9.32137e+65   -4.8058e+65  -1.12097e+67
  -5.02789e+60   1.27699e+59   1.39083e+60  -5.12502e+67 -6.83688e+133  2.44484e+200   5.19129e+67  -5.04581e+67   1.03104e+66  -1.82315e+66    1.4636e+66  -1.95118e+66  -1.00254e+67
   -5.0233e+60   2.53924e+59   1.29183e+60  -5.39168e+67  7.39096e+133  6.71632e+199    5.3227e+67  -4.90496e+67   4.64123e+65  -5.33127e+66   2.78807e+66   7.72552e+65  -1.24088e+67
  -3.98142e+60   1.22009e+59   6.50503e+59  -2.05214e+67 -9.09061e+133 -5.21398e+199   2.26282e+67  -2.39536e+67    1.2346e+66   2.19764e+66   2.34029e+65   1.06516e+66  -3.19612e+66
  -3.96981e+60   6.27699e+58   7.05444e+59  -2.64147e+67 -3.56541e+133  1.63546e+199   2.70812e+67  -2.74846e+67   -1.8303e+64   1.08825e+66  -2.06904e+65  -7.75034e+65  -2.36296e+66
  -4.60919e+60   1.01306e+59   7.76394e+59  -6.51029e+67  6.55036e+134 -1.69187e+201   5.98611e+67  -5.34031e+67  -4.56296e+66   -7.1368e+66   4.75928e+65  -8.46789e+65  -1.17867e+66
  -4.62551e+60   1.99496e+59   7.19935e+59  -6.00454e+67  4.93842e+134  -9.9155e+200   5.57818e+67  -5.03526e+67  -3.48776e+66   -6.2051e+66    1.8004e+66   9.93405e+65  -3.41068e+66
  -4.20125e+60   7.00028e+58   1.29481e+60  -1.70675e+67 -3.27186e+134 -7.48465e+200   2.48694e+67  -2.54974e+67   2.98592e+66   5.44403e+66   5.84254e+65   1.58162e+66  -1.12097e+67
  -4.20639e+60   4.88717e+47   1.31903e+60  -1.91213e+67 -3.06908e+134 -5.97595e+200   2.59333e+67  -2.63525e+67   2.54927e+66   4.68188e+66   2.42544e+65   -1.1442e+66  -1.12657e+67
   -5.0422e+60   5.71815e+47    1.4116e+60  -5.43133e+67  7.59868e+132  8.46647e+199   5.42433e+67  -5.20326e+67   5.19152e+65  -2.79988e+66    6.7612e+65  -9.81443e+65  -1.04019e+67
  -5.02789e+60   1.27699e+59   1.39083e+60  -5.08655e+67 -8.47848e+133  7.64581e+199   5.16922e+67  -5.03763e+67   1.25215e+66  -1.74137e+66   1.92306e+66   1.74438e+66  -1.00254e+67
  -3.96981e+60   6.27699e+58   7.05444e+59  -2.54937e+67 -5.51667e+133  7.49818e+198   2.65536e+67  -2.72888e+67   5.11107e+65   1.28406e+66   3.75051e+65    1.0539e+66  -2.36296e+66
  -3.97051e+60   3.58869e+47   7.21672e+59   -2.5778e+67 -5.98375e+133 -4.94248e+198   2.69136e+67  -2.77677e+67   4.50649e+65   1.53901e+66   3.33417e+64  -7.66688e+65  -2.16657e+66
  -4.61373e+60    4.1861e+47   7.95961e+59  -6.59684e+67  6.53175e+134 -1.64533e+201   6.08166e+67  -5.45104e+67  -4.45258e+66  -7.00541e+66   2.14465e+65  -9.24389e+65  -1.30274e+66
  -4.60919e+60   1.01306e+59   7.76394e+59  -6.42901e+67   6.1291e+134 -1.45806e+201   5.93322e+67  -5.32303e+67  -4.09577e+66    -6.964e+66    1.4614e+66   8.96203e+65  -1.17867e+66
  -4.20639e+60   4.88717e+47   1.31903e+60  -1.91213e+67 -3.06908e+134 -5.97595e+200   2.59333e+67  -2.63525e+67   2.54927e+66   4.68188e+66  -2.42544e+65    1.1442e+66  -1.12657e+67
  -4.20125e+60  -7.00028e+58   1.29481e+60  -1.70675e+67 -3.27186e+134 -7.48465e+200   2.48694e+67  -2.54974e+67   2.98592e+66   5.44403e+66  -5.84254e+65  -1.58162e+66  -1.12097e+67
  -5.02789e+60  -1.27699e+59   1.39083e+60  -5.08655e+67 -8.47848e+133  7.64581e+199   5.16922e+67  -5.03763e+67   1.25215e+66  -1.74137e+66  -1.92306e+66  -1.74438e+66  -1.00254e+67
   -5.0422e+60   5.71815e+47    1.4116e+60  -5.43133e+67  7.59868e+132  8.46647e+199   5.42433e+67  -5.20326e+67   5.19152e+65  -2.79988e+66   -6.7612e+65   9.81443e+65  -1.04019e+67
  -3.97051e+60   3.58869e+47   7.21672e+59   -2.5778e+67 -5.98375e+133 -4.94248e+198   2.69136e+67  -2.77677e+67   4.50649e+65   1.53901e+66  -3.33417e+64   7.66688e+65  -2.16657e+66
  -3.96981e+60  -6.27699e+58   7.05444e+59  -2.54937e+67 -5.51667e+133  7.49818e+198   2.65536e+67  -2.72888e+67   5.11107e+65   1.28406e+66  -3.75051e+65   -1.0539e+66  -2.36296e+66
  -4.60919e+60  -1.01306e+59   7.76394e+59  -6.42901e+67   6.1291e+134 -1.45806e+201   5.93322e+67  -5.32303e+67  -4.09577e+66    -6.964e+66   -1.4614e+66  -8.96203e+65  -1.17867e+66
  -4.61373e+60    4.1861e+47   7.95961e+59  -6.59684e+67  6.53175e+134 -1.64533e+201   6.08166e+67  -5.45104e+67  -4.45258e+66  -7.00541e+66  -2.14465e+65   9.24389e+65  -1.30274e+66
  -4.20125e+60  -7.00028e+58   1.29481e+60  -1.74406e+67 -3.19985e+134 -7.17233e+200   2.49832e+67  -2.55768e+67   2.77143e+66    5.3647e+66  -9.32137e+65    4.8058e+65  -1.12097e+67
  -4.18875e+60  -1.38575e+59   1.22694e+60  -1.92714e+67 -2.55387e+134 -4.28787e+200   2.50355e+67  -2.36879e+67   2.38221e+66   2.03428e+66  -1.37307e+66  -2.24315e+66  -1.21942e+67
   -5.0233e+60  -2.53924e+59   1.29183e+60  -5.39168e+67  7.39096e+133  6.71632e+199    5.3227e+67  -4.90496e+67   4.64123e+65  -5.33127e+66  -2.78807e+66  -7.72552e+65  -1.24088e+67
  -5.02789e+60  -1.27699e+59   1.39083e+60  -5.12502e+67 -6.83688e+133  2.44484e+200   5.19129e+67  -5.04581e+67   1.03104e+66  -1.82315e+66   -1.4636e+66   1.95118e+66  -1.00254e+67
  -3.96981e+60  -6.27699e+58   7.05444e+59  -2.64147e+67 -3.56541e+133  1.63546e+199   2.70812e+67  -2.74846e+67   -1.8303e+64   1.08825e+66   2.06904e+65   7.75034e+65  -2.36296e+66
  -3.98142e+60  -1.22009e+59   6.50503e+59  -2.05214e+67 -9.09061e+133 -5.21398e+199   2.26282e+67  -2.39536e+67    1.2346e+66   2.19764e+66  -2.34029e+65  -1.06516e+66  -3.19612e+66
  -4.62551e+60  -1.99496e+59   7.19935e+59  -6.00454e+67  4.93842e+134  -9.9155e+200   5.57818e+67  -5.03526e+67  -3.48776e+66   -6.2051e+66   -1.8004e+66  -9.93405e+65  -3.41068e+66
  -4.60919e+60  -1.01306e+59   7.76394e+59  -6.51029e+67  6.55036e+134 -1.69187e+201   5.98611e+67  -5.34031e+67  -4.56296e+66   -7.1368e+66  -4.75928e+65   8.46789e+65  -1.17867e+66
  -4.54995e+59  -1.71395e+59   1.37598e+60   4.25901e+67  3.52992e+134 -1.96919e+201   3.82221e+67    2.0717e+67  -2.66065e+66   2.45338e+67   3.33197e+66   3.75675e+66  -3.10845e+66
  -5.58754e+59  -4.74084e+58   1.32039e+60   5.47565e+67  5.59672e+134 -1.40439e+201   4.93822e+67   1.78212e+67    -7.411e+64   3.70094e+67   5.54103e+66   1.86183e+66  -7.85148e+66
   -1.1694e+60  -6.35862e+58   1.58887e+60   4.50745e+67  3.28846e+134 -4.16896e+200   4.12658e+67    8.4661e+66   1.65736e+66   3.49511e+67   5.02798e+66   -3.0827e+66  -2.05599e+66
  -1.04643e+60  -1.47464e+59    1.5398e+60   3.91753e+67  3.47874e+134  -2.3271e+200   3.44504e+67   1.49643e+67   4.03189e+65   2.38078e+67   3.97996e+66  -1.18778e+66  -2.60268e+66
  -5.78422e+59  -1.38162e+59   8.50346e+59   5.19953e+67  7.60261e+134  2.16706e+201   4.40823e+67   2.27165e+67   3.75699e+66   2.55218e+67    5.9079e+65   1.81688e+65  -5.95087e+65
  -6.24159e+59  -6.09346e+58   8.75934e+59   3.49531e+67  2.67516e+134 -1.21133e+200   3.08902e+67    1.3611e+67   1.33858e+65   2.12083e+67   2.79985e+66  -5.52191e+65  -4.20314e+66
  -1.15758e+60  -4.70339e+58   1.02174e+60   1.88602e+67  9.92086e+132 -1.13504e+200   1.85954e+67   2.89299e+66  -1.81971e+66    1.7787e+67   1.15182e+66  -2.06999e+65   1.59235e+66
  -1.11665e+60  -1.08728e+59   1.00346e+60   4.21695e+67  4.87677e+134  1.14174e+201   3.59247e+67   1.56008e+67    3.1358e+66   2.34328e+67   1.03793e+65    5.2688e+65  -8.93183e+64
  -5.58754e+59  -4.74084e+58   1.32039e+60   7.47333e+67  1.54211e+135  8.77829e+201   6.35843e+67   2.20682e+67   1.14087e+67   4.12565e+67   4.82174e+66  -2.42972e+66  -7.85148e+66
  -6.47288e+59   2.04754e+47   1.35564e+60   5.37009e+67  6.96916e+134  2.12854e+201    4.6764e+67   1.15475e+67    6.9372e+66   3.52162e+67   4.18271e+66  -1.66542e+66  -3.72625e+66
  -1.20721e+60   2.83829e+47   1.60752e+60   4.28537e+67  3.43944e+134  5.84109e+200   3.86328e+67    6.8411e+66   3.10247e+66   3.29101e+67   1.78616e+66   -8.8101e+65   7.46892e+65
   -1.1694e+60  -6.35862e+58   1.58887e+60   5.03678e+67   5.5272e+134  1.55089e+201   4.45443e+67   9.59146e+66   4.69997e+66   3.60764e+67   1.00416e+66  -1.64532e+66  -2.05599e+66
  -6.24159e+59  -6.09346e+58   8.75934e+59   3.92036e+67  3.93919e+134  6.91741e+200   3.38083e+67   1.45146e+67   2.57702e+66   2.21119e+67   1.79714e+66   7.19987e+65  -4.20314e+66
  -6.48672e+59   1.44321e+47   8.74595e+59   2.54728e+67   9.5858e+133 -6.38526e+199   2.35161e+67   5.54629e+66  -3.42113e+65   2.02687e+67    1.1581e+66   6.32613e+64  -2.52609e+66
  -1.18319e+60   2.05152e+47   1.03179e+60   2.24721e+67  5.11354e+133 -1.63793e+199    2.1304e+67   2.50802e+66   3.33393e+65   1.96307e+67   1.20973e+66  -4.74682e+65   1.94705e+66
  -1.15758e+60  -4.70339e+58   1.02174e+60   2.26846e+67  7.46253e+133  2.18581e+199   2.09754e+67   3.70605e+66   3.78569e+65      1.86e+67    4.2773e+65   1.82044e+65   1.59235e+66
  -6.47288e+59   2.04754e+47   1.35564e+60   5.37009e+67  6.96916e+134  2.12854e+201    4.6764e+67   1.15475e+67    6.9372e+66   3.52162e+67  -4.18271e+66   1.66542e+66  -3.72625e+66
  -5.58754e+59   4.74084e+58   1.32039e+60   7.47333e+67  1.54211e+135  8.77829e+201   6.35843e+67   2.20682e+67   1.14087e+67   4.12565e+67  -4.82174e+66   2.42972e+66  -7.85148e+66
   -1.1694e+60   6.35862e+58   1.58887e+60   5.03678e+67   5.5272e+134  1.55089e+201   4.45443e+67   9.59146e+66   4.69997e+66   3.60764e+67  -1.00416e+66   1.64532e+66  -2.05599e+66
  -1.20721e+60   2.83829e+47   1.60752e+60   4.28537e+67  3.43944e+134  5.84109e+200   3.86328e+67    6.8411e+66   3.10247e+66   3.29101e+67  -1.78616e+66    8.8101e+65   7.46892e+65
  -6.48672e+59   1.44321e+47   8.74595e+59   2.54728e+67   9.5858e+133 -6.38526e+199   2.35161e+67   5.54629e+66  -3.42113e+65   2.02687e+67   -1.1581e+66  -6.32613e+64  -2.52609e+66
  -6.24159e+59   6.09346e+58   8.75934e+59   3.92036e+67  3.93919e+134  6.91741e+200   3.38083e+67   1.45146e+67   2.57702e+66   2.21119e+67  -1.79714e+66  -7.19987e+65  -4.20314e+66
  -1.15758e+60   4.70339e+58   1.02174e+60   2.26846e+67  7.46253e+133  2.18581e+199   2.09754e+67   3.70605e+66   3.78569e+65      1.86e+67   -4.2773e+65  -1.82044e+65   1.59235e+66
  -1.18319e+60   2.05152e+47   1.03179e+60   2.24721e+67  5.11354e+133 -1.63793e+199    2.1304e+67   2.50802e+66   3.33393e+65   1.96307e+67  -1.20973e+66   4.74682e+65   1.94705e+66
  -5.58754e+59   4.74084e+58   1.32039e+60   5.47565e+67  5.59672e+134 -1.40439e+201   4.93822e+67   1.78212e+67    -7.411e+64   3.70094e+67  -5.54103e+66  -1.86183e+66  -7.85148e+66
  -4.54995e+59   1.71395e+59   1.37598e+60   4.25901e+67  3.52992e+134 -1.96919e+201   3.82221e+67    2.0717e+67  -2.66065e+66   2.45338e+67  -3.33197e+66  -3.75675e+66  -3.10845e+66
  -1.04643e+60   1.47464e+59    1.5398e+60   3.91753e+67  3.47874e+134  -2.3271e+200   3.44504e+67   1.49643e+67   4.03189e+65   2.38078e+67  -3.97996e+66   1.18778e+66  -2.60268e+66
   -1.1694e+60   6.35862e+58   1.58887e+60   4.50745e+67  3.28846e+134 -4.16896e+200   4.12658e+67    8.4661e+66   1.65736e+66   3.49511e+67  -5.02798e+66    3.0827e+66  -2.05599e+66
  -6.24159e+59   6.09346e+58   8.75934e+59   3.49531e+67  2.67516e+134 -1.21133e+200   3.08902e+67    1.3611e+67   1.33858e+65   2.12083e+67  -2.79985e+66   5.52191e+65  -4.20314e+66
  -5.78422e+59   1.38162e+59   8.50346e+59   5.19953e+67  7.60261e+134  2.16706e+201   4.40823e+67   2.27165e+67   3.75699e+66   2.55218e+67   -5.9079e+65  -1.81688e+65  -5.95087e+65
  -1.11665e+60   1.08728e+59   1.00346e+60   4.21695e+67  4.87677e+134  1.14174e+201   3.59247e+67   1.56008e+67    3.1358e+66   2.34328e+67  -1.03793e+65   -5.2688e+65  -8.93183e+64
  -1.15758e+60   4.70339e+58   1.02174e+60   1.88602e+67  9.92086e+132 -1.13504e+200   1.85954e+67   2.89299e+66  -1.81971e+66    1.7787e+67  -1.15182e+66   2.06999e+65   1.59235e+66
  -1.04643e+60  -1.47464e+59    1.5398e+60   6.35825e+67  9.97847e+134  3.32562e+201   5.51806e+67   2.01532e+67   5.59214e+66   3.78372e+67   3.97996e+66  -1.60213e+66  -8.40103e+66
   -1.1694e+60  -6.35862e+58   1.58887e+60   3.82665e+67  1.81361e+134 -6.93831e+200   3.58185e+67   7.01874e+66   2.09997e+65   3.10378e+67   5.02798e+66  -2.41192e+66  -3.65775e+66
  -1.81396e+60  -6.55659e+58   1.83126e+60   3.94396e+67  2.60955e+134  3.30797e+200   3.59796e+67   6.07344e+66   2.07897e+66   3.12872e+67   1.05829e+66  -1.70329e+66   1.64818e+66
  -1.76059e+60  -1.32303e+59   1.79718e+60    4.6411e+67  4.45247e+134  1.03634e+201   4.13368e+67   8.66336e+66   3.56107e+66   3.41866e+67  -1.96086e+65  -8.93503e+65  -1.63651e+66
  -1.11665e+60  -1.08728e+59   1.00346e+60   3.20176e+67  2.46256e+134  2.03368e+200   2.79082e+67   1.34425e+67   9.77523e+65   1.75975e+67   1.03793e+65   7.39971e+65  -4.48142e+66
  -1.15758e+60  -4.70339e+58   1.02174e+60   1.47555e+67 -2.65765e+133 -7.73752e+199   1.56301e+67   2.02033e+66  -2.69237e+66   1.54275e+67   1.15182e+66  -2.76175e+65   -3.0604e+66
  -1.78949e+60  -3.45974e+58   1.15182e+60    1.7068e+67  1.17167e+133 -1.04442e+199   1.67212e+67   1.31727e+66  -1.68444e+65   1.59192e+67   5.04383e+65  -1.02613e+66   2.24553e+66
  -1.74785e+60  -7.47831e+58   1.11766e+60   1.59855e+67  1.88387e+133 -1.82834e+199   1.53849e+67   2.19494e+66  -3.98589e+65   1.41891e+67  -7.49995e+65  -9.98656e+63   2.28309e+66
   -1.1694e+60  -6.35862e+58   1.58887e+60   4.35599e+67  3.77706e+134  7.75464e+200    3.8984e+67   8.14409e+66   3.25261e+66   3.21632e+67   1.00416e+66  -9.74537e+65  -3.65775e+66
  -1.20721e+60   2.83829e+47   1.60752e+60   3.88386e+67  2.55727e+134  3.04284e+200   3.53937e+67   5.98752e+66   2.24889e+66   3.06022e+67   1.78616e+66   -8.8101e+65  -2.41339e+66
  -1.83402e+60   3.67801e+47   1.84401e+60   3.73592e+67  2.15779e+134  2.38453e+200   3.43501e+67   5.32417e+66    1.7473e+66   3.02877e+67   9.48127e+65  -6.02411e+65   2.53788e+66
  -1.81396e+60  -6.55659e+58   1.83126e+60    3.9745e+67  2.73509e+134  4.17658e+200   3.61408e+67   6.13838e+66   2.25453e+66   3.13521e+67   -5.1495e+65  -6.95937e+65   1.64818e+66
  -1.15758e+60  -4.70339e+58   1.02174e+60   1.85799e+67  2.70299e+133 -2.14113e+199   1.78377e+67   2.83339e+66  -4.94092e+65   1.62406e+67    4.2773e+65   1.12869e+65   -3.0604e+66
  -1.18319e+60   2.05152e+47   1.03179e+60    1.5817e+67 -7.69957e+132  -3.4069e+199   1.60585e+67   1.09315e+66  -1.08148e+66   1.58053e+67   1.20973e+66  -4.74682e+65  -2.23899e+66
  -1.80631e+60   2.70748e+47   1.16348e+60   1.80983e+67  2.18722e+133 -5.70255e+198   1.74836e+67   1.22934e+66   5.78617e+65   1.62903e+67   7.94641e+65   -5.5074e+65   2.71229e+66
  -1.78949e+60  -3.45974e+58   1.15182e+60   1.85258e+67  3.28723e+133  6.94046e+198   1.76163e+67    1.6272e+66   6.69509e+65   1.62291e+67  -6.68435e+65   3.68099e+64   2.24553e+66
  -1.20721e+60   2.83829e+47   1.60752e+60   3.88386e+67  2.55727e+134  3.04284e+200   3.53937e+67   5.98752e+66   2.24889e+66   3.06022e+67  -1.78616e+66    8.8101e+65  -2.41339e+66
   -1.1694e+60   6.35862e+58   1.58887e+60   4.35599e+67  3.77706e+134  7.75464e+200    3.8984e+67   8.14409e+66   3.25261e+66   3.21632e+67  -1.00416e+66   9.74537e+65  -3.65775e+66
  -1.81396e+60   6.55659e+58   1.83126e+60    3.9745e+67  2.73509e+134  4.17658e+200   3.61408e+67   6.13838e+66   2.25453e+66   3.13521e+67    5.1495e+65   6.95937e+65   1.64818e+66
  -1.83402e+60   3.67801e+47   1.84401e+60   3.73592e+67  2.15779e+134  2.38453e+200   3.43501e+67   5.32417e+66    1.7473e+66   3.02877e+67  -9.48127e+65   6.02411e+65   2.53788e+66
  -1.18319e+60   2.05152e+47   1.03179e+60    1.5817e+67 -7.69957e+132  -3.4069e+199   1.60585e+67   1.09315e+66  -1.08148e+66   1.58053e+67  -1.20973e+66   4.74682e+65  -2.23899e+66
  -1.15758e+60   4.70339e+58   1.02174e+60   1.85799e+67  2.70299e+133 -2.14113e+199   1.78377e+67   2.83339e+66  -4.94092e+65   1.62406e+67   -4.2773e+65  -1.12869e+65   -3.0604e+66
  -1.78949e+60   3.45974e+58   1.15182e+60   1.85258e+67  3.28723e+133  6.94046e+198   1.76163e+67    1.6272e+66   6.69509e+65   1.62291e+67   6.68435e+65  -3.68099e+64   2.24553e+66
  -1.80631e+60   2.70748e+47   1.16348e+60   1.80983e+67  2.18722e+133 -5.70255e+198   1.74836e+67   1.22934e+66   5.78617e+65   1.62903e+67  -7.94641e+65    5.5074e+65   2.71229e+66
   -1.1694e+60   6.35862e+58   1.58887e+60   3.82665e+67  1.81361e+134 -6.93831e+200   3.58185e+67   7.01874e+66   2.09997e+65   3.10378e+67  -5.02798e+66   2.41192e+66  -3.65775e+66
  -1.04643e+60   1.47464e+59    1.5398e+60   6.35825e+67  9.97847e+134  3.32562e+201   5.51806e+67   2.01532e+67   5.59214e+66   3.78372e+67  -3.97996e+66   1.60213e+66  -8.40103e+66
  -1.76059e+60   1.32303e+59   1.79718e+60    4.6411e+67  4.45247e+134  1.03634e+201   4.13368e+67   8.66336e+66   3.56107e+66   3.41866e+67   1.96086e+65   8.93503e+65  -1.63651e+66
  -1.81396e+60   6.55659e+58   1.83126e+60   3.94396e+67  2.60955e+134  3.30797e+200   3.59796e+67   6.07344e+66   2.07897e+66   3.12872e+67  -1.05829e+66   1.70329e+66   1.64818e+66
  -1.15758e+60   4.70339e+58   1.02174e+60   1.47555e+67 -2.65765e+133 -7.73752e+199   1.56301e+67   2.02033e+66  -2.69237e+66   1.54275e+67  -1.15182e+66   2.76175e+65   -3.0604e+66
  -1.11665e+60   1.08728e+59   1.00346e+60   3.20176e+67  2.46256e+134  2.03368e+200   2.79082e+67   1.34425e+67   9.77523e+65   1.75975e+67  -1.03793e+65  -7.39971e+65  -4.48142e+66
  -1.74785e+60   7.47831e+58   1.11766e+60   1.59855e+67  1.88387e+133 -1.82834e+199   1.53849e+67   2.19494e+66  -3.98589e+65   1.41891e+67   7.49995e+65   9.98656e+63   2.28309e+66
  -1.78949e+60   3.45974e+58   1.15182e+60    1.7068e+67  1.17167e+133 -1.04442e+199   1.67212e+67   1.31727e+66  -1.68444e+65   1.59192e+67  -5.04383e+65   1.02613e+66   2.24553e+66
  -1.76059e+60  -1.32303e+59   1.79718e+60   2.50013e+67  6.26415e+133 -9.37665e+199   2.37154e+67   4.11169e+66  -9.90601e+65   2.18802e+67  -1.96086e+65   1.04775e+66  -6.62713e+65
  -1.81396e+60  -6.55659e+58   1.83126e+60   2.31708e+67  2.20942e+133 -1.03267e+200    2.2689e+67   2.61471e+66  -1.37976e+66   2.19358e+67   1.05829e+66  -1.06308e+65   -5.0634e+65
  -2.50411e+60  -3.37427e+58   2.01128e+60   3.34135e+67  2.24991e+134  3.64228e+200   2.98575e+67   6.19417e+66   3.10594e+66   2.41134e+67   1.34956e+66  -3.28709e+65   4.07133e+66
  -2.45414e+60  -7.60519e+58    1.9725e+60   3.66927e+67  3.15995e+134  7.23368e+200   3.20993e+67   8.52388e+66   3.80309e+66   2.43658e+67   1.42899e+65   8.25344e+65   4.00959e+66
  -1.74785e+60  -7.47831e+58   1.11766e+60   6.12841e+66 -2.41625e+133  9.86866e+197    7.8562e+66   9.93487e+64  -2.49418e+66   8.52324e+66  -7.49995e+65   5.44556e+65  -1.62601e+66
  -1.78949e+60  -3.45974e+58   1.15182e+60   4.82042e+66 -3.44999e+133  3.45408e+199   7.59844e+66  -1.28654e+66  -2.77226e+66   8.87922e+66   5.04383e+65  -5.61776e+65  -1.20727e+66
  -2.49449e+60  -1.23321e+58   1.23494e+60   1.47997e+67  3.28683e+133   1.2678e+199   1.36441e+67   2.23689e+66   1.56198e+66   1.10008e+67    5.3328e+65  -8.78806e+65    3.3704e+66
  -2.46179e+60  -2.91004e+58   1.19408e+60   1.75564e+67  7.21132e+133  7.87616e+199    1.5366e+67   4.45552e+66   2.14805e+66   1.09528e+67  -6.73377e+65   2.27526e+65   3.04628e+66
  -1.81396e+60  -6.55659e+58   1.83126e+60   2.34762e+67  2.79007e+133 -7.82235e+199   2.28742e+67   2.67964e+66   -1.2042e+66   2.20008e+67   -5.1495e+65   9.01049e+65   -5.0634e+65
  -1.83402e+60   3.67801e+47   1.84401e+60   2.06423e+67 -5.42943e+132 -8.44492e+199   2.07733e+67   1.77018e+66  -1.80669e+66   2.06788e+67   9.48127e+65  -6.02411e+65  -4.63073e+65
  -2.52436e+60   4.55952e+47   2.01641e+60    3.1834e+67   2.0652e+134  3.57599e+200   2.84057e+67   5.19629e+66   3.57957e+66   2.30581e+67   9.56529e+65  -2.42661e+65     3.669e+66
  -2.50411e+60  -3.37427e+58   2.01128e+60   3.56483e+67  2.83056e+134  6.35969e+200   3.14284e+67   6.66928e+66   4.39049e+66   2.45885e+67  -5.49954e+64    1.2608e+66   4.07133e+66
  -1.78949e+60  -3.45974e+58   1.15182e+60   6.27823e+66 -2.70153e+133  1.71267e+199   8.15055e+66  -9.76617e+65  -1.93431e+66   9.18915e+66  -6.68435e+65   5.01166e+65  -1.20727e+66
  -1.80631e+60   2.70748e+47   1.16348e+60   5.90474e+66 -3.05038e+133  2.28501e+199   8.08516e+66  -1.36299e+66  -2.01371e+66   9.28144e+66   7.94641e+65   -5.5074e+65  -9.86459e+65
  -2.50773e+60   3.40078e+47   1.24842e+60   1.46031e+67   3.0932e+133  6.42192e+198   1.35025e+67   1.53304e+66   1.93936e+66   1.11307e+67   6.25497e+65  -6.36585e+65   3.14562e+66
  -2.49449e+60  -1.23321e+58   1.23494e+60    1.5957e+67  4.68228e+133  3.37097e+199   1.44153e+67   2.48293e+66   2.22719e+66   1.12468e+67  -3.86027e+65   4.15322e+65    3.3704e+66
  -1.83402e+60   3.67801e+47   1.84401e+60   2.06423e+67 -5.42943e+132 -8.44492e+199   2.07733e+67   1.77018e+66  -1.80669e+66   2.06788e+67  -9.48127e+65   6.02411e+65  -4.63073e+65
  -1.81396e+60   6.55659e+58   1.83126e+60   2.34762e+67  2.79007e+133 -7.82235e+199   2.28742e+67   2.67964e+66   -1.2042e+66   2.20008e+67    5.1495e+65  -9.01049e+65   -5.0634e+65
  -2.50411e+60   3.37427e+58   2.01128e+60   3.56483e+67  2.83056e+134  6.35969e+200   3.14284e+67   6.66928e+66   4.39049e+66   2.45885e+67   5.49954e+64   -1.2608e+66   4.07133e+66
  -2.52436e+60   4.55952e+47   2.01641e+60    3.1834e+67   2.0652e+134  3.57599e+200   2.84057e+67   5.19629e+66   3.57957e+66   2.30581e+67  -9.56529e+65   2.42661e+65     3.669e+66
  -1.80631e+60   2.70748e+47   1.16348e+60   5.90474e+66 -3.05038e+133  2.28501e+199   8.08516e+66  -1.36299e+66  -2.01371e+66   9.28144e+66  -7.94641e+65    5.5074e+65  -9.86459e+65
  -1.78949e+60   3.45974e+58   1.15182e+60   6.27823e+66 -2.70153e+133  1.71267e+199   8.15055e+66  -9.76617e+65  -1.93431e+66   9.18915e+66   6.68435e+65  -5.01166e+65  -1.20727e+66
  -2.49449e+60   1.23321e+58   1.23494e+60    1.5957e+67  4.68228e+133  3.37097e+199   1.44153e+67   2.48293e+66   2.22719e+66   1.12468e+67   3.86027e+65  -4.15322e+65    3.3704e+66
  -2.50773e+60   3.40078e+47   1.24842e+60   1.46031e+67   3.0932e+133  6.42192e+198   1.35025e+67   1.53304e+66   1.93936e+66   1.11307e+67  -6.25497e+65   6.36585e+65   3.14562e+66
  -1.81396e+60   6.55659e+58   1.83126e+60   2.31708e+67  2.20942e+133 -1.03267e+200    2.2689e+67   2.61471e+66  -1.37976e+66   2.19358e+67  -1.05829e+66   1.06308e+65   -5.0634e+65
  -1.76059e+60   1.32303e+59   1.79718e+60   2.50013e+67  6.26415e+133 -9.37665e+199   2.37154e+67   4.11169e+66  -9.90601e+65   2.18802e+67   1.96086e+65  -1.04775e+66  -6.62713e+65
  -2.45414e+60   7.60519e+58    1.9725e+60   3.66927e+67  3.15995e+134  7.23368e+200   3.20993e+67   8.52388e+66   3.80309e+66   2.43658e+67  -1.42899e+65  -8.25344e+65   4.00959e+66
  -2.50411e+60   3.37427e+58   2.01128e+60   3.34135e+67  2.24991e+134  3.64228e+200   2.98575e+67   6.19417e+66   3.10594e+66   2.41134e+67  -1.34956e+66   3.28709e+65   4.07133e+66
  -1.78949e+60   3.45974e+58   1.15182e+60   4.82042e+66 -3.44999e+133  3.45408e+199   7.59844e+66  -1.28654e+66  -2.77226e+66   8.87922e+66  -5.04383e+65   5.61776e+65  -1.20727e+66
  -1.74785e+60   7.47831e+58   1.11766e+60   6.12841e+66 -2.41625e+133  9.86866e+197    7.8562e+66   9.93487e+64  -2.49418e+66   8.52324e+66   7.49995e+65  -5.44556e+65  -1.62601e+66
  -2.46179e+60   2.91004e+58   1.19408e+60   1.75564e+67  7.21132e+133  7.87616e+199    1.5366e+67   4.45552e+66   2.14805e+66   1.09528e+67   6.73377e+65  -2.27526e+65   3.04628e+66
  -2.49449e+60   1.23321e+58   1.23494e+60   1.47997e+67  3.28683e+133   1.2678e+199   1.36441e+67   2.23689e+66   1.56198e+66   1.10008e+67   -5.3328e+65   8.78806e+65    3.3704e+66
  -2.45414e+60  -7.60519e+58    1.9725e+60   9.87031e+66 -3.30276e+132 -5.58026e+199   1.00362e+67   2.82147e+66  -1.89931e+66   8.94815e+66   1.42899e+65   1.98214e+66  -1.49873e+66
  -2.50411e+60  -3.37427e+58   2.01128e+60   5.44344e+66 -3.05534e+133 -2.10613e+198   7.75786e+66   2.47774e+65  -2.84046e+66   8.03612e+66   1.34956e+66   2.78645e+65  -2.66749e+66
  -3.33691e+60   1.09362e+58   2.08408e+60   8.07297e+66 -1.51364e+133 -8.76399e+199   8.96154e+66  -1.64776e+66   1.12557e+66   8.59515e+66   2.85416e+66   2.64086e+65  -7.59954e+65
  -3.26428e+60   4.68438e+57   2.04499e+60   2.13775e+67  1.28612e+134  2.13115e+200   1.81214e+67   6.02885e+66    3.9541e+66   1.13946e+67   1.81783e+66   1.96758e+66   1.34239e+66
  -2.46179e+60  -2.91004e+58   1.19408e+60   8.45213e+65 -7.56478e+132  4.40163e+198   2.87735e+66   9.02752e+65  -1.40472e+66   1.34718e+66  -6.73377e+65   1.27888e+66  -1.87922e+66
  -2.49449e+60  -1.23321e+58   1.23494e+60   1.57337e+66  -7.9061e+132  4.49624e+198   3.22205e+66  -5.74996e+65  -1.24991e+66   3.39828e+66    5.3328e+65  -2.54288e+65   -1.4402e+66
  -3.30131e+60   2.31523e+58   1.26737e+60   3.26237e+66 -9.51873e+132 -1.96214e+199   4.49019e+66  -2.67049e+66    2.1755e+66   3.75736e+66   4.30113e+65  -1.20244e+66   4.67331e+65
  -3.27999e+60    3.8836e+58   1.20643e+60   1.14119e+67  4.19751e+133  4.91652e+199   9.39447e+66   3.91017e+66   3.90808e+66   3.59364e+66  -6.06213e+65   3.30733e+65   9.61907e+65
  -2.50411e+60  -3.37427e+58   2.01128e+60    7.6782e+66 -1.88234e+133 -5.02302e+197   8.81919e+66   7.22881e+65  -1.55591e+66   8.51123e+66  -5.49954e+64   1.86815e+66  -2.66749e+66
  -2.52436e+60   4.55952e+47   2.01641e+60   6.40078e+66  -3.0179e+133  1.98172e+199   8.43499e+66   -2.1076e+65  -1.82749e+66   8.43903e+66   9.56529e+65  -2.42661e+65  -3.51987e+66
  -3.36686e+60   5.48886e+47   2.09133e+60   8.34437e+66 -1.86867e+133 -1.05873e+200   9.39762e+66   -3.3152e+66   2.80735e+66   8.85223e+66   1.41499e+66   -3.4235e+65  -1.66273e+66
  -3.33691e+60   1.09362e+58   2.08408e+60   1.25568e+67  2.17468e+133 -3.34769e+199   1.16588e+67  -6.94503e+65    3.7029e+66   9.54841e+66   8.37851e+65   1.76846e+66  -7.59954e+65
  -2.49449e+60  -1.23321e+58   1.23494e+60   2.73066e+66 -6.44179e+132  2.88257e+198   3.72804e+66  -3.28958e+65    -5.847e+65   3.64432e+66  -3.86027e+65   1.03984e+66   -1.4402e+66
  -2.50773e+60   3.40078e+47   1.24842e+60    1.7315e+66 -1.04047e+133  6.48216e+198   3.66098e+66  -1.20344e+66  -7.97119e+65   3.73206e+66   6.25497e+65  -6.36585e+65  -1.76105e+66
    -3.313e+60   4.12755e+47   1.28402e+60   1.27651e+66 -2.13554e+133  -4.1302e+199   4.79425e+66  -4.81782e+66     2.459e+66   3.63533e+66   5.52414e+65  -7.86668e+65   9.60959e+64
  -3.30131e+60   2.31523e+58   1.26737e+60   5.21069e+66 -4.11124e+132 -2.99736e+199   5.59129e+66  -2.25628e+66    3.2954e+66   4.17157e+66  -2.47209e+64   8.89757e+65   4.67331e+65
  -2.52436e+60   4.55952e+47   2.01641e+60   6.40078e+66  -3.0179e+133  1.98172e+199   8.43499e+66   -2.1076e+65  -1.82749e+66   8.43903e+66  -9.56529e+65   2.42661e+65  -3.51987e+66
  -2.50411e+60   3.37427e+58   2.01128e+60    7.6782e+66 -1.88234e+133 -5.02302e+197   8.81919e+66   7.22881e+65  -1.55591e+66   8.51123e+66   5.49954e+64  -1.86815e+66  -2.66749e+66
  -3.33691e+60  -1.09362e+58   2.08408e+60   1.25568e+67  2.17468e+133 -3.34769e+199   1.16588e+67  -6.94503e+65    3.7029e+66   9.54841e+66  -8.37851e+65  -1.76846e+66  -7.59954e+65
  -3.36686e+60   5.48886e+47   2.09133e+60   8.34437e+66 -1.86867e+133 -1.05873e+200   9.39762e+66   -3.3152e+66   2.80735e+66   8.85223e+66  -1.41499e+66    3.4235e+65  -1.66273e+66
  -2.50773e+60   3.40078e+47   1.24842e+60    1.7315e+66 -1.04047e+133  6.48216e+198   3.66098e+66  -1.20344e+66  -7.97119e+65   3.73206e+66  -6.25497e+65   6.36585e+65  -1.76105e+66
  -2.49449e+60   1.23321e+58   1.23494e+60   2.73066e+66 -6.44179e+132  2.88257e+198   3.72804e+66  -3.28958e+65    -5.847e+65   3.64432e+66   3.86027e+65  -1.03984e+66   -1.4402e+66
  -3.30131e+60  -2.31523e+58   1.26737e+60   5.21069e+66 -4.11124e+132 -2.99736e+199   5.59129e+66  -2.25628e+66    3.2954e+66   4.17157e+66   2.47209e+64  -8.89757e+65   4.67331e+65
    -3.313e+60   4.12755e+47   1.28402e+60   1.27651e+66 -2.13554e+133  -4.1302e+199   4.79425e+66  -4.81782e+66     2.459e+66   3.63533e+66  -5.52414e+65   7.86668e+65   9.60959e+64
  -2.50411e+60   3.37427e+58   2.01128e+60   5.44344e+66 -3.05534e+133 -2.10613e+198   7.75786e+66   2.47774e+65  -2.84046e+66   8.03612e+66  -1.34956e+66  -2.78645e+65  -2.66749e+66
  -2.45414e+60   7.60519e+58    1.9725e+60   9.87031e+66 -3.30276e+132 -5.58026e+199   1.00362e+67   2.82147e+66  -1.89931e+66   8.94815e+66  -1.42899e+65  -1.98214e+66  -1.49873e+66
  -3.26428e+60  -4.68438e+57   2.04499e+60   2.13775e+67  1.28612e+134  2.13115e+200   1.81214e+67   6.02885e+66    3.9541e+66   1.13946e+67  -1.81783e+66  -1.96758e+66   1.34239e+66
  -3.33691e+60  -1.09362e+58   2.08408e+60   8.07297e+66 -1.51364e+133 -8.76399e+199   8.96154e+66  -1.64776e+66   1.12557e+66   8.59515e+66  -2.85416e+66  -2.64086e+65  -7.59954e+65
  -2.49449e+60   1.23321e+58   1.23494e+60   1.57337e+66  -7.9061e+132  4.49624e+198   3.22205e+66  -5.74996e+65  -1.24991e+66   3.39828e+66   -5.3328e+65   2.54288e+65   -1.4402e+66
  -2.46179e+60   2.91004e+58   1.19408e+60   8.45213e+65 -7.56478e+132  4.40163e+198   2.87735e+66   9.02752e+65  -1.40472e+66   1.34718e+66   6.73377e+65  -1.27888e+66  -1.87922e+66
  -3.27999e+60   -3.8836e+58   1.20643e+60   1.14119e+67  4.19751e+133  4.91652e+199   9.39447e+66   3.91017e+66   3.90808e+66   3.59364e+66   6.06213e+65  -3.30733e+65   9.61907e+65
  -3.30131e+60  -2.31523e+58   1.26737e+60   3.26237e+66 -9.51873e+132 -1.96214e+199   4.49019e+66  -2.67049e+66    2.1755e+66   3.75736e+66  -4.30113e+65   1.20244e+66   4.67331e+65
  -3.26428e+60   4.68438e+57   2.04499e+60  -1.08725e+67  -1.6463e+134  4.09371e+200   1.68179e+67  -8.27451e+65   -2.9022e+66  -7.14284e+66   1.81783e+66   2.72771e+66  -1.35251e+67
  -3.33691e+60   1.09362e+58   2.08408e+60  -5.91589e+66  -1.6753e+134  2.79964e+200   1.42312e+67  -4.62177e+66  -1.84844e+66   5.54315e+65   2.85416e+66   3.32657e+65  -1.28152e+67
  -4.42487e+60   5.70666e+58   2.10326e+60  -4.17392e+67  2.00643e+134  1.86158e+200   3.92622e+67  -3.00032e+67  -4.67432e+66  -7.06167e+66   1.07814e+66  -2.98904e+66  -1.32056e+67
  -4.38912e+60    1.0151e+59   1.99386e+60  -5.40131e+67  5.50276e+134 -1.52199e+201   4.86532e+67  -3.04149e+67  -7.28373e+66  -1.63145e+67  -6.18192e+64  -5.93991e+65  -1.69096e+67
  -3.27999e+60    3.8836e+58   1.20643e+60   1.35383e+67  4.62942e+133   3.4564e+199   1.17043e+67   4.36224e+66   4.36014e+66   4.81588e+66  -6.06213e+65   1.83323e+66  -3.31715e+66
  -3.30131e+60   2.31523e+58   1.26737e+60   1.96191e+66 -2.48426e+133  -4.3212e+199   5.35646e+66  -2.94696e+66   1.89903e+66   3.00985e+66   4.30113e+65  -6.65448e+65  -3.93246e+66
  -4.20125e+60   7.00028e+58   1.29481e+60  -3.32892e+67  1.26367e+134 -3.68259e+199   3.13337e+67  -2.82068e+67  -5.97949e+65  -4.48448e+66  -2.07332e+64  -9.92988e+65  -4.32282e+66
  -4.18875e+60   1.38575e+59   1.22694e+60  -2.90301e+67  4.87418e+133  1.04916e+200   2.81781e+67  -2.51036e+67   3.07527e+65  -4.23408e+66  -1.16069e+66   1.50569e+66  -6.70167e+66
  -3.33691e+60   1.09362e+58   2.08408e+60  -1.43204e+66 -1.75412e+134 -1.51865e+200   1.33215e+67  -3.66851e+66   7.28895e+65   1.50757e+66   8.37851e+65   1.83704e+66  -1.28152e+67
  -3.36686e+60   5.48886e+47   2.09133e+60  -3.97066e+66 -1.92244e+134 -2.57204e+199   1.44225e+67  -5.93336e+66   1.89188e+65   1.77351e+66   1.41499e+66   -3.4235e+65  -1.33721e+67
  -4.45721e+60   6.50555e+47   2.11903e+60  -4.33177e+67  1.76653e+134 -4.49013e+199   4.12283e+67   -3.2909e+67  -3.81717e+66  -6.59162e+66   1.52761e+66  -7.45172e+65  -1.37172e+67
  -4.42487e+60   5.70666e+58   2.10326e+60  -3.84462e+67  1.08332e+134 -2.54994e+198   3.70105e+67  -2.93031e+67  -2.78149e+66  -6.36158e+66   9.16452e+65   1.43421e+66  -1.32056e+67
  -3.30131e+60   2.31523e+58   1.26737e+60   3.91023e+66  -2.3482e+133 -6.74354e+199   6.22671e+66  -2.53275e+66   3.01892e+66   3.42406e+66  -2.47209e+64   1.42674e+66  -3.93246e+66
    -3.313e+60   4.12755e+47   1.28402e+60   1.12151e+66 -3.78306e+133 -7.64047e+199   6.25207e+66  -4.85077e+66   2.42605e+66   3.54624e+66   5.52414e+65  -7.86668e+65  -4.06691e+66
  -4.20639e+60   4.88717e+47   1.31903e+60  -3.80377e+67  1.84908e+134 -1.50649e+200   3.55241e+67  -3.17864e+67  -1.47232e+66  -4.77895e+66   2.42544e+65   -1.1442e+66  -4.41198e+66
  -4.20125e+60   7.00028e+58   1.29481e+60  -3.29161e+67  1.16415e+134 -4.18583e+198   3.10975e+67  -2.81274e+67  -3.83465e+65  -4.40515e+66  -3.68617e+65   1.06921e+66  -4.32282e+66
  -3.36686e+60   5.48886e+47   2.09133e+60  -3.97066e+66 -1.92244e+134 -2.57204e+199   1.44225e+67  -5.93336e+66   1.89188e+65   1.77351e+66  -1.41499e+66    3.4235e+65  -1.33721e+67
  -3.33691e+60  -1.09362e+58   2.08408e+60  -1.43204e+66 -1.75412e+134 -1.51865e+200   1.33215e+67  -3.66851e+66   7.28895e+65   1.50757e+66  -8.37851e+65  -1.83704e+66  -1.28152e+67
  -4.42487e+60  -5.70666e+58   2.10326e+60  -3.84462e+67  1.08332e+134 -2.54994e+198   3.70105e+67  -2.93031e+67  -2.78149e+66  -6.36158e+66  -9.16452e+65  -1.43421e+66  -1.32056e+67
  -4.45721e+60   6.50555e+47   2.11903e+60  -4.33177e+67  1.76653e+134 -4.49013e+199   4.12283e+67   -3.2909e+67  -3.81717e+66  -6.59162e+66  -1.52761e+66   7.45172e+65  -1.37172e+67
    -3.313e+60   4.12755e+47   1.28402e+60   1.12151e+66 -3.78306e+133 -7.64047e+199   6.25207e+66  -4.85077e+66   2.42605e+66   3.54624e+66  -5.52414e+65   7.86668e+65  -4.06691e+66
  -3.30131e+60  -2.31523e+58   1.26737e+60   3.91023e+66  -2.3482e+133 -6.74354e+199   6.22671e+66  -2.53275e+66   3.01892e+66   3.42406e+66   2.47209e+64  -1.42674e+66  -3.93246e+66
  -4.20125e+60  -7.00028e+58   1.29481e+60  -3.29161e+67  1.16415e+134 -4.18583e+198   3.10975e+67  -2.81274e+67  -3.83465e+65  -4.40515e+66   3.68617e+65  -1.06921e+66  -4.32282e+66
  -4.20639e+60   4.88717e+47   1.31903e+60  -3.80377e+67  1.84908e+134 -1.50649e+200   3.55241e+67  -3.17864e+67  -1.47232e+66  -4.77895e+66  -2.42544e+65    1.1442e+66  -4.41198e+66
  -3.33691e+60  -1.09362e+58   2.08408e+60  -5.91589e+66  -1.6753e+134  2.79964e+200   1.42312e+67  -4.62177e+66  -1.84844e+66   5.54315e+65  -2.85416e+66  -3.32657e+65  -1.28152e+67
  -3.26428e+60  -4.68438e+57   2.04499e+60  -1.08725e+67  -1.6463e+134  4.09371e+200   1.68179e+67  -8.27451e+65   -2.9022e+66  -7.14284e+66  -1.81783e+66  -2.72771e+66  -1.35251e+67
  -4.38912e+60   -1.0151e+59   1.99386e+60  -5.40131e+67  5.50276e+134 -1.52199e+201   4.86532e+67  -3.04149e+67  -7.28373e+66  -1.63145e+67   6.18192e+64   5.93991e+65  -1.69096e+67
  -4.42487e+60  -5.70666e+58   2.10326e+60  -4.17392e+67  2.00643e+134  1.86158e+200   3.92622e+67  -3.00032e+67  -4.67432e+66  -7.06167e+66  -1.07814e+66   2.98904e+66  -1.32056e+67
  -3.30131e+60  -2.31523e+58   1.26737e+60   1.96191e+66 -2.48426e+133  -4.3212e+199   5.35646e+66  -2.94696e+66   1.89903e+66   3.00985e+66  -4.30113e+65   6.65448e+65  -3.93246e+66
  -3.27999e+60   -3.8836e+58   1.20643e+60   1.35383e+67  4.62942e+133   3.4564e+199   1.17043e+67   4.36224e+66   4.36014e+66   4.81588e+66   6.06213e+65  -1.83323e+66  -3.31715e+66
  -4.18875e+60  -1.38575e+59   1.22694e+60  -2.90301e+67  4.87418e+133  1.04916e+200   2.81781e+67  -2.51036e+67   3.07527e+65  -4.23408e+66   1.16069e+66  -1.50569e+66  -6.70167e+66
  -4.20125e+60  -7.00028e+58   1.29481e+60  -3.32892e+67  1.26367e+134 -3.68259e+199   3.13337e+67  -2.82068e+67  -5.97949e+65  -4.48448e+66   2.07332e+64   9.92988e+65  -4.32282e+66
  -4.38912e+60    1.0151e+59   1.99386e+60   2.12244e+66 -7.37796e+134 -3.04895e+201   2.72452e+67  -1.84806e+67    4.6506e+66   1.59524e+67  -6.18192e+64   3.70915e+66   -2.0432e+67
  -4.42487e+60   5.70666e+58   2.10326e+60  -2.21707e+67 -4.62406e+134  6.26896e+200    3.0886e+67   -2.5843e+67  -5.14085e+65   4.18639e+66   1.07814e+66   -3.1987e+66  -1.88137e+67
  -5.63154e+60   9.87591e+58   2.19745e+60  -8.31666e+67  2.70574e+134  1.01936e+200   8.15237e+67  -7.47193e+67   3.33983e+65  -8.78125e+66   6.65784e+65   1.01975e+65  -1.89001e+67
  -5.58851e+60   2.89419e+59   2.15791e+60  -5.49116e+67 -9.48337e+134  -8.2554e+200   6.29572e+67  -6.50796e+67   6.34096e+66   3.82708e+66   3.70995e+66   7.00982e+66  -1.57471e+67
  -4.18875e+60   1.38575e+59   1.22694e+60  -1.74519e+67 -1.27399e+134   -5.276e+199   2.07838e+67   -2.2642e+67   2.76904e+66   2.42111e+66  -1.16069e+66   2.24315e+66  -3.19517e+66
  -4.20125e+60   7.00028e+58   1.29481e+60  -1.53993e+67 -2.02113e+134 -4.50341e+200   2.09583e+67  -2.44034e+67   3.20541e+66   5.79868e+66  -2.07332e+64   -4.8058e+65  -8.59375e+65
  -5.02789e+60   1.27699e+59   1.39083e+60  -9.94988e+67  1.77149e+135 -8.39782e+201   9.01583e+67  -7.81915e+67  -9.22655e+66  -1.20807e+67   -1.1506e+66  -1.95118e+66   -9.4573e+65
   -5.0233e+60   2.53924e+59   1.29183e+60  -9.75895e+67  1.86042e+135 -9.43938e+201   8.75403e+67  -7.41529e+67  -8.82063e+66   -1.4616e+67   1.89357e+66   7.72552e+65   1.48975e+66
  -4.42487e+60   5.70666e+58   2.10326e+60  -1.88777e+67 -5.07084e+134  -6.6604e+200   2.93845e+67  -2.51429e+67   1.37875e+66   4.88648e+66   9.16452e+65   1.22455e+66  -1.88137e+67
  -4.45721e+60   6.50555e+47   2.11903e+60   -1.5318e+67 -5.70008e+134 -1.10104e+201   2.83663e+67  -2.69563e+67   2.13553e+66   9.50271e+66   1.52761e+66  -7.45172e+65  -1.65435e+67
  -5.60738e+60   7.58108e+47   2.25407e+60  -8.64482e+67  8.83839e+134 -1.30525e+201   8.11754e+67  -7.17816e+67  -9.04718e+66  -5.61945e+66   -1.1416e+66   -2.6749e+66  -1.45374e+67
  -5.63154e+60   9.87591e+58   2.19745e+60  -1.07141e+68  2.00354e+135 -1.00311e+202   9.73425e+67  -7.98162e+67  -1.34464e+67  -1.38781e+67  -2.50885e+66  -7.05177e+65  -1.89001e+67
  -4.20125e+60   7.00028e+58   1.29481e+60  -1.50262e+67 -2.09437e+134 -4.30442e+200    2.0862e+67  -2.43241e+67    3.4199e+66   5.87801e+66  -3.68617e+65   1.58162e+66  -8.59375e+65
  -4.20639e+60   4.88717e+47   1.31903e+60  -2.30207e+67 -1.56961e+134 -1.56299e+200    2.6209e+67  -2.85938e+67   1.72028e+66   3.85288e+66   2.42544e+65   -1.1442e+66  -1.69197e+66
   -5.0422e+60   5.71815e+47    1.4116e+60  -8.99759e+67  1.33707e+135 -5.24329e+201   8.22106e+67  -7.25315e+67  -7.06265e+66  -1.03817e+67    6.7612e+65  -9.81443e+65   3.14153e+65
  -5.02789e+60   1.27699e+59   1.39083e+60  -9.91141e+67  1.74429e+135 -8.18647e+201   8.98851e+67  -7.81097e+67  -9.00544e+66   -1.1999e+67  -6.91135e+65   1.74438e+66   -9.4573e+65
  -4.45721e+60   6.50555e+47   2.11903e+60   -1.5318e+67 -5.70008e+134 -1.10104e+201   2.83663e+67  -2.69563e+67   2.13553e+66   9.50271e+66  -1.52761e+66   7.45172e+65  -1.65435e+67
  -4.42487e+60  -5.70666e+58   2.10326e+60  -1.88777e+67 -5.07084e+134  -6.6604e+200   2.93845e+67  -2.51429e+67   1.37875e+66   4.88648e+66  -9.16452e+65  -1.22455e+66  -1.88137e+67
  -5.63154e+60  -9.87591e+58   2.19745e+60  -1.07141e+68  2.00354e+135 -1.00311e+202   9.73425e+67  -7.98162e+67  -1.34464e+67  -1.38781e+67   2.50885e+66   7.05177e+65  -1.89001e+67
  -5.60738e+60   7.58108e+47   2.25407e+60  -8.64482e+67  8.83839e+134 -1.30525e+201   8.11754e+67  -7.17816e+67  -9.04718e+66  -5.61945e+66    1.1416e+66    2.6749e+66  -1.45374e+67
  -4.20639e+60   4.88717e+47   1.31903e+60  -2.30207e+67 -1.56961e+134 -1.56299e+200    2.6209e+67  -2.85938e+67   1.72028e+66   3.85288e+66  -2.42544e+65    1.1442e+66  -1.69197e+66
  -4.20125e+60  -7.00028e+58   1.29481e+60  -1.50262e+67 -2.09437e+134 -4.30442e+200    2.0862e+67  -2.43241e+67    3.4199e+66   5.87801e+66   3.68617e+65  -1.58162e+66  -8.59375e+65
  -5.02789e+60  -1.27699e+59   1.39083e+60  -9.91141e+67  1.74429e+135 -8.18647e+201   8.98851e+67  -7.81097e+67  -9.00544e+66   -1.1999e+67   6.91135e+65  -1.74438e+66   -9.4573e+65
   -5.0422e+60   5.71815e+47    1.4116e+60  -8.99759e+67  1.33707e+135 -5.24329e+201   8.22106e+67  -7.25315e+67  -7.06265e+66  -1.03817e+67   -6.7612e+65   9.81443e+65   3.14153e+65
  -4.42487e+60  -5.70666e+58   2.10326e+60  -2.21707e+67 -4.62406e+134  6.26896e+200    3.0886e+67   -2.5843e+67  -5.14085e+65   4.18639e+66  -1.07814e+66    3.1987e+66  -1.88137e+67
  -4.38912e+60   -1.0151e+59   1.99386e+60   2.12244e+66 -7.37796e+134 -3.04895e+201   2.72452e+67  -1.84806e+67    4.6506e+66   1.59524e+67   6.18192e+64  -3.70915e+66   -2.0432e+67
  -5.58851e+60  -2.89419e+59   2.15791e+60  -5.49116e+67 -9.48337e+134  -8.2554e+200   6.29572e+67  -6.50796e+67   6.34096e+66   3.82708e+66  -3.70995e+66  -7.00982e+66  -1.57471e+67
  -5.63154e+60  -9.87591e+58   2.19745e+60  -8.31666e+67  2.70574e+134  1.01936e+200   8.15237e+67  -7.47193e+67   3.33983e+65  -8.78125e+66  -6.65784e+65  -1.01975e+65  -1.89001e+67
  -4.20125e+60  -7.00028e+58   1.29481e+60  -1.53993e+67 -2.02113e+134 -4.50341e+200   2.09583e+67  -2.44034e+67   3.20541e+66   5.79868e+66   2.07332e+64    4.8058e+65  -8.59375e+65
  -4.18875e+60  -1.38575e+59   1.22694e+60  -1.74519e+67 -1.27399e+134   -5.276e+199   2.07838e+67   -2.2642e+67   2.76904e+66   2.42111e+66   1.16069e+66  -2.24315e+66  -3.19517e+66
   -5.0233e+60  -2.53924e+59   1.29183e+60  -9.75895e+67  1.86042e+135 -9.43938e+201   8.75403e+67  -7.41529e+67  -8.82063e+66   -1.4616e+67  -1.89357e+66  -7.72552e+65   1.48975e+66
  -5.02789e+60  -1.27699e+59   1.39083e+60  -9.94988e+67  1.77149e+135 -8.39782e+201   9.01583e+67  -7.81915e+67  -9.22655e+66  -1.20807e+67    1.1506e+66   1.95118e+66   -9.4573e+65
   2.89235e+58  -1.75054e+59   1.69436e+60   2.47979e+68  1.59055e+136  2.60957e+203   2.13514e+68   9.84446e+67   3.66829e+67   1.12852e+68   2.60843e+67  -2.53978e+67  -4.03688e+67
  -5.26853e+59  -5.32848e+57   2.09334e+60    2.6032e+67 -1.68454e+135 -3.72858e+202   4.86025e+67    8.5486e+66  -1.05027e+67   2.79861e+67   2.82452e+67  -2.69131e+67   4.23771e+66
   -1.2101e+60  -1.76009e+59   2.33095e+60   1.54602e+67 -3.36795e+134  2.26449e+200   2.39961e+67  -5.58711e+65  -9.71967e+66   2.57386e+67  -2.18502e+66  -8.07312e+66   2.77945e+66
  -1.14393e+60  -3.13661e+59   2.33075e+60   1.04671e+68  1.56578e+135  3.40477e+201   9.69036e+67   1.30401e+67   9.24648e+66   8.23848e+67  -4.72556e+66  -6.55781e+66  -1.80425e+67
  -4.54995e+59  -1.71395e+59   1.37598e+60   1.36631e+68  5.19422e+135  5.23121e+202   1.16077e+68   7.47722e+67   1.73324e+67   4.45268e+67    4.7291e+66   3.75675e+66     -1.29e+67
  -5.58754e+59  -4.74084e+58   1.32039e+60   4.60162e+67  2.47457e+134 -2.27197e+201   4.32439e+67   1.27972e+67  -1.93228e+66   3.51512e+67   6.89003e+66   1.86183e+66   7.66759e+66
   -1.1694e+60  -6.35862e+58   1.58887e+60   3.75405e+67  9.16952e+133 -6.11535e+199   3.62987e+67   4.13553e+66   5.56385e+64   3.33493e+67   4.98646e+65   -3.0827e+66   6.20933e+66
  -1.04643e+60  -1.47464e+59    1.5398e+60  -4.58043e+66  -2.8063e+134  2.10531e+201   1.73669e+67  -1.01867e+67   -8.8992e+66   1.45054e+67  -2.04189e+66  -1.18778e+66   9.42625e+66
  -5.26853e+59  -5.32848e+57   2.09334e+60   6.89183e+67  1.16393e+135  1.23575e+201   5.98815e+67   1.76662e+67   1.41484e+67   3.71037e+67   1.45835e+67   5.98479e+66   4.23771e+66
  -7.93457e+59   2.82622e+47   1.79598e+60   8.38695e+67  1.03836e+135 -7.64456e+201   7.74322e+67   4.01926e+66   1.73271e+67   6.25232e+67   1.25955e+67   1.40485e+67  -3.14963e+66
  -1.30046e+60    3.7612e+47   2.26898e+60    5.3149e+67 -2.52501e+134 -1.31823e+201   5.54735e+67   2.48832e+66  -5.33143e+66   5.59921e+67   4.26893e+66     2.928e+66   7.29698e+66
   -1.2101e+60  -1.76009e+59   2.33095e+60   5.45388e+66 -4.22349e+134  1.17567e+201   2.12625e+67  -2.68604e+66  -1.54713e+67   2.36112e+67  -1.04241e+66  -5.13567e+66   2.77945e+66
  -5.58754e+59  -4.74084e+58   1.32039e+60    6.5993e+67  1.10779e+135  4.02104e+201    5.6985e+67   1.70443e+67   9.55048e+66   3.93983e+67   6.17074e+66  -2.42972e+66   7.66759e+66
  -6.47288e+59   2.04754e+47   1.35564e+60   1.52087e+67 -3.58645e+134  3.12362e+199   2.42889e+67  -1.05779e+67  -1.24619e+66   2.70328e+67   4.18271e+66  -1.66542e+66  -5.64973e+66
  -1.20721e+60   2.83829e+47   1.60752e+60   2.47933e+67 -1.48707e+134 -1.22742e+199     2.763e+67  -3.54005e+66   -7.3713e+65   2.90705e+67   1.78616e+66   -8.8101e+65   4.79688e+66
   -1.1694e+60  -6.35862e+58   1.58887e+60   4.28338e+67  2.50788e+134  7.18398e+199   3.97988e+67   5.26088e+66   3.09825e+66   3.44747e+67  -3.52518e+66  -1.64532e+66   6.20933e+66
  -7.93457e+59   2.82622e+47   1.79598e+60   8.38695e+67  1.03836e+135 -7.64456e+201   7.74322e+67   4.01926e+66   1.73271e+67   6.25232e+67  -1.25955e+67  -1.40485e+67  -3.14963e+66
  -5.26853e+59   5.32848e+57   2.09334e+60   6.89183e+67  1.16393e+135  1.23575e+201   5.98815e+67   1.76662e+67   1.41484e+67   3.71037e+67  -1.45835e+67  -5.98479e+66   4.23771e+66
   -1.2101e+60   1.76009e+59   2.33095e+60   5.45388e+66 -4.22349e+134  1.17567e+201   2.12625e+67  -2.68604e+66  -1.54713e+67   2.36112e+67   1.04241e+66   5.13567e+66   2.77945e+66
  -1.30046e+60    3.7612e+47   2.26898e+60    5.3149e+67 -2.52501e+134 -1.31823e+201   5.54735e+67   2.48832e+66  -5.33143e+66   5.59921e+67  -4.26893e+66    -2.928e+66   7.29698e+66
  -6.47288e+59   2.04754e+47   1.35564e+60   1.52087e+67 -3.58645e+134  3.12362e+199   2.42889e+67  -1.05779e+67  -1.24619e+66   2.70328e+67  -4.18271e+66   1.66542e+66  -5.64973e+66
  -5.58754e+59   4.74084e+58   1.32039e+60    6.5993e+67  1.10779e+135  4.02104e+201    5.6985e+67   1.70443e+67   9.55048e+66   3.93983e+67  -6.17074e+66   2.42972e+66   7.66759e+66
   -1.1694e+60   6.35862e+58   1.58887e+60   4.28338e+67  2.50788e+134  7.18398e+199   3.97988e+67   5.26088e+66   3.09825e+66   3.44747e+67   3.52518e+66   1.64532e+66   6.20933e+66
  -1.20721e+60   2.83829e+47   1.60752e+60   2.47933e+67 -1.48707e+134 -1.22742e+199     2.763e+67  -3.54005e+66   -7.3713e+65   2.90705e+67  -1.78616e+66    8.8101e+65   4.79688e+66
  -5.26853e+59   5.32848e+57   2.09334e+60    2.6032e+67 -1.68454e+135 -3.72858e+202   4.86025e+67    8.5486e+66  -1.05027e+67   2.79861e+67  -2.82452e+67   2.69131e+67   4.23771e+66
   2.89235e+58   1.75054e+59   1.69436e+60   2.47979e+68  1.59055e+136  2.60957e+203   2.13514e+68   9.84446e+67   3.66829e+67   1.12852e+68  -2.60843e+67   2.53978e+67  -4.03688e+67
  -1.14393e+60   3.13661e+59   2.33075e+60   1.04671e+68  1.56578e+135  3.40477e+201   9.69036e+67   1.30401e+67   9.24648e+66   8.23848e+67   4.72556e+66   6.55781e+66  -1.80425e+67
   -1.2101e+60   1.76009e+59   2.33095e+60   1.54602e+67 -3.36795e+134  2.26449e+200   2.39961e+67  -5.58711e+65  -9.71967e+66   2.57386e+67   2.18502e+66   8.07312e+66   2.77945e+66
  -5.58754e+59   4.74084e+58   1.32039e+60   4.60162e+67  2.47457e+134 -2.27197e+201   4.32439e+67   1.27972e+67  -1.93228e+66   3.51512e+67  -6.89003e+66  -1.86183e+66   7.66759e+66
  -4.54995e+59   1.71395e+59   1.37598e+60   1.36631e+68  5.19422e+135  5.23121e+202   1.16077e+68   7.47722e+67   1.73324e+67   4.45268e+67   -4.7291e+66  -3.75675e+66     -1.29e+67
  -1.04643e+60   1.47464e+59    1.5398e+60  -4.58043e+66  -2.8063e+134  2.10531e+201   1.73669e+67  -1.01867e+67   -8.8992e+66   1.45054e+67   2.04189e+66   1.18778e+66   9.42625e+66
   -1.1694e+60   6.35862e+58   1.58887e+60   3.75405e+67  9.16952e+133 -6.11535e+199   3.62987e+67   4.13553e+66   5.56385e+64   3.33493e+67  -4.98646e+65    3.0827e+66   6.20933e+66
  -1.14393e+60  -3.13661e+59   2.33075e+60   2.26479e+67 -4.71946e+134  5.88168e+200   3.13827e+67  -4.39795e+66  -8.19157e+66   3.52374e+67  -4.72556e+66    3.7103e+66   5.31528e+66
   -1.2101e+60  -1.76009e+59   2.33095e+60   3.99361e+67 -3.28531e+133 -1.01619e+201   4.03453e+67   4.64482e+66  -4.51614e+66   3.98074e+67  -2.18502e+66   1.62871e+66   3.09387e+66
  -1.88669e+60  -1.41335e+59   2.66239e+60   4.30718e+67  5.08622e+133 -1.20818e+199   4.24772e+67   2.28406e+66   3.13693e+65    4.0474e+67  -5.40861e+65   1.18146e+66   7.30118e+66
  -1.82237e+60  -2.34927e+59   2.65273e+60   4.34592e+67  6.80317e+133 -2.39197e+200   4.26693e+67   3.40126e+66    3.9606e+65   3.96619e+67  -1.80959e+66   3.26305e+66   8.36672e+66
  -1.04643e+60  -1.47464e+59    1.5398e+60   1.98268e+67 -2.49835e+134  4.95541e+200   2.53562e+67   -4.9977e+66  -3.71026e+66   2.85348e+67  -2.04189e+66  -1.60213e+66    3.6279e+66
   -1.1694e+60  -6.35862e+58   1.58887e+60   3.07325e+67  7.12521e+132  -1.1462e+200   3.06164e+67   2.68816e+66  -1.39172e+66   2.94361e+67   4.98646e+65  -2.41192e+66   4.60757e+66
  -1.81396e+60  -6.55659e+58   1.83126e+60   2.68457e+67 -1.31495e+134  6.95794e+199   2.91922e+67  -1.16558e+66  -5.98479e+65   2.86098e+67  -1.05828e+66  -1.70329e+66   8.81489e+66
  -1.76059e+60  -1.32303e+59   1.79718e+60   3.36156e+67  1.79037e+133 -1.46551e+200   3.33482e+67   1.30851e+66   8.40786e+65   3.14663e+67  -2.32701e+66  -8.93503e+65   6.67934e+66
   -1.2101e+60  -1.76009e+59   2.33095e+60   2.99297e+67 -3.49389e+134 -9.98598e+200   3.52871e+67   2.51749e+66  -1.02678e+67   3.76801e+67  -1.04241e+66   4.56616e+66   3.09387e+66
  -1.30046e+60    3.7612e+47   2.26898e+60   2.91682e+67 -5.61392e+134  6.06007e+200    3.7579e+67  -2.60995e+66  -1.04297e+67   4.22079e+67   4.26893e+66     2.928e+66   3.38241e+66
  -1.89032e+60   4.76935e+47   2.65005e+60   4.78536e+67 -4.28468e+133  -3.8222e+200   4.82992e+67   4.85416e+66  -3.18089e+66   4.61804e+67   1.71383e+65   5.83138e+65   1.02132e+67
  -1.88669e+60  -1.41335e+59   2.66239e+60    3.0617e+67 -3.40063e+134 -8.90406e+199   3.57416e+67   -3.6382e+65  -6.84538e+66   3.78262e+67  -3.40826e+66    2.2213e+66   7.30118e+66
   -1.1694e+60  -6.35862e+58   1.58887e+60   3.60258e+67  1.38689e+134  -1.9439e+200   3.40466e+67   3.81351e+66   1.65089e+66   3.05614e+67  -3.52518e+66  -9.74537e+65   4.60757e+66
  -1.20721e+60   2.83829e+47   1.60752e+60   2.07783e+67 -1.59813e+134  1.04183e+200   2.43218e+67  -4.39364e+66  -1.59072e+66   2.67626e+67   1.78616e+66   -8.8101e+65    1.6366e+66
  -1.83402e+60   3.67801e+47   1.84401e+60   2.99017e+67 -3.83625e+133 -4.26352e+199   3.05365e+67   1.03762e+66   1.61864e+65   2.87023e+67   9.48127e+65  -6.02411e+65   8.46737e+66
  -1.81396e+60  -6.55659e+58   1.83126e+60   2.71511e+67 -1.28334e+134 -1.19541e+200   2.94197e+67  -1.10065e+66  -4.22914e+65   2.86747e+67  -2.63152e+66  -6.95937e+65   8.81489e+66
  -1.30046e+60    3.7612e+47   2.26898e+60   2.91682e+67 -5.61392e+134  6.06007e+200    3.7579e+67  -2.60995e+66  -1.04297e+67   4.22079e+67  -4.26893e+66    -2.928e+66   3.38241e+66
   -1.2101e+60   1.76009e+59   2.33095e+60   2.99297e+67 -3.49389e+134 -9.98598e+200   3.52871e+67   2.51749e+66  -1.02678e+67   3.76801e+67   1.04241e+66  -4.56616e+66   3.09387e+66
  -1.88669e+60   1.41335e+59   2.66239e+60    3.0617e+67 -3.40063e+134 -8.90406e+199   3.57416e+67   -3.6382e+65  -6.84538e+66   3.78262e+67   3.40826e+66   -2.2213e+66   7.30118e+66
  -1.89032e+60   4.76935e+47   2.65005e+60   4.78536e+67 -4.28468e+133  -3.8222e+200   4.82992e+67   4.85416e+66  -3.18089e+66   4.61804e+67  -1.71383e+65  -5.83138e+65   1.02132e+67
  -1.20721e+60   2.83829e+47   1.60752e+60   2.07783e+67 -1.59813e+134  1.04183e+200   2.43218e+67  -4.39364e+66  -1.59072e+66   2.67626e+67  -1.78616e+66    8.8101e+65    1.6366e+66
   -1.1694e+60   6.35862e+58   1.58887e+60   3.60258e+67  1.38689e+134  -1.9439e+200   3.40466e+67   3.81351e+66   1.65089e+66   3.05614e+67   3.52518e+66   9.74537e+65   4.60757e+66
  -1.81396e+60   6.55659e+58   1.83126e+60   2.71511e+67 -1.28334e+134 -1.19541e+200   2.94197e+67  -1.10065e+66  -4.22914e+65   2.86747e+67   2.63152e+66   6.95937e+65   8.81489e+66
  -1.83402e+60   3.67801e+47   1.84401e+60   2.99017e+67 -3.83625e+133 -4.26352e+199   3.05365e+67   1.03762e+66   1.61864e+65   2.87023e+67  -9.48127e+65   6.02411e+65   8.46737e+66
   -1.2101e+60   1.76009e+59   2.33095e+60   3.99361e+67 -3.28531e+133 -1.01619e+201   4.03453e+67   4.64482e+66  -4.51614e+66   3.98074e+67   2.18502e+66  -1.62871e+66   3.09387e+66
  -1.14393e+60   3.13661e+59   2.33075e+60   2.26479e+67 -4.71946e+134  5.88168e+200   3.13827e+67  -4.39795e+66  -8.19157e+66   3.52374e+67   4.72556e+66   -3.7103e+66   5.31528e+66
  -1.82237e+60   2.34927e+59   2.65273e+60   4.34592e+67  6.80317e+133 -2.39197e+200   4.26693e+67   3.40126e+66    3.9606e+65   3.96619e+67   1.80959e+66  -3.26305e+66   8.36672e+66
  -1.88669e+60   1.41335e+59   2.66239e+60   4.30718e+67  5.08622e+133 -1.20818e+199   4.24772e+67   2.28406e+66   3.13693e+65    4.0474e+67   5.40861e+65  -1.18146e+66   7.30118e+66
   -1.1694e+60   6.35862e+58   1.58887e+60   3.07325e+67  7.12521e+132  -1.1462e+200   3.06164e+67   2.68816e+66  -1.39172e+66   2.94361e+67  -4.98646e+65   2.41192e+66   4.60757e+66
  -1.04643e+60   1.47464e+59    1.5398e+60   1.98268e+67 -2.49835e+134  4.95541e+200   2.53562e+67   -4.9977e+66  -3.71026e+66   2.85348e+67   2.04189e+66   1.60213e+66    3.6279e+66
  -1.76059e+60   1.32303e+59   1.79718e+60   3.36156e+67  1.79037e+133 -1.46551e+200   3.33482e+67   1.30851e+66   8.40786e+65   3.14663e+67   2.32701e+66   8.93503e+65   6.67934e+66
  -1.81396e+60   6.55659e+58   1.83126e+60   2.68457e+67 -1.31495e+134  6.95794e+199   2.91922e+67  -1.16558e+66  -5.98479e+65   2.86098e+67   1.05828e+66   1.70329e+66   8.81489e+66
  -1.82237e+60  -2.34927e+59   2.65273e+60   2.78019e+67 -1.94342e+134  3.84123e+199   3.11013e+67   7.25427e+64  -2.93265e+66    3.0662e+67  -1.80959e+66   3.49203e+66   9.53748e+66
  -1.88669e+60  -1.41335e+59   2.66239e+60   3.40239e+67 -1.20453e+134  4.80845e+199   3.57502e+67   3.60486e+65  -1.60988e+66   3.52733e+67  -5.40861e+65   2.92194e+66   8.18367e+66
  -2.54461e+60  -6.98204e+58   2.95915e+60    4.5583e+67  1.16286e+134  2.20784e+199   4.42891e+67   5.86455e+66   1.98775e+66   3.77307e+67   1.53507e+66   1.27771e+66   1.36987e+67
  -2.47604e+60  -1.51345e+59   2.91468e+60   4.13546e+67  8.00248e+133  8.86421e+197   4.03755e+67    6.7225e+66    1.0888e+66   3.35433e+67  -3.17632e+65    1.8478e+66   1.36307e+67
  -1.76059e+60  -1.32303e+59   1.79718e+60   1.22058e+67 -1.86287e+134  3.10429e+200   1.83104e+67  -3.24316e+66  -3.71089e+66   1.91599e+67  -2.32701e+66   1.04775e+66   7.65314e+66
  -1.81396e+60  -6.55659e+58   1.83126e+60   1.05768e+67 -1.93922e+134  5.21284e+200   1.74869e+67  -4.62432e+66  -4.05721e+66   1.92584e+67  -1.05828e+66  -1.06308e+65   6.66037e+66
  -2.50411e+60  -3.37427e+58   2.01128e+60   2.53605e+67 -8.03089e+133 -1.72838e+200   2.68973e+67   1.56528e+66   1.39388e+66   2.24014e+67   6.56621e+65  -3.28709e+65   1.21754e+67
  -2.45414e+60  -7.60519e+58    1.9725e+60    2.8983e+67  1.09531e+133 -1.55813e+200   2.87935e+67   4.09232e+66   2.16402e+66   2.27267e+67  -1.19608e+66   8.25344e+65   1.17464e+67
  -1.88669e+60  -1.41335e+59   2.66239e+60   2.15691e+67 -4.34944e+134   6.7759e+200   3.00028e+67  -2.28739e+66  -8.76895e+66   3.26254e+67  -3.40826e+66   3.96178e+66   8.18367e+66
  -1.89032e+60   4.76935e+47   2.65005e+60   2.80913e+67 -2.77253e+134  1.10758e+200   3.26554e+67   6.52713e+65  -7.38233e+66   3.48209e+67   1.71383e+65   5.83138e+65   6.14276e+66
  -2.56634e+60   5.85604e+47   2.95537e+60   5.04819e+67  3.04049e+134  4.31889e+200   4.73748e+67    6.7656e+66   4.13516e+66   3.95811e+67   1.02675e+66   1.78692e+65    1.2422e+67
  -2.54461e+60  -6.98204e+58   2.95915e+60   4.86363e+67  2.17253e+134  6.72168e+199   4.63491e+67   6.51368e+66   3.74281e+66   3.83799e+67  -6.77712e+65   3.55734e+66   1.36987e+67
  -1.81396e+60  -6.55659e+58   1.83126e+60   1.08823e+67 -1.97508e+134  3.52478e+200   1.77745e+67  -4.55938e+66  -3.88165e+66   1.93233e+67  -2.63152e+66   9.01049e+65   6.66037e+66
  -1.83402e+60   3.67801e+47   1.84401e+60   1.31848e+67 -1.35421e+134  2.41846e+200   1.75858e+67  -2.51638e+66  -3.39213e+66   1.90933e+67   9.48127e+65  -6.02411e+65   5.46642e+66
  -2.52436e+60   4.55952e+47   2.01641e+60   2.52211e+67 -5.86273e+133 -2.59563e+200   2.63578e+67    1.3952e+66   2.17368e+66   2.16522e+67   9.56529e+65  -2.42661e+65   1.17457e+67
  -2.50411e+60  -3.37427e+58   2.01128e+60   2.75953e+67 -3.69749e+133 -3.11035e+200   2.82573e+67   2.04039e+66   2.67843e+66   2.28765e+67  -7.47931e+65    1.2608e+66   1.21754e+67
  -1.89032e+60   4.76935e+47   2.65005e+60   2.80913e+67 -2.77253e+134  1.10758e+200   3.26554e+67   6.52713e+65  -7.38233e+66   3.48209e+67  -1.71383e+65  -5.83138e+65   6.14276e+66
  -1.88669e+60   1.41335e+59   2.66239e+60   2.15691e+67 -4.34944e+134   6.7759e+200   3.00028e+67  -2.28739e+66  -8.76895e+66   3.26254e+67   3.40826e+66  -3.96178e+66   8.18367e+66
  -2.54461e+60   6.98204e+58   2.95915e+60   4.86363e+67  2.17253e+134  6.72168e+199   4.63491e+67   6.51368e+66   3.74281e+66   3.83799e+67   6.77712e+65  -3.55734e+66   1.36987e+67
  -2.56634e+60   5.85604e+47   2.95537e+60   5.04819e+67  3.04049e+134  4.31889e+200   4.73748e+67    6.7656e+66   4.13516e+66   3.95811e+67  -1.02675e+66  -1.78692e+65    1.2422e+67
  -1.83402e+60   3.67801e+47   1.84401e+60   1.31848e+67 -1.35421e+134  2.41846e+200   1.75858e+67  -2.51638e+66  -3.39213e+66   1.90933e+67  -9.48127e+65   6.02411e+65   5.46642e+66
  -1.81396e+60   6.55659e+58   1.83126e+60   1.08823e+67 -1.97508e+134  3.52478e+200   1.77745e+67  -4.55938e+66  -3.88165e+66   1.93233e+67   2.63152e+66  -9.01049e+65   6.66037e+66
  -2.50411e+60   3.37427e+58   2.01128e+60   2.75953e+67 -3.69749e+133 -3.11035e+200   2.82573e+67   2.04039e+66   2.67843e+66   2.28765e+67   7.47931e+65   -1.2608e+66   1.21754e+67
  -2.52436e+60   4.55952e+47   2.01641e+60   2.52211e+67 -5.86273e+133 -2.59563e+200   2.63578e+67    1.3952e+66   2.17368e+66   2.16522e+67  -9.56529e+65   2.42661e+65   1.17457e+67
  -1.88669e+60   1.41335e+59   2.66239e+60   3.40239e+67 -1.20453e+134  4.80845e+199   3.57502e+67   3.60486e+65  -1.60988e+66   3.52733e+67   5.40861e+65  -2.92194e+66   8.18367e+66
  -1.82237e+60   2.34927e+59   2.65273e+60   2.78019e+67 -1.94342e+134  3.84123e+199   3.11013e+67   7.25427e+64  -2.93265e+66    3.0662e+67   1.80959e+66  -3.49203e+66   9.53748e+66
  -2.47604e+60   1.51345e+59   2.91468e+60   4.13546e+67  8.00248e+133  8.86421e+197   4.03755e+67    6.7225e+66    1.0888e+66   3.35433e+67   3.17632e+65   -1.8478e+66   1.36307e+67
  -2.54461e+60   6.98204e+58   2.95915e+60    4.5583e+67  1.16286e+134  2.20784e+199   4.42891e+67   5.86455e+66   1.98775e+66   3.77307e+67  -1.53507e+66  -1.27771e+66   1.36987e+67
  -1.81396e+60   6.55659e+58   1.83126e+60   1.05768e+67 -1.93922e+134  5.21284e+200   1.74869e+67  -4.62432e+66  -4.05721e+66   1.92584e+67   1.05828e+66   1.06308e+65   6.66037e+66
  -1.76059e+60   1.32303e+59   1.79718e+60   1.22058e+67 -1.86287e+134  3.10429e+200   1.83104e+67  -3.24316e+66  -3.71089e+66   1.91599e+67   2.32701e+66  -1.04775e+66   7.65314e+66
  -2.45414e+60   7.60519e+58    1.9725e+60    2.8983e+67  1.09531e+133 -1.55813e+200   2.87935e+67   4.09232e+66   2.16402e+66   2.27267e+67   1.19608e+66  -8.25344e+65   1.17464e+67
  -2.50411e+60   3.37427e+58   2.01128e+60   2.53605e+67 -8.03089e+133 -1.72838e+200   2.68973e+67   1.56528e+66   1.39388e+66   2.24014e+67  -6.56621e+65   3.28709e+65   1.21754e+67
  -2.47604e+60  -1.51345e+59   2.91468e+60   5.73125e+67  5.97706e+134  1.56127e+201   5.18364e+67   1.01151e+67   4.48142e+66    4.2716e+67  -3.17632e+65   2.63234e+66   8.00621e+66
  -2.54461e+60  -6.98204e+58   2.95915e+60   3.45942e+67  3.81622e+133  -6.4137e+199   3.40381e+67   3.52834e+66  -3.48459e+65   3.14143e+67   1.53507e+66   1.78185e+66   7.41422e+66
  -3.33554e+60   1.23651e+58   3.21378e+60   5.02103e+67  2.89332e+134  3.50564e+200   4.72413e+67   1.08035e+67   4.67247e+66   3.47343e+67   4.16779e+66   5.01774e+66   1.60046e+67
  -3.24875e+60  -5.11576e+58    3.2378e+60    7.1772e+67  9.14056e+134  3.10973e+201   6.50935e+67   1.67255e+67   9.25647e+66     4.579e+67   1.46208e+66   5.86823e+66    1.9847e+67
  -2.45414e+60  -7.60519e+58    1.9725e+60   2.16061e+66 -7.62061e+133  1.45621e+200   8.99302e+66  -1.61009e+66  -3.53838e+66   7.30908e+66  -1.19608e+66   1.98214e+66   6.23804e+66
  -2.50411e+60  -3.37427e+58   2.01128e+60  -2.60956e+66 -6.66171e+133  2.60294e+200   8.56895e+66  -4.38112e+66  -4.55251e+66   6.32406e+66   6.56621e+65   2.78645e+65    5.4366e+66
  -3.33691e+60   1.09362e+58   2.08408e+60   1.77166e+67  -1.2142e+134  -5.9783e+200   2.08638e+67   3.89545e+66    3.1758e+66   1.06454e+67    3.4988e+66   2.64086e+65    1.4027e+67
  -3.26428e+60   4.68438e+57   2.04499e+60   2.13302e+67 -1.94448e+134 -9.93587e+200   2.54839e+67   6.00168e+66   3.94405e+66   1.13845e+67   7.93086e+65   1.96758e+66   1.80789e+67
  -2.54461e+60  -6.98204e+58   2.95915e+60   3.76475e+67  1.12995e+134 -1.33679e+199   3.61156e+67   4.17747e+66    1.4066e+66   3.20634e+67  -6.77712e+65   4.06147e+66   7.41422e+66
  -2.56634e+60   5.85604e+47   2.95537e+60   2.61198e+67 -1.56663e+133 -3.95087e+199    2.6418e+67   1.58626e+66  -1.04418e+66   2.55777e+67   1.02675e+66   1.78692e+65   5.17579e+66
  -3.39574e+60   7.13428e+47   3.16729e+60   5.09774e+67  5.69545e+134  1.23225e+201   4.50461e+67   8.10896e+66   1.20061e+67   3.08624e+67   2.84383e+66   2.19617e+66    1.1649e+67
  -3.33554e+60   1.23651e+58   3.21378e+60   7.00071e+67  1.14913e+135  4.95431e+201   6.12525e+67   1.50123e+67   1.60518e+67    3.8943e+67   2.91134e+66   6.07895e+66   1.60046e+67
  -2.50411e+60  -3.37427e+58   2.01128e+60  -3.74802e+65 -6.96184e+133  1.78015e+200   8.35218e+66  -3.90601e+66  -3.26797e+66   6.79917e+66  -7.47931e+65   1.86815e+66    5.4366e+66
  -2.52436e+60   4.55952e+47   2.01641e+60  -2.12077e+65  -5.9723e+133  1.50057e+200   7.73098e+66  -4.01185e+66  -3.23337e+66   7.03314e+66   9.56529e+65  -2.42661e+65   4.55679e+66
  -3.36686e+60   5.48886e+47   2.09133e+60   1.48612e+67   -7.464e+133 -5.22849e+200     1.719e+67   4.30715e+65   4.19282e+66   1.02377e+67   1.41499e+66   -3.4235e+65     1.103e+67
  -3.33691e+60   1.09362e+58   2.08408e+60   2.22005e+67 -5.12193e+133 -7.75523e+200   2.33255e+67   4.84871e+66   5.75313e+66   1.15986e+67   1.48249e+66   1.76846e+66    1.4027e+67
  -2.56634e+60   5.85604e+47   2.95537e+60   2.61198e+67 -1.56663e+133 -3.95087e+199    2.6418e+67   1.58626e+66  -1.04418e+66   2.55777e+67  -1.02675e+66  -1.78692e+65   5.17579e+66
  -2.54461e+60   6.98204e+58   2.95915e+60   3.76475e+67  1.12995e+134 -1.33679e+199   3.61156e+67   4.17747e+66    1.4066e+66   3.20634e+67   6.77712e+65  -4.06147e+66   7.41422e+66
  -3.33554e+60  -1.23651e+58   3.21378e+60   7.00071e+67  1.14913e+135  4.95431e+201   6.12525e+67   1.50123e+67   1.60518e+67    3.8943e+67  -2.91134e+66  -6.07895e+66   1.60046e+67
  -3.39574e+60   7.13428e+47   3.16729e+60   5.09774e+67  5.69545e+134  1.23225e+201   4.50461e+67   8.10896e+66   1.20061e+67   3.08624e+67  -2.84383e+66  -2.19617e+66    1.1649e+67
  -2.52436e+60   4.55952e+47   2.01641e+60  -2.12077e+65  -5.9723e+133  1.50057e+200   7.73098e+66  -4.01185e+66  -3.23337e+66   7.03314e+66  -9.56529e+65   2.42661e+65   4.55679e+66
  -2.50411e+60   3.37427e+58   2.01128e+60  -3.74802e+65 -6.96184e+133  1.78015e+200   8.35218e+66  -3.90601e+66  -3.26797e+66   6.79917e+66   7.47931e+65  -1.86815e+66    5.4366e+66
  -3.33691e+60  -1.09362e+58   2.08408e+60   2.22005e+67 -5.12193e+133 -7.75523e+200   2.33255e+67   4.84871e+66   5.75313e+66   1.15986e+67  -1.48249e+66  -1.76846e+66    1.4027e+67
  -3.36686e+60   5.48886e+47   2.09133e+60   1.48612e+67   -7.464e+133 -5.22849e+200     1.719e+67   4.30715e+65   4.19282e+66   1.02377e+67  -1.41499e+66    3.4235e+65     1.103e+67
  -2.54461e+60   6.98204e+58   2.95915e+60   3.45942e+67  3.81622e+133  -6.4137e+199   3.40381e+67   3.52834e+66  -3.48459e+65   3.14143e+67  -1.53507e+66  -1.78185e+66   7.41422e+66
  -2.47604e+60   1.51345e+59   2.91468e+60   5.73125e+67  5.97706e+134  1.56127e+201   5.18364e+67   1.01151e+67   4.48142e+66    4.2716e+67   3.17632e+65  -2.63234e+66   8.00621e+66
  -3.24875e+60   5.11576e+58    3.2378e+60    7.1772e+67  9.14056e+134  3.10973e+201   6.50935e+67   1.67255e+67   9.25647e+66     4.579e+67  -1.46208e+66  -5.86823e+66    1.9847e+67
  -3.33554e+60  -1.23651e+58   3.21378e+60   5.02103e+67  2.89332e+134  3.50564e+200   4.72413e+67   1.08035e+67   4.67247e+66   3.47343e+67  -4.16779e+66  -5.01774e+66   1.60046e+67
  -2.50411e+60   3.37427e+58   2.01128e+60  -2.60956e+66 -6.66171e+133  2.60294e+200   8.56895e+66  -4.38112e+66  -4.55251e+66   6.32406e+66  -6.56621e+65  -2.78645e+65    5.4366e+66
  -2.45414e+60   7.60519e+58    1.9725e+60   2.16061e+66 -7.62061e+133  1.45621e+200   8.99302e+66  -1.61009e+66  -3.53838e+66   7.30908e+66   1.19608e+66  -1.98214e+66   6.23804e+66
  -3.26428e+60  -4.68438e+57   2.04499e+60   2.13302e+67 -1.94448e+134 -9.93587e+200   2.54839e+67   6.00168e+66   3.94405e+66   1.13845e+67  -7.93086e+65  -1.96758e+66   1.80789e+67
  -3.33691e+60  -1.09362e+58   2.08408e+60   1.77166e+67  -1.2142e+134  -5.9783e+200   2.08638e+67   3.89545e+66    3.1758e+66   1.06454e+67   -3.4988e+66  -2.64086e+65    1.4027e+67
  -3.24875e+60  -5.11576e+58    3.2378e+60    5.4827e+67  6.66087e+134  2.05842e+201   4.83726e+67    1.3123e+67   5.65398e+66     3.605e+67   1.46208e+66   4.92193e+66   7.65887e+66
  -3.33554e+60   1.23651e+58   3.21378e+60   1.18537e+67 -7.92608e+133 -3.50922e+200   1.48247e+67   2.64901e+66  -3.48207e+66   1.26868e+67   4.16779e+66   2.45853e+66  -6.00442e+66
  -4.59234e+60   4.03808e+58   3.32138e+60  -1.85863e+67 -3.45529e+134  7.39925e+200   2.62865e+67  -1.97748e+67  -5.02679e+66   6.21529e+66   1.39936e+67    9.5721e+66  -1.82708e+66
  -4.27945e+60   2.89998e+58   3.49597e+60   9.29868e+67  1.94962e+135  1.16303e+202   8.18348e+67   3.01306e+67   1.86935e+67   4.41627e+67   1.13562e+67   1.20355e+67   2.22715e+67
  -3.26428e+60   4.68438e+57   2.04499e+60  -1.09198e+67  1.10503e+133  3.69846e+199   1.04015e+67  -8.54622e+65  -2.91225e+66  -7.15289e+66   7.93086e+65   2.72771e+66   3.21143e+66
  -3.33691e+60   1.09362e+58   2.08408e+60   3.72778e+66 -1.31286e+133 -2.76961e+199   5.19855e+66    9.2144e+65   2.01793e+65   2.60454e+66    3.4988e+66   3.32657e+65   1.97174e+66
  -4.42487e+60   5.70666e+58   2.10326e+60  -2.70897e+67  7.74562e+133  8.90056e+199   2.56202e+67  -2.15826e+67  -1.55985e+66   -3.9472e+66   9.00996e+65  -2.98904e+66   6.14908e+66
  -4.38912e+60    1.0151e+59   1.99386e+60   2.68627e+67 -1.38923e+134 -2.97992e+201   2.93347e+67   1.60728e+67   9.91033e+66   8.79597e+65  -1.73637e+66  -5.93991e+65    1.7824e+67
  -3.33554e+60   1.23651e+58   3.21378e+60   3.16506e+67  2.46534e+134  2.79083e+200   2.74814e+67   6.85779e+66   7.89722e+66   1.68956e+67   2.91134e+66   3.51975e+66  -6.00442e+66
  -3.39574e+60   7.13428e+47   3.16729e+60   1.12622e+67 -3.46122e+133 -3.23534e+200   1.27063e+67  -3.34428e+65   3.56269e+66   8.03397e+66   2.84383e+66   2.19617e+66  -6.81513e+66
  -4.61596e+60   8.58283e+47   3.22698e+60  -1.53092e+67 -1.01705e+134   2.6711e+200   1.83324e+67  -1.82549e+67   5.60804e+65   2.38493e+66   1.11602e+66   4.45971e+66  -5.30415e+66
  -4.59234e+60   4.03808e+58   3.32138e+60  -5.08325e+66 -2.11864e+134  1.28307e+200   1.54176e+67  -1.69041e+67   2.73482e+66   9.08602e+66   3.27713e+65   5.78329e+66  -1.82708e+66
  -3.33691e+60   1.09362e+58   2.08408e+60   8.21163e+66  1.23072e+133  4.32548e+198   7.42453e+66    1.8747e+66   2.77912e+66    3.5578e+66   1.48249e+66   1.83704e+66   1.97174e+66
  -3.36686e+60   5.48886e+47   2.09133e+60   2.54621e+66 -7.96123e+132 -1.70182e+199   3.80058e+66  -2.18744e+66   1.57467e+66   3.15899e+66   1.41499e+66   -3.4235e+65  -6.79412e+65
  -4.45721e+60   6.50555e+47   2.11903e+60  -1.92996e+67   -1.744e+132  4.78674e+199   1.93448e+67  -1.91033e+67   1.28904e+66   -1.4854e+66   1.52761e+66  -7.45172e+65   8.31573e+65
  -4.42487e+60   5.70666e+58   2.10326e+60  -2.37967e+67  1.93582e+133   6.7758e+199   2.33864e+67  -2.08825e+67   3.32986e+65  -3.24711e+66    7.3931e+65   1.43421e+66   6.14908e+66
  -3.39574e+60   7.13428e+47   3.16729e+60   1.12622e+67 -3.46122e+133 -3.23534e+200   1.27063e+67  -3.34428e+65   3.56269e+66   8.03397e+66  -2.84383e+66  -2.19617e+66  -6.81513e+66
  -3.33554e+60  -1.23651e+58   3.21378e+60   3.16506e+67  2.46534e+134  2.79083e+200   2.74814e+67   6.85779e+66   7.89722e+66   1.68956e+67  -2.91134e+66  -3.51975e+66  -6.00442e+66
  -4.59234e+60  -4.03808e+58   3.32138e+60  -5.08325e+66 -2.11864e+134  1.28307e+200   1.54176e+67  -1.69041e+67   2.73482e+66   9.08602e+66  -3.27713e+65  -5.78329e+66  -1.82708e+66
  -4.61596e+60   8.58283e+47   3.22698e+60  -1.53092e+67 -1.01705e+134   2.6711e+200   1.83324e+67  -1.82549e+67   5.60804e+65   2.38493e+66  -1.11602e+66  -4.45971e+66  -5.30415e+66
  -3.36686e+60   5.48886e+47   2.09133e+60   2.54621e+66 -7.96123e+132 -1.70182e+199   3.80058e+66  -2.18744e+66   1.57467e+66   3.15899e+66  -1.41499e+66    3.4235e+65  -6.79412e+65
  -3.33691e+60  -1.09362e+58   2.08408e+60   8.21163e+66  1.23072e+133  4.32548e+198   7.42453e+66    1.8747e+66   2.77912e+66    3.5578e+66  -1.48249e+66  -1.83704e+66   1.97174e+66
  -4.42487e+60  -5.70666e+58   2.10326e+60  -2.37967e+67  1.93582e+133   6.7758e+199   2.33864e+67  -2.08825e+67   3.32986e+65  -3.24711e+66   -7.3931e+65  -1.43421e+66   6.14908e+66
  -4.45721e+60   6.50555e+47   2.11903e+60  -1.92996e+67   -1.744e+132  4.78674e+199   1.93448e+67  -1.91033e+67   1.28904e+66   -1.4854e+66  -1.52761e+66   7.45172e+65   8.31573e+65
  -3.33554e+60  -1.23651e+58   3.21378e+60   1.18537e+67 -7.92608e+133 -3.50922e+200   1.48247e+67   2.64901e+66  -3.48207e+66   1.26868e+67  -4.16779e+66  -2.45853e+66  -6.00442e+66
  -3.24875e+60   5.11576e+58    3.2378e+60    5.4827e+67  6.66087e+134  2.05842e+201   4.83726e+67    1.3123e+67   5.65398e+66     3.605e+67  -1.46208e+66  -4.92193e+66   7.65887e+66
  -4.27945e+60  -2.89998e+58   3.49597e+60   9.29868e+67  1.94962e+135  1.16303e+202   8.18348e+67   3.01306e+67   1.86935e+67   4.41627e+67  -1.13562e+67  -1.20355e+67   2.22715e+67
  -4.59234e+60  -4.03808e+58   3.32138e+60  -1.85863e+67 -3.45529e+134  7.39925e+200   2.62865e+67  -1.97748e+67  -5.02679e+66   6.21529e+66  -1.39936e+67   -9.5721e+66  -1.82708e+66
  -3.33691e+60  -1.09362e+58   2.08408e+60   3.72778e+66 -1.31286e+133 -2.76961e+199   5.19855e+66    9.2144e+65   2.01793e+65   2.60454e+66   -3.4988e+66  -3.32657e+65   1.97174e+66
  -3.26428e+60  -4.68438e+57   2.04499e+60  -1.09198e+67  1.10503e+133  3.69846e+199   1.04015e+67  -8.54622e+65  -2.91225e+66  -7.15289e+66  -7.93086e+65  -2.72771e+66   3.21143e+66
  -4.38912e+60   -1.0151e+59   1.99386e+60   2.68627e+67 -1.38923e+134 -2.97992e+201   2.93347e+67   1.60728e+67   9.91033e+66   8.79597e+65   1.73637e+66   5.93991e+65    1.7824e+67
  -4.42487e+60  -5.70666e+58   2.10326e+60  -2.70897e+67  7.74562e+133  8.90056e+199   2.56202e+67  -2.15826e+67  -1.55985e+66   -3.9472e+66  -9.00996e+65   2.98904e+66   6.14908e+66
  -4.27945e+60   2.89998e+58   3.49597e+60   -5.4527e+67 -1.06339e+135  1.87661e+202   6.35341e+67  -1.23056e+66  -1.26677e+67  -4.06287e+67   1.13562e+67   5.36657e+66  -3.85471e+67
  -4.59234e+60   4.03808e+58   3.32138e+60   2.74575e+67  -1.3815e+135 -1.05718e+202   4.62106e+67  -9.98597e+66   4.76206e+66   3.26814e+67   1.39936e+67  -2.20777e+66  -3.10246e+67
  -6.46715e+60  -1.80944e+59   3.60548e+60  -1.05016e+68 -1.42949e+135  7.23898e+202   1.11614e+68  -1.01281e+68  -8.25283e+66   4.51788e+66  -1.93719e+67   -3.0148e+67  -2.20525e+67
  -6.59748e+60  -3.20016e+58   3.18867e+60  -3.04521e+68  2.32099e+136 -5.07507e+203   2.63672e+68  -1.60076e+68  -5.06673e+67  -9.37769e+67  -2.13428e+67  -2.25736e+67  -6.08159e+67
  -4.38912e+60    1.0151e+59   1.99386e+60   8.29982e+67  2.04291e+135  1.51417e+202   6.96118e+67   2.80071e+67   2.18447e+67   3.31465e+67  -1.73637e+66   3.70915e+66   1.43016e+67
  -4.42487e+60   5.70666e+58   2.10326e+60  -7.52113e+66 -1.64854e+134 -1.62311e+200   1.48802e+67  -1.74224e+67   2.60039e+66   7.30086e+66   9.00996e+65   -3.1987e+66   5.40922e+65
  -5.63154e+60   9.87591e+58   2.19745e+60  -1.43674e+68  3.79782e+135 -2.58779e+202   1.29786e+68  -1.09499e+68  -1.25299e+67  -2.16451e+67  -1.11813e+67   1.01975e+65   9.51301e+66
  -5.58851e+60   2.89419e+59   2.15791e+60  -1.70675e+68  5.23452e+135 -3.72892e+202   1.54582e+68  -1.31621e+68  -1.82703e+67  -2.07842e+67  -1.31522e+67   7.00982e+66  -7.96716e+66
  -4.59234e+60   4.03808e+58   3.32138e+60   4.09606e+67 -8.95419e+134 -1.48484e+202   5.07266e+67  -7.11524e+66   1.25237e+67   3.55522e+67   3.27713e+65  -5.99658e+66  -3.10246e+67
  -4.61596e+60   8.58283e+47   3.22698e+60  -9.50525e+66 -7.41013e+134 -1.16845e+201   2.88334e+67   -1.7021e+67   1.79471e+66   5.72104e+66   1.11602e+66   4.45971e+66  -2.45402e+67
  -6.24334e+60   1.02539e+48   3.30891e+60  -1.91732e+68  1.00362e+136 -1.18845e+203   1.63478e+68  -1.00853e+68   -5.7859e+67  -3.30201e+67  -1.05733e+67   1.40108e+67  -2.70489e+67
  -6.46715e+60  -1.80944e+59   3.60548e+60  -1.91073e+68  8.27974e+135 -5.39859e+202   1.68015e+68  -1.19576e+68  -5.77189e+67  -1.37778e+67  -2.37876e+67    3.5545e+66  -2.20525e+67
  -4.42487e+60   5.70666e+58   2.10326e+60  -4.22811e+66  -1.7532e+134   -5.808e+200   1.38995e+67  -1.67223e+67   4.49323e+66   8.00095e+66    7.3931e+65   1.22455e+66   5.40922e+65
  -4.45721e+60   6.50555e+47   2.11903e+60   8.70008e+66 -1.88423e+134 -1.44232e+201   1.62516e+67  -1.31506e+67   7.24174e+66   1.46089e+67   1.52761e+66  -7.45172e+65  -1.99475e+66
  -5.60738e+60   7.58108e+47   2.25407e+60  -1.04914e+68  1.95048e+135 -9.36533e+201   9.51651e+67  -8.23955e+67  -1.29729e+67  -9.54517e+66   -1.1416e+66   -2.6749e+66  -4.50348e+66
  -5.63154e+60   9.87591e+58   2.19745e+60  -1.67648e+68  6.48608e+135 -7.24864e+202   1.47037e+68  -1.14596e+68  -2.63102e+67  -2.67419e+67  -1.43559e+67  -7.05177e+65   9.51301e+66
  -4.61596e+60   8.58283e+47   3.22698e+60  -9.50525e+66 -7.41013e+134 -1.16845e+201   2.88334e+67   -1.7021e+67   1.79471e+66   5.72104e+66  -1.11602e+66  -4.45971e+66  -2.45402e+67
  -4.59234e+60  -4.03808e+58   3.32138e+60   4.09606e+67 -8.95419e+134 -1.48484e+202   5.07266e+67  -7.11524e+66   1.25237e+67   3.55522e+67  -3.27713e+65   5.99658e+66  -3.10246e+67
  -6.46715e+60   1.80944e+59   3.60548e+60  -1.91073e+68  8.27974e+135 -5.39859e+202   1.68015e+68  -1.19576e+68  -5.77189e+67  -1.37778e+67   2.37876e+67   -3.5545e+66  -2.20525e+67
  -6.24334e+60   1.02539e+48   3.30891e+60  -1.91732e+68  1.00362e+136 -1.18845e+203   1.63478e+68  -1.00853e+68   -5.7859e+67  -3.30201e+67   1.05733e+67  -1.40108e+67  -2.70489e+67
  -4.45721e+60   6.50555e+47   2.11903e+60   8.70008e+66 -1.88423e+134 -1.44232e+201   1.62516e+67  -1.31506e+67   7.24174e+66   1.46089e+67  -1.52761e+66   7.45172e+65  -1.99475e+66
  -4.42487e+60  -5.70666e+58   2.10326e+60  -4.22811e+66  -1.7532e+134   -5.808e+200   1.38995e+67  -1.67223e+67   4.49323e+66   8.00095e+66   -7.3931e+65  -1.22455e+66   5.40922e+65
  -5.63154e+60  -9.87591e+58   2.19745e+60  -1.67648e+68  6.48608e+135 -7.24864e+202   1.47037e+68  -1.14596e+68  -2.63102e+67  -2.67419e+67   1.43559e+67   7.05177e+65   9.51301e+66
  -5.60738e+60   7.58108e+47   2.25407e+60  -1.04914e+68  1.95048e+135 -9.36533e+201   9.51651e+67  -8.23955e+67  -1.29729e+67  -9.54517e+66    1.1416e+66    2.6749e+66  -4.50348e+66
  -4.59234e+60  -4.03808e+58   3.32138e+60   2.74575e+67  -1.3815e+135 -1.05718e+202   4.62106e+67  -9.98597e+66   4.76206e+66   3.26814e+67  -1.39936e+67   2.20777e+66  -3.10246e+67
  -4.27945e+60  -2.89998e+58   3.49597e+60   -5.4527e+67 -1.06339e+135  1.87661e+202   6.35341e+67  -1.23056e+66  -1.26677e+67  -4.06287e+67  -1.13562e+67  -5.36657e+66  -3.85471e+67
  -6.59748e+60   3.20016e+58   3.18867e+60  -3.04521e+68  2.32099e+136 -5.07507e+203   2.63672e+68  -1.60076e+68  -5.06673e+67  -9.37769e+67   2.13428e+67   2.25736e+67  -6.08159e+67
  -6.46715e+60   1.80944e+59   3.60548e+60  -1.05016e+68 -1.42949e+135  7.23898e+202   1.11614e+68  -1.01281e+68  -8.25283e+66   4.51788e+66   1.93719e+67    3.0148e+67  -2.20525e+67
  -4.42487e+60  -5.70666e+58   2.10326e+60  -7.52113e+66 -1.64854e+134 -1.62311e+200   1.48802e+67  -1.74224e+67   2.60039e+66   7.30086e+66  -9.00996e+65    3.1987e+66   5.40922e+65
  -4.38912e+60   -1.0151e+59   1.99386e+60   8.29982e+67  2.04291e+135  1.51417e+202   6.96118e+67   2.80071e+67   2.18447e+67   3.31465e+67   1.73637e+66  -3.70915e+66   1.43016e+67
  -5.58851e+60  -2.89419e+59   2.15791e+60  -1.70675e+68  5.23452e+135 -3.72892e+202   1.54582e+68  -1.31621e+68  -1.82703e+67  -2.07842e+67   1.31522e+67  -7.00982e+66  -7.96716e+66
  -5.63154e+60  -9.87591e+58   2.19745e+60  -1.43674e+68  3.79782e+135 -2.58779e+202   1.29786e+68  -1.09499e+68  -1.25299e+67  -2.16451e+67   1.11813e+67  -1.01975e+65   9.51301e+66
   2.13134e+60  -1.31026e+60   6.37566e+60  -3.67061e+68 -7.27024e+136  5.50017e+204   4.55452e+68   1.20617e+68  -1.53602e+68  -3.34076e+68   9.00931e+67   2.31266e+68   5.99499e+67
  -9.10839e+59  -5.10528e+59   2.14675e+60  -1.73791e+67 -6.15219e+136 -1.01873e+203   2.48644e+68  -3.99769e+67  -7.92601e+67   1.01858e+68   1.19857e+68   1.95112e+68  -1.05191e+67
   -1.1869e+60   -6.0957e+59   3.26385e+60   2.88477e+68  2.21915e+136  4.20804e+203   2.47038e+68    6.3522e+67   5.80727e+67   1.66882e+68    -2.493e+67   1.43162e+67   3.10313e+67
  -1.28103e+60  -6.44041e+59   3.66591e+60  -7.51648e+68  1.55231e+137 -9.33725e+204   6.40112e+68  -1.72753e+68  -1.63056e+68  -4.15839e+68  -2.00553e+67   5.04703e+67  -9.81357e+67
   2.89235e+58  -1.75054e+59   1.69436e+60   6.70196e+68  1.09005e+137   5.1244e+204    5.8323e+68   3.41136e+68   1.26446e+68   2.02614e+68  -2.73747e+67  -2.53978e+67   1.65754e+68
  -5.26853e+59  -5.32848e+57   2.09334e+60  -8.24602e+67 -2.39054e+134  8.13881e+202   8.38972e+67  -5.38131e+67   -3.3568e+67   4.92084e+66   2.38946e+66  -2.69131e+67  -2.97563e+67
   -1.2101e+60  -1.76009e+59   2.33095e+60   3.21296e+67 -4.77891e+134 -6.87708e+201   3.88613e+67   9.02289e+66  -6.17579e+66   2.92825e+67  -1.73569e+67  -8.07312e+66   1.17942e+67
  -1.14393e+60  -3.13661e+59   2.33075e+60   9.43423e+67  9.27421e+134 -7.94262e+201   8.92919e+67   7.10293e+66   7.05054e+66   8.01888e+67  -1.24822e+67  -6.55781e+66   7.66809e+66
  -9.10839e+59  -5.10528e+59   2.14675e+60   5.80656e+67 -7.39217e+135  2.54938e+201   1.03749e+68  -2.39375e+67  -3.58942e+67   1.17897e+68   -2.8985e+67  -1.57036e+67  -1.05191e+67
  -8.02524e+59   3.57746e+47    2.3801e+60  -1.71828e+67 -2.12572e+135  8.70085e+201   4.92033e+67  -4.50971e+66  -5.18919e+67   3.92188e+67  -5.11728e+66  -1.10245e+67   1.63291e+64
   -1.3863e+60   4.73072e+47   2.83383e+60  -6.30463e+67 -1.70102e+135  5.09921e+202   7.53383e+67  -2.15139e+67  -7.10007e+67   2.94683e+67   9.42022e+66   2.03159e+67   -8.9408e+65
   -1.1869e+60   -6.0957e+59   3.26385e+60   1.38451e+68 -1.75292e+135 -1.28103e+203   1.44643e+68   3.16267e+67  -2.81626e+67   1.34987e+68   -1.1063e+67   1.56368e+67   3.10313e+67
  -5.26853e+59  -5.32848e+57   2.09334e+60  -3.95739e+67 -1.40241e+135  1.73222e+202    5.4484e+67  -4.46955e+67  -8.91684e+66   1.40384e+67  -1.12722e+67   5.98479e+66  -2.97563e+67
  -7.93457e+59   2.82622e+47   1.79598e+60   1.19636e+68  3.71535e+135  2.79522e+202   1.02943e+68   2.45777e+67   2.49308e+67    7.0127e+67   1.25955e+67   1.40485e+67   3.64319e+66
  -1.30046e+60    3.7612e+47   2.26898e+60   5.50835e+67 -1.26425e+134 -1.95281e+201   5.62193e+67   3.60027e+66  -4.92016e+66   5.64033e+67   4.26893e+66     2.928e+66   2.73278e+66
   -1.2101e+60  -1.76009e+59   2.33095e+60   2.21232e+67 -6.47267e+134 -5.93106e+201   3.37151e+67   6.89557e+66  -1.19274e+67   2.71551e+67  -1.62142e+67  -5.13567e+66   1.17942e+67
  -8.02524e+59   3.57746e+47    2.3801e+60  -1.71828e+67 -2.12572e+135  8.70085e+201   4.92033e+67  -4.50971e+66  -5.18919e+67   3.92188e+67   5.11728e+66   1.10245e+67   1.63291e+64
  -9.10839e+59   5.10528e+59   2.14675e+60   5.80656e+67 -7.39217e+135  2.54938e+201   1.03749e+68  -2.39375e+67  -3.58942e+67   1.17897e+68    2.8985e+67   1.57036e+67  -1.05191e+67
   -1.1869e+60    6.0957e+59   3.26385e+60   1.38451e+68 -1.75292e+135 -1.28103e+203   1.44643e+68   3.16267e+67  -2.81626e+67   1.34987e+68    1.1063e+67  -1.56368e+67   3.10313e+67
   -1.3863e+60   4.73072e+47   2.83383e+60  -6.30463e+67 -1.70102e+135  5.09921e+202   7.53383e+67  -2.15139e+67  -7.10007e+67   2.94683e+67  -9.42022e+66  -2.03159e+67   -8.9408e+65
  -7.93457e+59   2.82622e+47   1.79598e+60   1.19636e+68  3.71535e+135  2.79522e+202   1.02943e+68   2.45777e+67   2.49308e+67    7.0127e+67  -1.25955e+67  -1.40485e+67   3.64319e+66
  -5.26853e+59   5.32848e+57   2.09334e+60  -3.95739e+67 -1.40241e+135  1.73222e+202    5.4484e+67  -4.46955e+67  -8.91684e+66   1.40384e+67   1.12722e+67  -5.98479e+66  -2.97563e+67
   -1.2101e+60   1.76009e+59   2.33095e+60   2.21232e+67 -6.47267e+134 -5.93106e+201   3.37151e+67   6.89557e+66  -1.19274e+67   2.71551e+67   1.62142e+67   5.13567e+66   1.17942e+67
  -1.30046e+60    3.7612e+47   2.26898e+60   5.50835e+67 -1.26425e+134 -1.95281e+201   5.62193e+67   3.60027e+66  -4.92016e+66   5.64033e+67  -4.26893e+66    -2.928e+66   2.73278e+66
  -9.10839e+59   5.10528e+59   2.14675e+60  -1.73791e+67 -6.15219e+136 -1.01873e+203   2.48644e+68  -3.99769e+67  -7.92601e+67   1.01858e+68  -1.19857e+68  -1.95112e+68  -1.05191e+67
   2.13134e+60   1.31026e+60   6.37566e+60  -3.67061e+68 -7.27024e+136  5.50017e+204   4.55452e+68   1.20617e+68  -1.53602e+68  -3.34076e+68  -9.00931e+67  -2.31266e+68   5.99499e+67
  -1.28103e+60   6.44041e+59   3.66591e+60  -7.51648e+68  1.55231e+137 -9.33725e+204   6.40112e+68  -1.72753e+68  -1.63056e+68  -4.15839e+68   2.00553e+67  -5.04703e+67  -9.81357e+67
   -1.1869e+60    6.0957e+59   3.26385e+60   2.88477e+68  2.21915e+136  4.20804e+203   2.47038e+68    6.3522e+67   5.80727e+67   1.66882e+68     2.493e+67  -1.43162e+67   3.10313e+67
  -5.26853e+59   5.32848e+57   2.09334e+60  -8.24602e+67 -2.39054e+134  8.13881e+202   8.38972e+67  -5.38131e+67   -3.3568e+67   4.92084e+66  -2.38946e+66   2.69131e+67  -2.97563e+67
   2.89235e+58   1.75054e+59   1.69436e+60   6.70196e+68  1.09005e+137   5.1244e+204    5.8323e+68   3.41136e+68   1.26446e+68   2.02614e+68   2.73747e+67   2.53978e+67   1.65754e+68
  -1.14393e+60   3.13661e+59   2.33075e+60   9.43423e+67  9.27421e+134 -7.94262e+201   8.92919e+67   7.10293e+66   7.05054e+66   8.01888e+67   1.24822e+67   6.55781e+66   7.66809e+66
   -1.2101e+60   1.76009e+59   2.33095e+60   3.21296e+67 -4.77891e+134 -6.87708e+201   3.88613e+67   9.02289e+66  -6.17579e+66   2.92825e+67   1.73569e+67   8.07312e+66   1.17942e+67
  -1.28103e+60  -6.44041e+59   3.66591e+60  -1.00986e+68  4.05356e+134   4.7975e+201   9.89583e+67  -3.44235e+67  -2.47265e+67  -4.18357e+67  -2.00553e+67   3.48641e+67   3.60926e+67
   -1.1869e+60   -6.0957e+59   3.26385e+60   5.65449e+67 -1.23506e+135 -5.20644e+202   6.65762e+67   1.42136e+67   8.76429e+66   3.35671e+67    -2.493e+67   3.81227e+67   7.48902e+66
  -1.96127e+60  -2.04708e+59   3.49187e+60   1.30441e+67 -5.50398e+134  2.11418e+201    2.6843e+67  -4.27378e+66  -7.00103e+66   2.43189e+67   2.15795e+66   1.71667e+67   2.60336e+66
  -1.85223e+60  -3.08151e+59   3.45037e+60  -9.10014e+67   2.3716e+135 -1.73979e+202   7.68742e+67  -2.21674e+67  -2.91209e+67  -3.97131e+67   1.69252e+66   1.39081e+67   1.06981e+67
  -1.14393e+60  -3.13661e+59   2.33075e+60   1.23189e+67 -1.70952e+135  5.66675e+201   4.31425e+67  -1.03351e+67  -1.03875e+67   3.30415e+67  -1.24822e+67    3.7103e+66   3.10258e+67
   -1.2101e+60  -1.76009e+59   2.33095e+60   5.66054e+67  1.10222e+134 -1.42394e+202   5.56233e+67   1.42264e+67  -9.72257e+65   4.33513e+67  -1.73569e+67   1.62871e+66   1.21086e+67
  -1.88669e+60  -1.41335e+59   2.66239e+60   4.25914e+67  3.64623e+133  3.99388e+198   4.21612e+67   2.00794e+66   2.11569e+65   4.03719e+67   4.48021e+64   1.18146e+66   7.22292e+66
  -1.82237e+60  -2.34927e+59   2.65273e+60   5.17901e+67  4.04336e+134  5.56675e+200   4.77271e+67   8.18986e+66   2.16719e+66    4.1433e+67  -4.20636e+65   3.26305e+66   5.63141e+66
   -1.1869e+60   -6.0957e+59   3.26385e+60  -9.34809e+67 -5.23504e+134  2.74034e+202   9.62403e+67  -1.76817e+67  -7.74711e+67   1.67182e+66   -1.1063e+67   3.94433e+67   7.48902e+66
   -1.3863e+60   4.73072e+47   2.83383e+60  -2.38871e+67 -3.61824e+135  4.36497e+202   6.47212e+67  -1.31888e+67  -6.26755e+67   5.19771e+67   9.42022e+66   2.03159e+67  -4.09524e+65
  -1.95981e+60   5.85604e+47   3.43766e+60   8.59934e+67  6.81486e+134 -9.08286e+200   8.19352e+67   1.17162e+67   -1.0604e+66   7.53376e+67  -6.91621e+64   2.56103e+66   1.01149e+67
  -1.96127e+60  -2.04708e+59   3.49187e+60  -1.33727e+67  -8.6703e+134  8.38468e+201   3.23398e+67  -9.88995e+66  -2.21855e+67   1.87027e+67  -3.06315e+66   2.16884e+67   2.60336e+66
   -1.2101e+60  -1.76009e+59   2.33095e+60   4.65991e+67 -2.90137e+134 -1.52509e+202   4.96147e+67   1.20991e+67  -6.72392e+66   4.12239e+67  -1.62142e+67   4.56616e+66   1.21086e+67
  -1.30046e+60    3.7612e+47   2.26898e+60   3.11027e+67 -5.04006e+134  -1.3978e+200   3.83586e+67  -1.49799e+66  -1.00184e+67   4.26191e+67   4.26893e+66     2.928e+66   -1.1818e+66
  -1.89032e+60   4.76935e+47   2.65005e+60   4.44125e+67 -1.46003e+134 -1.70386e+200   4.60269e+67    2.8762e+66  -3.91246e+66   4.54488e+67   1.71383e+65   5.83138e+65   9.34258e+66
  -1.88669e+60  -1.41335e+59   2.66239e+60   3.01366e+67 -3.46854e+134  1.42208e+200    3.5427e+67  -6.39932e+65   -6.9475e+66    3.7724e+67   -2.8226e+66    2.2213e+66   7.22292e+66
   -1.3863e+60   4.73072e+47   2.83383e+60  -2.38871e+67 -3.61824e+135  4.36497e+202   6.47212e+67  -1.31888e+67  -6.26755e+67   5.19771e+67  -9.42022e+66  -2.03159e+67  -4.09524e+65
   -1.1869e+60    6.0957e+59   3.26385e+60  -9.34809e+67 -5.23504e+134  2.74034e+202   9.62403e+67  -1.76817e+67  -7.74711e+67   1.67182e+66    1.1063e+67  -3.94433e+67   7.48902e+66
  -1.96127e+60   2.04708e+59   3.49187e+60  -1.33727e+67  -8.6703e+134  8.38468e+201   3.23398e+67  -9.88995e+66  -2.21855e+67   1.87027e+67   3.06315e+66  -2.16884e+67   2.60336e+66
  -1.95981e+60   5.85604e+47   3.43766e+60   8.59934e+67  6.81486e+134 -9.08286e+200   8.19352e+67   1.17162e+67   -1.0604e+66   7.53376e+67   6.91621e+64  -2.56103e+66   1.01149e+67
  -1.30046e+60    3.7612e+47   2.26898e+60   3.11027e+67 -5.04006e+134  -1.3978e+200   3.83586e+67  -1.49799e+66  -1.00184e+67   4.26191e+67  -4.26893e+66    -2.928e+66   -1.1818e+66
   -1.2101e+60   1.76009e+59   2.33095e+60   4.65991e+67 -2.90137e+134 -1.52509e+202   4.96147e+67   1.20991e+67  -6.72392e+66   4.12239e+67   1.62142e+67  -4.56616e+66   1.21086e+67
  -1.88669e+60   1.41335e+59   2.66239e+60   3.01366e+67 -3.46854e+134  1.42208e+200    3.5427e+67  -6.39932e+65   -6.9475e+66    3.7724e+67    2.8226e+66   -2.2213e+66   7.22292e+66
  -1.89032e+60   4.76935e+47   2.65005e+60   4.44125e+67 -1.46003e+134 -1.70386e+200   4.60269e+67    2.8762e+66  -3.91246e+66   4.54488e+67  -1.71383e+65  -5.83138e+65   9.34258e+66
   -1.1869e+60    6.0957e+59   3.26385e+60   5.65449e+67 -1.23506e+135 -5.20644e+202   6.65762e+67   1.42136e+67   8.76429e+66   3.35671e+67     2.493e+67  -3.81227e+67   7.48902e+66
  -1.28103e+60   6.44041e+59   3.66591e+60  -1.00986e+68  4.05356e+134   4.7975e+201   9.89583e+67  -3.44235e+67  -2.47265e+67  -4.18357e+67   2.00553e+67  -3.48641e+67   3.60926e+67
  -1.85223e+60   3.08151e+59   3.45037e+60  -9.10014e+67   2.3716e+135 -1.73979e+202   7.68742e+67  -2.21674e+67  -2.91209e+67  -3.97131e+67  -1.69252e+66  -1.39081e+67   1.06981e+67
  -1.96127e+60   2.04708e+59   3.49187e+60   1.30441e+67 -5.50398e+134  2.11418e+201    2.6843e+67  -4.27378e+66  -7.00103e+66   2.43189e+67  -2.15795e+66  -1.71667e+67   2.60336e+66
   -1.2101e+60   1.76009e+59   2.33095e+60   5.66054e+67  1.10222e+134 -1.42394e+202   5.56233e+67   1.42264e+67  -9.72257e+65   4.33513e+67   1.73569e+67  -1.62871e+66   1.21086e+67
  -1.14393e+60   3.13661e+59   2.33075e+60   1.23189e+67 -1.70952e+135  5.66675e+201   4.31425e+67  -1.03351e+67  -1.03875e+67   3.30415e+67   1.24822e+67   -3.7103e+66   3.10258e+67
  -1.82237e+60   2.34927e+59   2.65273e+60   5.17901e+67  4.04336e+134  5.56675e+200   4.77271e+67   8.18986e+66   2.16719e+66    4.1433e+67   4.20636e+65  -3.26305e+66   5.63141e+66
  -1.88669e+60   1.41335e+59   2.66239e+60   4.25914e+67  3.64623e+133  3.99388e+198   4.21612e+67   2.00794e+66   2.11569e+65   4.03719e+67  -4.48021e+64  -1.18146e+66   7.22292e+66
  -1.85223e+60  -3.08151e+59   3.45037e+60   5.90064e+67  5.89184e+134  1.08103e+201   5.37826e+67   9.72404e+66   2.77049e+66   4.65118e+67   1.69252e+66    1.1704e+66    3.8295e+66
  -1.96127e+60  -2.04708e+59   3.49187e+60    4.5969e+67   5.3781e+133 -1.45069e+200   4.53803e+67   2.72601e+66  -1.23862e+63   4.32442e+67   2.15795e+66   2.16825e+66   7.39515e+66
  -2.63422e+60  -1.17312e+59   3.84611e+60   3.65372e+67 -2.99883e+134  5.40509e+200   4.04333e+67    -6.997e+65  -4.00212e+66    4.1239e+67   8.46592e+65   2.41619e+66   1.01109e+67
  -2.56881e+60  -2.41876e+59   3.80986e+60   3.70822e+67  -2.7075e+134  3.34593e+200    4.0569e+67  -8.82339e+65  -3.88626e+66   4.18508e+67  -1.18678e+66   1.41834e+66    8.4374e+66
  -1.82237e+60  -2.34927e+59   2.65273e+60   3.61328e+67  5.57036e+133 -2.14385e+200   3.53536e+67   4.86115e+66  -1.16152e+66   3.24332e+67  -4.20636e+65   3.49203e+66   6.80217e+66
  -1.88669e+60  -1.41335e+59   2.66239e+60   3.35435e+67 -1.31627e+134  1.08725e+200   3.54513e+67   8.43729e+64    -1.712e+66   3.51711e+67   4.48021e+64   2.92194e+66   8.10541e+66
  -2.54461e+60  -6.98204e+58   2.95915e+60   3.27695e+67  -1.9693e+134  1.20187e+200   3.56478e+67  -1.50072e+66   -7.3639e+65   3.50066e+67   9.95843e+65   1.27771e+66   1.08211e+67
  -2.47604e+60  -1.51345e+59   2.91468e+60   2.28664e+67 -3.23363e+134  6.36258e+200   2.90901e+67   -3.9046e+66  -2.84178e+66   2.96127e+67  -1.03753e+66    1.8478e+66   1.14101e+67
  -1.96127e+60  -2.04708e+59   3.49187e+60   1.95522e+67 -7.45097e+134  1.95514e+201   3.35766e+67  -2.89016e+66  -1.51857e+67   3.76281e+67  -3.06315e+66   6.68997e+66   7.39515e+66
  -1.95981e+60   5.85604e+47   3.43766e+60   3.76801e+67 -5.10942e+134 -5.89235e+200   4.39401e+67   1.44489e+66  -1.13317e+67   4.75669e+67  -6.91621e+64   2.56103e+66   4.20933e+66
  -2.65833e+60   7.19291e+47    3.8563e+60   5.46103e+67   8.4773e+133 -4.70987e+199   5.38286e+67   2.91857e+66   5.25495e+65   5.11663e+67   1.13877e+66  -4.81433e+65   9.56306e+66
  -2.63422e+60  -1.17312e+59   3.84611e+60   3.84292e+67 -2.49641e+134  2.05681e+200   4.15505e+67   -2.9746e+65  -2.91458e+66   4.16413e+67  -1.10492e+66   3.64751e+66   1.01109e+67
  -1.88669e+60  -1.41335e+59   2.66239e+60   2.10887e+67 -4.38509e+134  9.22263e+200   2.97194e+67   -2.5635e+66  -8.87107e+66   3.25233e+67   -2.8226e+66   3.96178e+66   8.10541e+66
  -1.89032e+60   4.76935e+47   2.65005e+60   2.46502e+67 -3.39187e+134  5.92595e+200   3.07704e+67  -1.32525e+66  -8.11391e+66   3.40893e+67   1.71383e+65   5.83138e+65   5.27216e+66
  -2.56634e+60   5.85604e+47   2.95537e+60   3.74375e+67 -9.18192e+133 -2.25371e+200   3.86443e+67  -7.32353e+65   1.36195e+66   3.68079e+67   1.02675e+66   1.78692e+65   1.06259e+67
  -2.54461e+60  -6.98204e+58   2.95915e+60   3.58228e+67 -1.26143e+134 -2.85932e+200   3.75422e+67  -8.51588e+65   1.01867e+66   3.56557e+67  -1.21694e+66   3.55734e+66   1.08211e+67
  -1.95981e+60   5.85604e+47   3.43766e+60   3.76801e+67 -5.10942e+134 -5.89235e+200   4.39401e+67   1.44489e+66  -1.13317e+67   4.75669e+67   6.91621e+64  -2.56103e+66   4.20933e+66
  -1.96127e+60   2.04708e+59   3.49187e+60   1.95522e+67 -7.45097e+134  1.95514e+201   3.35766e+67  -2.89016e+66  -1.51857e+67   3.76281e+67   3.06315e+66  -6.68997e+66   7.39515e+66
  -2.63422e+60   1.17312e+59   3.84611e+60   3.84292e+67 -2.49641e+134  2.05681e+200   4.15505e+67   -2.9746e+65  -2.91458e+66   4.16413e+67   1.10492e+66  -3.64751e+66   1.01109e+67
  -2.65833e+60   7.19291e+47    3.8563e+60   5.46103e+67   8.4773e+133 -4.70987e+199   5.38286e+67   2.91857e+66   5.25495e+65   5.11663e+67  -1.13877e+66   4.81433e+65   9.56306e+66
  -1.89032e+60   4.76935e+47   2.65005e+60   2.46502e+67 -3.39187e+134  5.92595e+200   3.07704e+67  -1.32525e+66  -8.11391e+66   3.40893e+67  -1.71383e+65  -5.83138e+65   5.27216e+66
  -1.88669e+60   1.41335e+59   2.66239e+60   2.10887e+67 -4.38509e+134  9.22263e+200   2.97194e+67   -2.5635e+66  -8.87107e+66   3.25233e+67    2.8226e+66  -3.96178e+66   8.10541e+66
  -2.54461e+60   6.98204e+58   2.95915e+60   3.58228e+67 -1.26143e+134 -2.85932e+200   3.75422e+67  -8.51588e+65   1.01867e+66   3.56557e+67   1.21694e+66  -3.55734e+66   1.08211e+67
  -2.56634e+60   5.85604e+47   2.95537e+60   3.74375e+67 -9.18192e+133 -2.25371e+200   3.86443e+67  -7.32353e+65   1.36195e+66   3.68079e+67  -1.02675e+66  -1.78692e+65   1.06259e+67
  -1.96127e+60   2.04708e+59   3.49187e+60    4.5969e+67   5.3781e+133 -1.45069e+200   4.53803e+67   2.72601e+66  -1.23862e+63   4.32442e+67  -2.15795e+66  -2.16825e+66   7.39515e+66
  -1.85223e+60   3.08151e+59   3.45037e+60   5.90064e+67  5.89184e+134  1.08103e+201   5.37826e+67   9.72404e+66   2.77049e+66   4.65118e+67  -1.69252e+66   -1.1704e+66    3.8295e+66
  -2.56881e+60   2.41876e+59   3.80986e+60   3.70822e+67  -2.7075e+134  3.34593e+200    4.0569e+67  -8.82339e+65  -3.88626e+66   4.18508e+67   1.18678e+66  -1.41834e+66    8.4374e+66
  -2.63422e+60   1.17312e+59   3.84611e+60   3.65372e+67 -2.99883e+134  5.40509e+200   4.04333e+67    -6.997e+65  -4.00212e+66    4.1239e+67  -8.46592e+65  -2.41619e+66   1.01109e+67
  -1.88669e+60   1.41335e+59   2.66239e+60   3.35435e+67 -1.31627e+134  1.08725e+200   3.54513e+67   8.43729e+64    -1.712e+66   3.51711e+67  -4.48021e+64  -2.92194e+66   8.10541e+66
  -1.82237e+60   2.34927e+59   2.65273e+60   3.61328e+67  5.57036e+133 -2.14385e+200   3.53536e+67   4.86115e+66  -1.16152e+66   3.24332e+67   4.20636e+65  -3.49203e+66   6.80217e+66
  -2.47604e+60   1.51345e+59   2.91468e+60   2.28664e+67 -3.23363e+134  6.36258e+200   2.90901e+67   -3.9046e+66  -2.84178e+66   2.96127e+67   1.03753e+66   -1.8478e+66   1.14101e+67
  -2.54461e+60   6.98204e+58   2.95915e+60   3.27695e+67  -1.9693e+134  1.20187e+200   3.56478e+67  -1.50072e+66   -7.3639e+65   3.50066e+67  -9.95843e+65  -1.27771e+66   1.08211e+67
  -2.56881e+60  -2.41876e+59   3.80986e+60    1.0351e+68   2.0001e+135  1.06044e+202   9.33495e+67     1.324e+67   1.02361e+67   8.00335e+67  -1.18678e+66  -3.19373e+65   3.57602e+66
  -2.63422e+60  -1.17312e+59   3.84611e+60   9.31756e+67  1.50977e+135  6.58132e+201   8.46871e+67   1.13415e+67    8.0391e+66   7.37949e+67   8.46592e+65   2.18503e+66   2.47075e+66
  -3.46889e+60  -3.48089e+58   4.41746e+60   6.79396e+67 -3.61972e+134  4.43265e+200   7.05533e+67   1.84464e+66  -2.33482e+66   6.84298e+67   1.57867e+66   4.20579e+66   1.74339e+67
   -3.3883e+60  -2.12383e+59   4.42398e+60   7.74804e+67 -9.64792e+133 -1.29838e+201   7.81005e+67   3.28715e+66  -3.06478e+65   7.44997e+67  -3.80959e+66   1.70139e+66   1.73241e+67
  -2.47604e+60  -1.51345e+59   2.91468e+60   3.88242e+67 -4.02532e+133 -9.91828e+199   3.93392e+67  -5.11983e+65   5.50846e+65   3.87854e+67  -1.03753e+66   2.63234e+66   5.78557e+66
  -2.54461e+60  -6.98204e+58   2.95915e+60   2.17806e+67 -2.11194e+134  4.01306e+200   2.61838e+67  -3.83693e+66   -3.0726e+66   2.86902e+67   9.95843e+65   1.78185e+66   4.53663e+66
  -3.33554e+60   1.23651e+58   3.21378e+60   1.50695e+67 -7.15076e+134  2.28819e+201   3.06947e+67  -9.39546e+66  -2.79839e+66   2.72634e+67   1.87159e+66   5.01774e+66   1.94998e+67
  -3.24875e+60  -5.11576e+58    3.2378e+60   3.13199e+67 -6.50958e+134 -1.45118e+201   4.03967e+67   -6.5265e+66   6.56403e+65     3.719e+67  -3.51667e+66   5.86823e+66   1.95336e+67
  -2.63422e+60  -1.17312e+59   3.84611e+60   9.50676e+67  1.63671e+135  7.65051e+201   8.60298e+67   1.17438e+67   9.12664e+66   7.41972e+67  -1.10492e+66   3.41634e+66   2.47075e+66
  -2.65833e+60   7.19291e+47    3.8563e+60   7.24452e+67  7.00379e+134    1.677e+201   6.74384e+67   6.71024e+66   4.31716e+66   6.14178e+67   1.13877e+66  -4.81433e+65   2.08349e+66
  -3.51516e+60   8.89835e+47    4.3433e+60   8.68105e+67  1.30455e+135  3.39907e+201   7.89399e+67   7.17191e+66   1.51668e+67   6.44719e+67   2.18615e+66   3.50351e+66   1.50792e+67
  -3.46889e+60  -3.48089e+58   4.41746e+60   1.05183e+68  2.02897e+135   7.8728e+201   9.50497e+67   9.76248e+66   1.90727e+67   7.63477e+67  -4.25388e+64   7.40128e+66   1.74339e+67
  -2.54461e+60  -6.98204e+58   2.95915e+60   2.48339e+67 -1.66541e+134  1.14633e+200   2.79869e+67   -3.1878e+66  -1.31754e+66   2.93393e+67  -1.21694e+66   4.06147e+66   4.53663e+66
  -2.56634e+60   5.85604e+47   2.95537e+60   1.30754e+67 -2.11808e+134  5.35627e+200   1.95646e+67   -5.9117e+66   -3.8174e+66   2.28045e+67   1.02675e+66   1.78692e+65   3.37968e+66
  -3.39574e+60   7.13428e+47   3.16729e+60   2.73579e+67 -2.80053e+134 -2.83786e+201   3.20703e+67  -5.46763e+66    6.9846e+66   2.58409e+67   2.84383e+66   2.19617e+66   1.63754e+67
  -3.33554e+60   1.23651e+58   3.21378e+60   3.48664e+67 -3.55257e+134 -4.33794e+201   3.96349e+67  -5.18668e+66    8.5809e+66   3.14722e+67   6.15134e+65   6.07895e+66   1.94998e+67
  -2.65833e+60   7.19291e+47    3.8563e+60   7.24452e+67  7.00379e+134    1.677e+201   6.74384e+67   6.71024e+66   4.31716e+66   6.14178e+67  -1.13877e+66   4.81433e+65   2.08349e+66
  -2.63422e+60   1.17312e+59   3.84611e+60   9.50676e+67  1.63671e+135  7.65051e+201   8.60298e+67   1.17438e+67   9.12664e+66   7.41972e+67   1.10492e+66  -3.41634e+66   2.47075e+66
  -3.46889e+60   3.48089e+58   4.41746e+60   1.05183e+68  2.02897e+135   7.8728e+201   9.50497e+67   9.76248e+66   1.90727e+67   7.63477e+67   4.25388e+64  -7.40128e+66   1.74339e+67
  -3.51516e+60   8.89835e+47    4.3433e+60   8.68105e+67  1.30455e+135  3.39907e+201   7.89399e+67   7.17191e+66   1.51668e+67   6.44719e+67  -2.18615e+66  -3.50351e+66   1.50792e+67
  -2.56634e+60   5.85604e+47   2.95537e+60   1.30754e+67 -2.11808e+134  5.35627e+200   1.95646e+67   -5.9117e+66   -3.8174e+66   2.28045e+67  -1.02675e+66  -1.78692e+65   3.37968e+66
  -2.54461e+60   6.98204e+58   2.95915e+60   2.48339e+67 -1.66541e+134  1.14633e+200   2.79869e+67   -3.1878e+66  -1.31754e+66   2.93393e+67   1.21694e+66  -4.06147e+66   4.53663e+66
  -3.33554e+60  -1.23651e+58   3.21378e+60   3.48664e+67 -3.55257e+134 -4.33794e+201   3.96349e+67  -5.18668e+66    8.5809e+66   3.14722e+67  -6.15134e+65  -6.07895e+66   1.94998e+67
  -3.39574e+60   7.13428e+47   3.16729e+60   2.73579e+67 -2.80053e+134 -2.83786e+201   3.20703e+67  -5.46763e+66    6.9846e+66   2.58409e+67  -2.84383e+66  -2.19617e+66   1.63754e+67
  -2.63422e+60   1.17312e+59   3.84611e+60   9.31756e+67  1.50977e+135  6.58132e+201   8.46871e+67   1.13415e+67    8.0391e+66   7.37949e+67  -8.46592e+65  -2.18503e+66   2.47075e+66
  -2.56881e+60   2.41876e+59   3.80986e+60    1.0351e+68   2.0001e+135  1.06044e+202   9.33495e+67     1.324e+67   1.02361e+67   8.00335e+67   1.18678e+66   3.19373e+65   3.57602e+66
   -3.3883e+60   2.12383e+59   4.42398e+60   7.74804e+67 -9.64792e+133 -1.29838e+201   7.81005e+67   3.28715e+66  -3.06478e+65   7.44997e+67   3.80959e+66  -1.70139e+66   1.73241e+67
  -3.46889e+60   3.48089e+58   4.41746e+60   6.79396e+67 -3.61972e+134  4.43265e+200   7.05533e+67   1.84464e+66  -2.33482e+66   6.84298e+67  -1.57867e+66  -4.20579e+66   1.74339e+67
  -2.54461e+60   6.98204e+58   2.95915e+60   2.17806e+67 -2.11194e+134  4.01306e+200   2.61838e+67  -3.83693e+66   -3.0726e+66   2.86902e+67  -9.95843e+65  -1.78185e+66   4.53663e+66
  -2.47604e+60   1.51345e+59   2.91468e+60   3.88242e+67 -4.02532e+133 -9.91828e+199   3.93392e+67  -5.11983e+65   5.50846e+65   3.87854e+67   1.03753e+66  -2.63234e+66   5.78557e+66
  -3.24875e+60   5.11576e+58    3.2378e+60   3.13199e+67 -6.50958e+134 -1.45118e+201   4.03967e+67   -6.5265e+66   6.56403e+65     3.719e+67   3.51667e+66  -5.86823e+66   1.95336e+67
  -3.33554e+60  -1.23651e+58   3.21378e+60   1.50695e+67 -7.15076e+134  2.28819e+201   3.06947e+67  -9.39546e+66  -2.79839e+66   2.72634e+67  -1.87159e+66  -5.01774e+66   1.94998e+67
   -3.3883e+60  -2.12383e+59   4.42398e+60   2.89162e+68  2.02268e+136   4.1253e+203    2.5177e+68   4.82904e+67   4.46968e+67   1.96175e+68  -3.80959e+66   1.04053e+67   7.11136e+66
  -3.46889e+60  -3.48089e+58   4.41746e+60   1.23128e+68  2.22653e+135  9.79298e+201   1.13728e+68   1.35776e+67   9.39816e+66   1.00152e+68   1.57867e+66   1.41161e+67  -6.29507e+65
  -4.68589e+60   2.57462e+59   5.20037e+60   1.13017e+68 -1.99976e+135 -1.73655e+202   1.21543e+68   1.51875e+67  -1.73049e+65   9.80028e+67    2.2631e+67   4.44782e+67   3.12749e+67
  -4.42395e+60   1.34185e+57   5.84955e+60    2.6738e+68  1.02744e+136  1.04452e+203   2.47421e+68   4.31913e+67   3.26441e+67   1.91544e+68   1.10685e+67   4.07674e+67   6.22643e+67
  -3.24875e+60  -5.11576e+58    3.2378e+60   1.43748e+67 -4.19616e+134  6.29708e+200    2.5025e+67   -1.0129e+67  -2.94608e+66   2.74499e+67  -3.51667e+66   4.92193e+66   7.34544e+66
  -3.33554e+60   1.23651e+58   3.21378e+60   -2.3287e+67   2.7711e+133  1.13631e+201   2.26842e+67    -1.755e+67  -1.09529e+67   5.21593e+66   1.87159e+66   2.45853e+66  -2.50923e+66
  -4.59234e+60   4.03808e+58   3.32138e+60   6.94579e+65 -1.67374e+135  9.30512e+201   4.09173e+67   -8.6921e+66  -9.27701e+65   1.03144e+67   2.50377e+67    9.5721e+66   2.93951e+67
  -4.27945e+60   2.89998e+58   3.49597e+60   2.66845e+67 -4.37087e+135 -3.09367e+201   7.12947e+67  -7.98012e+66   4.59773e+66   3.00669e+67   1.34752e+67   1.20355e+67   6.24984e+67
  -3.46889e+60  -3.48089e+58   4.41746e+60   1.60371e+68  6.01428e+135  6.51086e+202   1.40373e+68   2.14955e+67   3.08056e+67    1.0807e+68  -4.25388e+64   1.73116e+67  -6.29507e+65
  -3.51516e+60   8.89835e+47    4.3433e+60   6.40997e+67  6.59067e+134  9.62659e+200   5.87342e+67   2.34362e+66   1.03385e+67   5.14176e+67   2.18615e+66   3.50351e+66  -4.36387e+65
  -4.70041e+60   1.12498e+48   4.74325e+60   1.49468e+68  6.18218e+135  6.84909e+202   1.27116e+68   2.37976e+67   5.61038e+67   6.95668e+67   6.85703e+65   2.15962e+67   1.56388e+67
  -4.68589e+60   2.57462e+59   5.20037e+60   2.46995e+68   1.6247e+136  3.03627e+203   2.11565e+68    4.3671e+67   7.68379e+67   1.26486e+68   1.09415e+67   3.54043e+67   3.12749e+67
  -3.33554e+60   1.23651e+58   3.21378e+60  -3.49015e+66  -1.4647e+134  9.45539e+199   1.25957e+67  -1.33412e+67    4.2636e+65   9.42471e+66   6.15134e+65   3.51975e+66  -2.50923e+66
  -3.39574e+60   7.13428e+47   3.16729e+60  -1.23573e+67 -4.32817e+133   8.4139e+199   1.39995e+67   -1.3911e+67  -1.45878e+66    3.0125e+66   2.84383e+66   2.19617e+66  -2.08875e+66
  -4.61596e+60   8.58283e+47   3.22698e+60   4.07507e+66 -2.65873e+134 -8.59943e+200   1.68071e+67  -7.11279e+66   4.68186e+66   6.50599e+66   1.11602e+66   4.45971e+66   1.39865e+67
  -4.59234e+60   4.03808e+58   3.32138e+60   1.41977e+67 -1.05327e+135 -4.07349e+201   3.54238e+67  -5.82137e+66   6.83391e+66   1.31851e+67   1.13718e+67   5.78329e+66   2.93951e+67
  -3.51516e+60   8.89835e+47    4.3433e+60   6.40997e+67  6.59067e+134  9.62659e+200   5.87342e+67   2.34362e+66   1.03385e+67   5.14176e+67  -2.18615e+66  -3.50351e+66  -4.36387e+65
  -3.46889e+60   3.48089e+58   4.41746e+60   1.60371e+68  6.01428e+135  6.51086e+202   1.40373e+68   2.14955e+67   3.08056e+67    1.0807e+68   4.25388e+64  -1.73116e+67  -6.29507e+65
  -4.68589e+60  -2.57462e+59   5.20037e+60   2.46995e+68   1.6247e+136  3.03627e+203   2.11565e+68    4.3671e+67   7.68379e+67   1.26486e+68  -1.09415e+67  -3.54043e+67   3.12749e+67
  -4.70041e+60   1.12498e+48   4.74325e+60   1.49468e+68  6.18218e+135  6.84909e+202   1.27116e+68   2.37976e+67   5.61038e+67   6.95668e+67  -6.85703e+65  -2.15962e+67   1.56388e+67
  -3.39574e+60   7.13428e+47   3.16729e+60  -1.23573e+67 -4.32817e+133   8.4139e+199   1.39995e+67   -1.3911e+67  -1.45878e+66    3.0125e+66  -2.84383e+66  -2.19617e+66  -2.08875e+66
  -3.33554e+60  -1.23651e+58   3.21378e+60  -3.49015e+66  -1.4647e+134  9.45539e+199   1.25957e+67  -1.33412e+67    4.2636e+65   9.42471e+66  -6.15134e+65  -3.51975e+66  -2.50923e+66
  -4.59234e+60  -4.03808e+58   3.32138e+60   1.41977e+67 -1.05327e+135 -4.07349e+201   3.54238e+67  -5.82137e+66   6.83391e+66   1.31851e+67  -1.13718e+67  -5.78329e+66   2.93951e+67
  -4.61596e+60   8.58283e+47   3.22698e+60   4.07507e+66 -2.65873e+134 -8.59943e+200   1.68071e+67  -7.11279e+66   4.68186e+66   6.50599e+66  -1.11602e+66  -4.45971e+66   1.39865e+67
  -3.46889e+60   3.48089e+58   4.41746e+60   1.23128e+68  2.22653e+135  9.79298e+201   1.13728e+68   1.35776e+67   9.39816e+66   1.00152e+68  -1.57867e+66  -1.41161e+67  -6.29507e+65
   -3.3883e+60   2.12383e+59   4.42398e+60   2.89162e+68  2.02268e+136   4.1253e+203    2.5177e+68   4.82904e+67   4.46968e+67   1.96175e+68   3.80959e+66  -1.04053e+67   7.11136e+66
  -4.42395e+60  -1.34185e+57   5.84955e+60    2.6738e+68  1.02744e+136  1.04452e+203   2.47421e+68   4.31913e+67   3.26441e+67   1.91544e+68  -1.10685e+67  -4.07674e+67   6.22643e+67
  -4.68589e+60  -2.57462e+59   5.20037e+60   1.13017e+68 -1.99976e+135 -1.73655e+202   1.21543e+68   1.51875e+67  -1.73049e+65   9.80028e+67   -2.2631e+67  -4.44782e+67   3.12749e+67
  -3.33554e+60  -1.23651e+58   3.21378e+60   -2.3287e+67   2.7711e+133  1.13631e+201   2.26842e+67    -1.755e+67  -1.09529e+67   5.21593e+66  -1.87159e+66  -2.45853e+66  -2.50923e+66
  -3.24875e+60   5.11576e+58    3.2378e+60   1.43748e+67 -4.19616e+134  6.29708e+200    2.5025e+67   -1.0129e+67  -2.94608e+66   2.74499e+67   3.51667e+66  -4.92193e+66   7.34544e+66
  -4.27945e+60  -2.89998e+58   3.49597e+60   2.66845e+67 -4.37087e+135 -3.09367e+201   7.12947e+67  -7.98012e+66   4.59773e+66   3.00669e+67  -1.34752e+67  -1.20355e+67   6.24984e+67
  -4.59234e+60  -4.03808e+58   3.32138e+60   6.94579e+65 -1.67374e+135  9.30512e+201   4.09173e+67   -8.6921e+66  -9.27701e+65   1.03144e+67  -2.50377e+67   -9.5721e+66   2.93951e+67
  -4.42395e+60   1.34185e+57   5.84955e+60   1.04085e+69  2.92178e+137  2.47574e+205   8.89486e+68   2.07629e+68   1.97082e+68   6.36136e+68   1.10685e+67  -6.35765e+65   -7.7914e+67
  -4.68589e+60   2.57462e+59   5.20037e+60  -3.78776e+67 -2.23743e+135  4.07507e+202   6.05982e+67  -1.68925e+67   -3.2253e+67    1.1268e+67    2.2631e+67   7.63868e+66  -4.07183e+67
  -7.42675e+60  -2.30037e+59   5.40484e+60  -3.09494e+68 -1.77304e+136   7.0574e+204   3.36923e+68   -1.5647e+68  -1.06547e+68  -4.64773e+67  -4.95615e+67   2.05405e+68    -4.448e+67
  -8.42671e+60  -6.61299e+59   1.02401e+61   5.55662e+68 -5.76777e+136 -9.26454e+204   6.05341e+68  -5.47078e+67   7.73837e+67   5.32986e+68  -7.69728e+67   1.97131e+68   1.44031e+68
  -4.27945e+60   2.89998e+58   3.49597e+60  -1.20829e+68  4.45726e+135 -4.62315e+202    1.0071e+68  -3.93413e+67  -2.67635e+67  -5.47245e+67   1.34752e+67   5.36657e+66   1.67973e+66
  -4.59234e+60   4.03808e+58   3.32138e+60   4.67384e+67 -2.55824e+134 -2.27273e+202   4.93995e+67   1.09675e+66   8.86115e+66   3.67805e+67   2.50377e+67  -2.20777e+66   1.97622e+65
  -6.46715e+60  -1.80944e+59   3.60548e+60  -1.37365e+68  1.13885e+135  1.03215e+203   1.33155e+68  -1.19875e+68  -1.51303e+67  -2.35959e+66  -8.47694e+66   -3.0148e+67  -3.56406e+66
  -6.59748e+60  -3.20016e+58   3.18867e+60  -5.18502e+68    2.823e+136  1.70376e+204   4.90524e+68  -2.83073e+68  -9.61593e+67  -1.39269e+68  -3.58882e+67  -2.25736e+67   2.23625e+68
  -4.68589e+60   2.57462e+59   5.20037e+60   9.61004e+67  9.78986e+134  -5.7089e+202   9.08642e+67    1.1591e+67   4.47579e+67   3.97515e+67   1.09415e+67  -1.43526e+66  -4.07183e+67
  -4.70041e+60   1.12498e+48   4.74325e+60   2.28126e+68  1.36936e+136  1.87386e+203   1.95826e+68   4.05201e+67   7.28263e+67    1.1478e+68   6.85703e+65   2.15962e+67  -4.24302e+67
  -7.11478e+60   1.31655e+48   5.44472e+60  -1.04349e+68 -2.34903e+135  2.00102e+203   1.15056e+68  -1.04525e+68  -4.39203e+67   4.40958e+67  -1.47389e+67  -1.88364e+66   -1.3161e+67
  -7.42675e+60  -2.30037e+59   5.40484e+60     -2.57e+68  1.60368e+136  -1.7817e+203   2.23634e+68  -1.45309e+68  -7.63736e+67  -3.53172e+67  -1.70582e+67  -2.49151e+67    -4.448e+67
  -4.59234e+60   4.03808e+58   3.32138e+60   6.02415e+67  7.17064e+134 -2.68288e+201   5.39627e+67   3.96749e+66   1.66228e+67   3.96513e+67   1.13718e+67  -5.99658e+66   1.97622e+65
  -4.61596e+60   8.58283e+47   3.22698e+60   9.87899e+66 -8.31074e+133 -4.52904e+200   1.34425e+67  -5.87888e+66   5.91577e+66    9.8421e+66   1.11602e+66   4.45971e+66  -5.24955e+66
  -6.24334e+60   1.02539e+48   3.30891e+60   -2.5316e+68  1.83135e+136 -3.79282e+203   2.13954e+68  -1.36162e+68  -7.09184e+67  -4.60795e+67  -1.05733e+67   1.40108e+67   2.40197e+67
  -6.46715e+60  -1.80944e+59   3.60548e+60  -2.23422e+68   1.2922e+136 -1.78029e+203   1.92342e+68  -1.38171e+68  -6.45963e+67  -2.06552e+67  -1.28926e+67    3.5545e+66  -3.56406e+66
  -4.70041e+60   1.12498e+48   4.74325e+60   2.28126e+68  1.36936e+136  1.87386e+203   1.95826e+68   4.05201e+67   7.28263e+67    1.1478e+68  -6.85703e+65  -2.15962e+67  -4.24302e+67
  -4.68589e+60  -2.57462e+59   5.20037e+60   9.61004e+67  9.78986e+134  -5.7089e+202   9.08642e+67    1.1591e+67   4.47579e+67   3.97515e+67  -1.09415e+67   1.43526e+66  -4.07183e+67
  -7.42675e+60   2.30037e+59   5.40484e+60     -2.57e+68  1.60368e+136  -1.7817e+203   2.23634e+68  -1.45309e+68  -7.63736e+67  -3.53172e+67   1.70582e+67   2.49151e+67    -4.448e+67
  -7.11478e+60   1.31655e+48   5.44472e+60  -1.04349e+68 -2.34903e+135  2.00102e+203   1.15056e+68  -1.04525e+68  -4.39203e+67   4.40958e+67   1.47389e+67   1.88364e+66   -1.3161e+67
  -4.61596e+60   8.58283e+47   3.22698e+60   9.87899e+66 -8.31074e+133 -4.52904e+200   1.34425e+67  -5.87888e+66   5.91577e+66    9.8421e+66  -1.11602e+66  -4.45971e+66  -5.24955e+66
  -4.59234e+60  -4.03808e+58   3.32138e+60   6.02415e+67  7.17064e+134 -2.68288e+201   5.39627e+67   3.96749e+66   1.66228e+67   3.96513e+67  -1.13718e+67   5.99658e+66   1.97622e+65
  -6.46715e+60   1.80944e+59   3.60548e+60  -2.23422e+68   1.2922e+136 -1.78029e+203   1.92342e+68  -1.38171e+68  -6.45963e+67  -2.06552e+67   1.28926e+67   -3.5545e+66  -3.56406e+66
  -6.24334e+60   1.02539e+48   3.30891e+60   -2.5316e+68  1.83135e+136 -3.79282e+203   2.13954e+68  -1.36162e+68  -7.09184e+67  -4.60795e+67   1.05733e+67  -1.40108e+67   2.40197e+67
  -4.68589e+60  -2.57462e+59   5.20037e+60  -3.78776e+67 -2.23743e+135  4.07507e+202   6.05982e+67  -1.68925e+67   -3.2253e+67    1.1268e+67   -2.2631e+67  -7.63868e+66  -4.07183e+67
  -4.42395e+60  -1.34185e+57   5.84955e+60   1.04085e+69  2.92178e+137  2.47574e+205   8.89486e+68   2.07629e+68   1.97082e+68   6.36136e+68  -1.10685e+67   6.35765e+65   -7.7914e+67
  -8.42671e+60   6.61299e+59   1.02401e+61   5.55662e+68 -5.76777e+136 -9.26454e+204   6.05341e+68  -5.47078e+67   7.73837e+67   5.32986e+68   7.69728e+67  -1.97131e+68   1.44031e+68
  -7.42675e+60   2.30037e+59   5.40484e+60  -3.09494e+68 -1.77304e+136   7.0574e+204   3.36923e+68   -1.5647e+68  -1.06547e+68  -4.64773e+67   4.95615e+67  -2.05405e+68    -4.448e+67
  -4.59234e+60  -4.03808e+58   3.32138e+60   4.67384e+67 -2.55824e+134 -2.27273e+202   4.93995e+67   1.09675e+66   8.86115e+66   3.67805e+67  -2.50377e+67   2.20777e+66   1.97622e+65
  -4.27945e+60  -2.89998e+58   3.49597e+60  -1.20829e+68  4.45726e+135 -4.62315e+202    1.0071e+68  -3.93413e+67  -2.67635e+67  -5.47245e+67  -1.34752e+67  -5.36657e+66   1.67973e+66
  -6.59748e+60   3.20016e+58   3.18867e+60  -5.18502e+68    2.823e+136  1.70376e+204   4.90524e+68  -2.83073e+68  -9.61593e+67  -1.39269e+68   3.58882e+67   2.25736e+67   2.23625e+68
  -6.46715e+60   1.80944e+59   3.60548e+60  -1.37365e+68  1.13885e+135  1.03215e+203   1.33155e+68  -1.19875e+68  -1.51303e+67  -2.35959e+66   8.47694e+66    3.0148e+67  -3.56406e+66
   -9.4052e+59  -9.37887e+58  -8.43761e+59  -2.20076e+67 -1.42668e+133  1.10643e+199   2.23293e+67   8.73786e+65  -3.00608e+65  -2.25807e+67   4.76175e+65   2.16297e+65   -8.8758e+65
  -9.66426e+59  -4.74531e+58  -8.54246e+59  -2.30572e+67 -5.76805e+132   1.2585e+199    2.3182e+67   7.31821e+65   -5.2377e+65  -2.32653e+67  -3.89565e+65  -1.11426e+65  -6.16603e+65
  -5.97266e+59  -5.55797e+58    -6.599e+59  -1.88998e+67 -9.07705e+133 -6.64838e+199   2.11653e+67   2.46611e+66   1.01555e+66  -2.23814e+67  -4.51079e+65   1.19273e+65   -3.8901e+66
  -5.66879e+59  -1.08852e+59  -6.54298e+59  -1.80489e+67 -9.47069e+133 -8.06096e+199   2.05054e+67   2.49377e+66   1.19643e+66  -2.17391e+67   5.72527e+65   4.46996e+65  -4.11596e+66
  -9.99284e+59  -1.29774e+59  -1.19861e+60  -3.50534e+67  1.05041e+134 -7.45634e+199   3.35217e+67  -1.89975e+66  -1.34266e+66   -3.1811e+67   4.35577e+65   4.65052e+65  -4.98387e+65
  -1.02605e+60  -6.51139e+58  -1.21035e+60  -3.63522e+67  1.24371e+134 -1.04576e+200   3.45993e+67  -2.09467e+66  -1.61878e+66  -3.26388e+67  -4.30163e+65  -2.05358e+64  -1.91397e+65
  -6.65891e+59  -7.64191e+58   -9.4672e+59  -3.13231e+67 -2.02054e+133  7.00433e+198   3.16439e+67  -1.75067e+65   4.21586e+65  -3.15696e+67   -5.2769e+65   2.55275e+65  -3.46489e+66
  -6.33882e+59  -1.51358e+59  -9.40818e+59  -3.02231e+67 -3.20149e+133 -2.31333e+198   3.07482e+67  -9.44463e+64   6.55429e+65  -3.07841e+67   4.95916e+65   7.40863e+65  -3.72677e+66
  -9.66426e+59  -4.74531e+58  -8.54246e+59  -2.27657e+67 -1.10827e+133  1.09321e+199   2.30078e+67   7.93803e+65  -3.56189e+65  -2.32033e+67   4.37542e+65   2.72511e+65  -6.16603e+65
  -9.74826e+59   -9.6298e+46  -8.56604e+59  -2.33243e+67 -6.10155e+132  1.16178e+199   2.34547e+67   6.97649e+65  -4.74943e+65   -2.3547e+67  -3.96824e+65  -1.11419e+65  -5.96888e+65
  -6.06979e+59  -7.71194e+46  -6.59878e+59  -1.86858e+67 -9.91429e+133 -8.91235e+199   2.11732e+67   2.59598e+66   1.27904e+66  -2.25609e+67  -4.58851e+65   1.04106e+63  -3.85081e+66
  -5.97266e+59  -5.55797e+58    -6.599e+59  -1.82979e+67 -1.00051e+134 -9.50099e+199   2.08534e+67   2.59407e+66   1.36153e+66  -2.22534e+67   5.25691e+65   3.84971e+65   -3.8901e+66
  -1.02605e+60  -6.51139e+58  -1.21035e+60  -3.62339e+67  1.20846e+134 -9.83156e+199   3.45261e+67  -2.06952e+66  -1.55078e+66  -3.26136e+67   4.26242e+65      4.65e+65  -1.91397e+65
  -1.03469e+60  -1.37727e+47  -1.21182e+60  -3.66844e+67  1.27985e+134 -1.10543e+200   3.48964e+67   -2.1427e+66  -1.64656e+66  -3.28952e+67  -4.08124e+65  -6.91073e+64  -1.40784e+65
  -6.76496e+59  -1.07077e+47  -9.46217e+59  -3.12167e+67 -2.81897e+133  2.57816e+198    3.1665e+67    -6.807e+64   5.84076e+65  -3.17328e+67  -5.01049e+65   2.37807e+64  -3.39471e+66
  -6.65891e+59  -7.64191e+58   -9.4672e+59  -3.09368e+67 -2.99481e+133  -3.2229e+197   3.14171e+67  -9.29585e+64   6.43583e+65  -3.14875e+67   4.83494e+65   5.57888e+65  -3.46489e+66
  -9.74826e+59   -9.6298e+46  -8.56604e+59  -2.33243e+67 -6.10155e+132  1.16178e+199   2.34547e+67   6.97649e+65  -4.74943e+65   -2.3547e+67   3.96824e+65   1.11419e+65  -5.96888e+65
  -9.66426e+59   4.74531e+58  -8.54246e+59  -2.27657e+67 -1.10827e+133  1.09321e+199   2.30078e+67   7.93803e+65  -3.56189e+65  -2.32033e+67  -4.37542e+65  -2.72511e+65  -6.16603e+65
  -5.97266e+59   5.55797e+58    -6.599e+59  -1.82979e+67 -1.00051e+134 -9.50099e+199   2.08534e+67   2.59407e+66   1.36153e+66  -2.22534e+67  -5.25691e+65  -3.84971e+65   -3.8901e+66
  -6.06979e+59  -7.71194e+46  -6.59878e+59  -1.86858e+67 -9.91429e+133 -8.91235e+199   2.11732e+67   2.59598e+66   1.27904e+66  -2.25609e+67   4.58851e+65  -1.04106e+63  -3.85081e+66
  -1.03469e+60  -1.37727e+47  -1.21182e+60  -3.66844e+67  1.27985e+134 -1.10543e+200   3.48964e+67   -2.1427e+66  -1.64656e+66  -3.28952e+67   4.08124e+65   6.91073e+64  -1.40784e+65
  -1.02605e+60   6.51139e+58  -1.21035e+60  -3.62339e+67  1.20846e+134 -9.83156e+199   3.45261e+67  -2.06952e+66  -1.55078e+66  -3.26136e+67  -4.26242e+65     -4.65e+65  -1.91397e+65
  -6.65891e+59   7.64191e+58   -9.4672e+59  -3.09368e+67 -2.99481e+133  -3.2229e+197   3.14171e+67  -9.29585e+64   6.43583e+65  -3.14875e+67  -4.83494e+65  -5.57888e+65  -3.46489e+66
  -6.76496e+59  -1.07077e+47  -9.46217e+59  -3.12167e+67 -2.81897e+133  2.57816e+198    3.1665e+67    -6.807e+64   5.84076e+65  -3.17328e+67   5.01049e+65  -2.37807e+64  -3.39471e+66
  -9.66426e+59   4.74531e+58  -8.54246e+59  -2.30572e+67 -5.76805e+132   1.2585e+199    2.3182e+67   7.31821e+65   -5.2377e+65  -2.32653e+67   3.89565e+65   1.11426e+65  -6.16603e+65
   -9.4052e+59   9.37887e+58  -8.43761e+59  -2.20076e+67 -1.42668e+133  1.10643e+199   2.23293e+67   8.73786e+65  -3.00608e+65  -2.25807e+67  -4.76175e+65  -2.16297e+65   -8.8758e+65
  -5.66879e+59   1.08852e+59  -6.54298e+59  -1.80489e+67 -9.47069e+133 -8.06096e+199   2.05054e+67   2.49377e+66   1.19643e+66  -2.17391e+67  -5.72527e+65  -4.46996e+65  -4.11596e+66
  -5.97266e+59   5.55797e+58    -6.599e+59  -1.88998e+67 -9.07705e+133 -6.64838e+199   2.11653e+67   2.46611e+66   1.01555e+66  -2.23814e+67   4.51079e+65  -1.19273e+65   -3.8901e+66
  -1.02605e+60   6.51139e+58  -1.21035e+60  -3.63522e+67  1.24371e+134 -1.04576e+200   3.45993e+67  -2.09467e+66  -1.61878e+66  -3.26388e+67   4.30163e+65   2.05358e+64  -1.91397e+65
  -9.99284e+59   1.29774e+59  -1.19861e+60  -3.50534e+67  1.05041e+134 -7.45634e+199   3.35217e+67  -1.89975e+66  -1.34266e+66   -3.1811e+67  -4.35577e+65  -4.65052e+65  -4.98387e+65
  -6.33882e+59   1.51358e+59  -9.40818e+59  -3.02231e+67 -3.20149e+133 -2.31333e+198   3.07482e+67  -9.44463e+64   6.55429e+65  -3.07841e+67  -4.95916e+65  -7.40863e+65  -3.72677e+66
  -6.65891e+59   7.64191e+58   -9.4672e+59  -3.13231e+67 -2.02054e+133  7.00433e+198   3.16439e+67  -1.75067e+65   4.21586e+65  -3.15696e+67    5.2769e+65  -2.55275e+65  -3.46489e+66
  -5.66879e+59  -1.08852e+59  -6.54298e+59  -2.27589e+67 -4.13486e+133  8.92652e+197   2.36499e+67   1.49243e+66   1.95094e+65  -2.44465e+67   5.72527e+65   1.27798e+65   2.03981e+65
  -5.97266e+59  -5.55797e+58    -6.599e+59  -2.54815e+67 -1.85465e+133  1.60656e+199   2.58429e+67   1.06684e+66  -3.83723e+65  -2.61646e+67  -4.51079e+65  -6.50461e+64   2.36687e+65
  -3.15457e+59  -5.98048e+58  -4.40325e+59  -2.30149e+67 -7.78633e+133 -2.88169e+199   2.46485e+67   2.09897e+66   5.26364e+65  -2.56402e+67  -4.20387e+65   5.04632e+65  -3.35003e+66
  -2.84677e+59  -1.17159e+59  -4.46781e+59  -2.11076e+67 -8.21924e+133 -5.22477e+199   2.29722e+67   2.05593e+66   9.31852e+65  -2.40954e+67   5.82125e+65   6.97476e+65  -3.36022e+66
  -6.33882e+59  -1.51358e+59  -9.40818e+59  -3.67874e+67   7.7808e+133 -2.94662e+199   3.57142e+67  -1.49001e+66  -7.40131e+65  -3.45573e+67   4.95916e+65   1.41753e+65   3.10197e+65
  -6.65891e+59  -7.64191e+58   -9.4672e+59  -3.96343e+67   1.2158e+134 -8.45037e+199   3.80697e+67  -1.94203e+66  -1.34538e+66  -3.63469e+67   -5.2769e+65  -2.99973e+64   4.90553e+65
  -3.89454e+59  -8.16861e+58  -6.51226e+59  -3.72842e+67  4.16606e+133   5.4237e+198   3.67212e+67  -9.34661e+65   -5.0224e+65  -3.58473e+67  -6.44648e+65   5.62193e+65  -3.09616e+66
  -3.53928e+59   -1.6026e+59  -6.57858e+59  -3.52526e+67  2.37817e+133   1.6416e+198   3.49136e+67  -9.51268e+65  -7.03238e+64   -3.4231e+67   3.57863e+65   7.33943e+65    -3.254e+66
  -5.97266e+59  -5.55797e+58    -6.599e+59  -2.48796e+67 -3.05436e+133  8.37337e+198    2.5486e+67    1.1948e+66  -3.77437e+64  -2.60367e+67   5.25691e+65   2.00652e+65   2.36687e+65
  -6.06979e+59  -7.71194e+46  -6.59878e+59  -2.57779e+67 -2.34019e+133  1.22489e+199   2.62279e+67   1.08822e+66  -2.28716e+65  -2.66374e+67  -4.58851e+65   1.04106e+63    2.1776e+65
   -3.2525e+59  -5.20681e+46  -4.35966e+59  -2.33347e+67 -8.27586e+133 -3.93437e+199   2.50453e+67   2.09337e+66   6.89929e+65   -2.6118e+67  -4.62663e+65   2.05919e+65  -3.35447e+66
  -3.15457e+59  -5.98048e+58  -4.40325e+59  -2.23756e+67  -8.9511e+133 -5.45787e+199   2.42936e+67   2.23487e+66   8.93821e+65  -2.55043e+67   5.71103e+65    4.0553e+65  -3.35003e+66
  -6.65891e+59  -7.64191e+58   -9.4672e+59  -3.92481e+67  1.09729e+134 -6.67562e+199   3.78244e+67  -1.85992e+66  -1.12338e+66  -3.62648e+67   4.83494e+65   2.72615e+65   4.90553e+65
  -6.76496e+59  -1.07077e+47  -9.46217e+59  -4.00664e+67  1.21613e+134 -8.36139e+199   3.85189e+67  -1.94949e+66  -1.29735e+66  -3.68196e+67  -5.01049e+65   2.37807e+64    4.6062e+65
  -3.99908e+59  -7.17185e+46  -6.46692e+59  -3.73514e+67  3.04195e+133  4.54386e+198   3.69419e+67  -8.86566e+65  -2.22471e+65  -3.62424e+67  -4.93855e+65   2.14172e+65  -3.11161e+66
  -3.89454e+59  -8.16861e+58  -6.51226e+59  -3.64723e+67  1.83908e+133  8.38844e+198   3.62193e+67  -7.62062e+65  -3.55837e+64  -3.56747e+67   5.39911e+65   4.63007e+65  -3.09616e+66
  -6.06979e+59  -7.71194e+46  -6.59878e+59  -2.57779e+67 -2.34019e+133  1.22489e+199   2.62279e+67   1.08822e+66  -2.28716e+65  -2.66374e+67   4.58851e+65  -1.04106e+63    2.1776e+65
  -5.97266e+59   5.55797e+58    -6.599e+59  -2.48796e+67 -3.05436e+133  8.37337e+198    2.5486e+67    1.1948e+66  -3.77437e+64  -2.60367e+67  -5.25691e+65  -2.00652e+65   2.36687e+65
  -3.15457e+59   5.98048e+58  -4.40325e+59  -2.23756e+67  -8.9511e+133 -5.45787e+199   2.42936e+67   2.23487e+66   8.93821e+65  -2.55043e+67  -5.71103e+65   -4.0553e+65  -3.35003e+66
   -3.2525e+59  -5.20681e+46  -4.35966e+59  -2.33347e+67 -8.27586e+133 -3.93437e+199   2.50453e+67   2.09337e+66   6.89929e+65   -2.6118e+67   4.62663e+65  -2.05919e+65  -3.35447e+66
  -6.76496e+59  -1.07077e+47  -9.46217e+59  -4.00664e+67  1.21613e+134 -8.36139e+199   3.85189e+67  -1.94949e+66  -1.29735e+66  -3.68196e+67   5.01049e+65  -2.37807e+64    4.6062e+65
  -6.65891e+59   7.64191e+58   -9.4672e+59  -3.92481e+67  1.09729e+134 -6.67562e+199   3.78244e+67  -1.85992e+66  -1.12338e+66  -3.62648e+67  -4.83494e+65  -2.72615e+65   4.90553e+65
  -3.89454e+59   8.16861e+58  -6.51226e+59  -3.64723e+67  1.83908e+133  8.38844e+198   3.62193e+67  -7.62062e+65  -3.55837e+64  -3.56747e+67  -5.39911e+65  -4.63007e+65  -3.09616e+66
  -3.99908e+59  -7.17185e+46  -6.46692e+59  -3.73514e+67  3.04195e+133  4.54386e+198   3.69419e+67  -8.86566e+65  -2.22471e+65  -3.62424e+67   4.93855e+65  -2.14172e+65  -3.11161e+66
  -5.97266e+59   5.55797e+58    -6.599e+59  -2.54815e+67 -1.85465e+133  1.60656e+199   2.58429e+67   1.06684e+66  -3.83723e+65  -2.61646e+67   4.51079e+65   6.50461e+64   2.36687e+65
  -5.66879e+59   1.08852e+59  -6.54298e+59  -2.27589e+67 -4.13486e+133  8.92652e+197   2.36499e+67   1.49243e+66   1.95094e+65  -2.44465e+67  -5.72527e+65  -1.27798e+65   2.03981e+65
  -2.84677e+59   1.17159e+59  -4.46781e+59  -2.11076e+67 -8.21924e+133 -5.22477e+199   2.29722e+67   2.05593e+66   9.31852e+65  -2.40954e+67  -5.82125e+65  -6.97476e+65  -3.36022e+66
  -3.15457e+59   5.98048e+58  -4.40325e+59  -2.30149e+67 -7.78633e+133 -2.88169e+199   2.46485e+67   2.09897e+66   5.26364e+65  -2.56402e+67   4.20387e+65  -5.04632e+65  -3.35003e+66
  -6.65891e+59   7.64191e+58   -9.4672e+59  -3.96343e+67   1.2158e+134 -8.45037e+199   3.80697e+67  -1.94203e+66  -1.34538e+66  -3.63469e+67    5.2769e+65   2.99973e+64   4.90553e+65
  -6.33882e+59   1.51358e+59  -9.40818e+59  -3.67874e+67   7.7808e+133 -2.94662e+199   3.57142e+67  -1.49001e+66  -7.40131e+65  -3.45573e+67  -4.95916e+65  -1.41753e+65   3.10197e+65
  -3.53928e+59    1.6026e+59  -6.57858e+59  -3.52526e+67  2.37817e+133   1.6416e+198   3.49136e+67  -9.51268e+65  -7.03238e+64   -3.4231e+67  -3.57863e+65  -7.33943e+65    -3.254e+66
  -3.89454e+59   8.16861e+58  -6.51226e+59  -3.72842e+67  4.16606e+133   5.4237e+198   3.67212e+67  -9.34661e+65   -5.0224e+65  -3.58473e+67   6.44648e+65  -5.62193e+65  -3.09616e+66
  -2.84677e+59  -1.17159e+59  -4.46781e+59  -2.48584e+67    -3.73e+133  4.16709e+198   2.55977e+67   1.25851e+66   1.34435e+65  -2.62514e+67   5.82125e+65  -1.98409e+65   7.23986e+65
  -3.15457e+59  -5.98048e+58  -4.40325e+59  -2.86584e+67 -7.68849e+132  2.26529e+199   2.87922e+67   8.99162e+65   -6.7344e+65  -2.88841e+67  -4.20387e+65  -4.79546e+65   3.95556e+65
  -1.12929e+59  -4.31981e+58  -1.99116e+59  -2.42226e+67 -1.13471e+134 -7.27071e+199   2.64614e+67   2.88663e+66   8.31892e+65  -2.79411e+67  -3.57522e+65   4.32906e+65   -3.4143e+66
  -8.89244e+58  -1.06503e+59  -2.24886e+59  -1.99029e+67 -1.37457e+134 -1.58135e+200   2.30994e+67   3.54471e+66   1.75025e+66  -2.51978e+67   8.78248e+65   7.14043e+65  -2.99299e+66
  -3.53928e+59   -1.6026e+59  -6.57858e+59   -3.9847e+67  1.09747e+134 -6.79518e+199   3.84452e+67  -1.92803e+66  -1.04709e+66  -3.68719e+67   3.57863e+65  -2.14039e+65   1.34031e+66
  -3.89454e+59  -8.16861e+58  -6.51226e+59  -4.41598e+67   1.7646e+134 -1.66991e+200   4.21145e+67  -2.39642e+66  -1.96399e+66  -3.97994e+67  -6.44648e+65  -7.28436e+65   9.17763e+65
   -1.9798e+59  -5.96348e+58  -3.29375e+59   -3.8436e+67 -1.43715e+133  9.07942e+198   3.86225e+67  -1.35118e+65   2.81681e+65  -3.85825e+67  -4.87665e+65   2.76893e+65  -2.89209e+66
  -1.71221e+59  -1.49097e+59  -3.57287e+59  -3.36034e+67  -7.5001e+133 -2.01176e+199   3.47015e+67   6.31988e+65   1.30907e+66  -3.55445e+67   7.48105e+65   7.91289e+65  -2.37667e+66
  -3.15457e+59  -5.98048e+58  -4.40325e+59  -2.80191e+67 -2.20942e+133  1.79213e+199   2.84107e+67   1.03507e+66  -3.05983e+65  -2.87482e+67   5.71103e+65  -5.78648e+65   3.95556e+65
   -3.2525e+59  -5.20681e+46  -4.35966e+59  -2.68159e+67 -3.69966e+133  7.83906e+198   2.74971e+67   1.35327e+66   -5.0171e+64   -2.8119e+67  -4.62663e+65   2.05919e+65   1.74727e+65
  -1.18222e+59  -2.53429e+46  -1.98709e+59  -2.76194e+67 -3.55936e+133  1.48177e+200   2.82564e+67   2.46055e+66  -1.79012e+66  -2.82898e+67  -2.50088e+65   1.91966e+64  -3.48707e+66
  -1.12929e+59  -4.31981e+58  -1.99116e+59  -2.94678e+67 -4.42814e+132  1.47587e+200   2.95429e+67    1.7715e+66   -2.1831e+66  -2.90562e+67    5.2645e+65   -7.6537e+65   -3.4143e+66
  -3.89454e+59  -8.16861e+58  -6.51226e+59   -4.3348e+67  1.48969e+134 -1.18434e+200   4.15942e+67  -2.22382e+66  -1.49734e+66  -3.96268e+67   5.39911e+65  -8.27622e+65   9.17763e+65
  -3.99908e+59  -7.17185e+46  -6.46692e+59  -4.13272e+67  1.08756e+134 -6.12298e+199   3.99897e+67  -1.73181e+66  -1.06772e+66  -3.85276e+67  -4.93855e+65   2.14172e+65    8.1378e+65
  -2.06407e+59   -3.5189e+46  -3.31927e+59   -4.3551e+67  1.72548e+134 -9.56333e+199   4.15228e+67  -9.26488e+65  -3.62409e+66  -3.90004e+67  -3.98125e+65   -1.2061e+65  -2.84801e+66
   -1.9798e+59  -5.96348e+58  -3.29375e+59   -4.6217e+67  2.38266e+134 -2.55957e+200   4.35631e+67  -1.78935e+66  -4.19088e+66  -4.02368e+67   3.78413e+65   -1.1624e+66  -2.89209e+66
   -3.2525e+59  -5.20681e+46  -4.35966e+59  -2.68159e+67 -3.69966e+133  7.83906e+198   2.74971e+67   1.35327e+66   -5.0171e+64   -2.8119e+67   4.62663e+65  -2.05919e+65   1.74727e+65
  -3.15457e+59   5.98048e+58  -4.40325e+59  -2.80191e+67 -2.20942e+133  1.79213e+199   2.84107e+67   1.03507e+66  -3.05983e+65  -2.87482e+67  -5.71103e+65   5.78648e+65   3.95556e+65
  -1.12929e+59   4.31981e+58  -1.99116e+59  -2.94678e+67 -4.42814e+132  1.47587e+200   2.95429e+67    1.7715e+66   -2.1831e+66  -2.90562e+67   -5.2645e+65    7.6537e+65   -3.4143e+66
  -1.18222e+59  -2.53429e+46  -1.98709e+59  -2.76194e+67 -3.55936e+133  1.48177e+200   2.82564e+67   2.46055e+66  -1.79012e+66  -2.82898e+67   2.50088e+65  -1.91966e+64  -3.48707e+66
  -3.99908e+59  -7.17185e+46  -6.46692e+59  -4.13272e+67  1.08756e+134 -6.12298e+199   3.99897e+67  -1.73181e+66  -1.06772e+66  -3.85276e+67   4.93855e+65  -2.14172e+65    8.1378e+65
  -3.89454e+59   8.16861e+58  -6.51226e+59   -4.3348e+67  1.48969e+134 -1.18434e+200   4.15942e+67  -2.22382e+66  -1.49734e+66  -3.96268e+67  -5.39911e+65   8.27622e+65   9.17763e+65
   -1.9798e+59   5.96348e+58  -3.29375e+59   -4.6217e+67  2.38266e+134 -2.55957e+200   4.35631e+67  -1.78935e+66  -4.19088e+66  -4.02368e+67  -3.78413e+65    1.1624e+66  -2.89209e+66
  -2.06407e+59   -3.5189e+46  -3.31927e+59   -4.3551e+67  1.72548e+134 -9.56333e+199   4.15228e+67  -9.26488e+65  -3.62409e+66  -3.90004e+67   3.98125e+65    1.2061e+65  -2.84801e+66
  -3.15457e+59   5.98048e+58  -4.40325e+59  -2.86584e+67 -7.68849e+132  2.26529e+199   2.87922e+67   8.99162e+65   -6.7344e+65  -2.88841e+67   4.20387e+65   4.79546e+65   3.95556e+65
  -2.84677e+59   1.17159e+59  -4.46781e+59  -2.48584e+67    -3.73e+133  4.16709e+198   2.55977e+67   1.25851e+66   1.34435e+65  -2.62514e+67  -5.82125e+65   1.98409e+65   7.23986e+65
  -8.89244e+58   1.06503e+59  -2.24886e+59  -1.99029e+67 -1.37457e+134 -1.58135e+200   2.30994e+67   3.54471e+66   1.75025e+66  -2.51978e+67  -8.78248e+65  -7.14043e+65  -2.99299e+66
  -1.12929e+59   4.31981e+58  -1.99116e+59  -2.42226e+67 -1.13471e+134 -7.27071e+199   2.64614e+67   2.88663e+66   8.31892e+65  -2.79411e+67   3.57522e+65  -4.32906e+65   -3.4143e+66
  -3.89454e+59   8.16861e+58  -6.51226e+59  -4.41598e+67   1.7646e+134 -1.66991e+200   4.21145e+67  -2.39642e+66  -1.96399e+66  -3.97994e+67   6.44648e+65   7.28436e+65   9.17763e+65
  -3.53928e+59    1.6026e+59  -6.57858e+59   -3.9847e+67  1.09747e+134 -6.79518e+199   3.84452e+67  -1.92803e+66  -1.04709e+66  -3.68719e+67  -3.57863e+65   2.14039e+65   1.34031e+66
  -1.71221e+59   1.49097e+59  -3.57287e+59  -3.36034e+67  -7.5001e+133 -2.01176e+199   3.47015e+67   6.31988e+65   1.30907e+66  -3.55445e+67  -7.48105e+65  -7.91289e+65  -2.37667e+66
   -1.9798e+59   5.96348e+58  -3.29375e+59   -3.8436e+67 -1.43715e+133  9.07942e+198   3.86225e+67  -1.35118e+65   2.81681e+65  -3.85825e+67   4.87665e+65  -2.76893e+65  -2.89209e+66
  -8.89244e+58  -1.06503e+59  -2.24886e+59  -2.06829e+67 -1.41474e+134 -1.87119e+200   2.38591e+67   3.37888e+66   1.58442e+66  -2.56462e+67   8.78248e+65  -3.81417e+66   2.05402e+66
  -1.12929e+59  -4.31981e+58  -1.99116e+59  -1.32417e+67  -1.6636e+134 -3.59996e+200   1.84852e+67   5.22115e+66   3.16641e+66  -2.16293e+67  -3.57522e+65  -8.23383e+65   8.18747e+65
          -295            -5           -50  -5.19432e+67  7.48747e+134 -3.28072e+201   4.41515e+67  -1.10431e+67  -1.10431e+67  -2.98571e+67   3.67422e+51  -2.04086e+66  -5.33521e+66
          -295           -10           -50  -5.86658e+67  9.53751e+134 -4.70969e+201   4.98791e+67  -1.24723e+67  -1.24723e+67  -3.37213e+67  -4.39912e+51  -5.03164e+66  -4.20115e+66
  -1.71221e+59  -1.49097e+59  -3.57287e+59  -4.83987e+67  1.59519e+134 -7.43877e+199   4.67217e+67  -2.51346e+66  -1.83638e+66  -4.40489e+67   7.48105e+65  -5.72526e+66  -1.83399e+66
   -1.9798e+59  -5.96348e+58  -3.29375e+59  -4.03987e+67  1.46739e+133  4.42178e+198   4.02166e+67  -5.52377e+65  -1.35578e+65  -3.97107e+67  -4.87665e+65  -1.49871e+66  -3.19941e+66
          -300            -5           -50  -8.59238e+67  2.04268e+135 -1.47377e+202   7.30768e+67  -1.82673e+67  -1.82673e+67  -4.93893e+67   6.09154e+51  -2.81739e+66  -9.35337e+66
          -300           -10           -50  -9.32052e+67  2.40079e+135 -1.87561e+202    7.9287e+67  -1.98153e+67  -1.98153e+67  -5.35747e+67  -6.54168e+51  -7.04395e+66  -8.08916e+66
  -1.12929e+59  -4.31981e+58  -1.99116e+59   -1.8487e+67 -1.01245e+134 -2.64625e+199   2.10479e+67   4.10601e+66   1.51411e+65  -2.27444e+67    5.2645e+65  -2.02166e+66   8.18747e+65
  -1.18222e+59  -2.53429e+46  -1.98709e+59  -1.75635e+67 -1.10302e+134 -3.47682e+199   2.04641e+67   4.59841e+66    3.4773e+65  -2.25097e+67  -2.50088e+65   1.91966e+64   7.08466e+65
          -295             0           -50  -5.18372e+67  7.46995e+134 -3.27501e+201   4.40466e+67  -1.10205e+67  -1.10205e+67  -2.97962e+67   6.72291e+50  -1.19684e+54   -5.5853e+66
          -295            -5           -50  -5.19432e+67  7.48747e+134 -3.28072e+201   4.41515e+67  -1.10431e+67  -1.10431e+67  -2.98571e+67  -1.17943e+51  -2.04086e+66  -5.33521e+66
   -1.9798e+59  -5.96348e+58  -3.29375e+59  -4.81797e+67  2.73049e+134 -3.41359e+200   4.52574e+67  -2.20661e+66  -4.60814e+66  -4.13649e+67   3.78413e+65    -2.938e+66  -3.19941e+66
  -2.06407e+59   -3.5189e+46  -3.31927e+59  -4.80282e+67  2.64796e+134 -2.96341e+200   4.51876e+67  -1.87834e+66  -4.57594e+66   -4.1574e+67  -3.98125e+65   -1.2061e+65  -3.45773e+66
          -300             0           -50  -8.65898e+67  2.07629e+135 -1.51165e+202   7.36308e+67  -1.84089e+67  -1.84089e+67  -4.97721e+67   9.99667e+50  -1.66083e+54  -9.75149e+66
          -300            -5           -50  -8.59238e+67  2.04268e+135 -1.47377e+202   7.30768e+67  -1.82673e+67  -1.82673e+67  -4.93893e+67   -2.3384e+51  -2.81739e+66  -9.35337e+66
  -1.18222e+59  -2.53429e+46  -1.98709e+59  -1.75635e+67 -1.10302e+134 -3.47682e+199   2.04641e+67   4.59841e+66    3.4773e+65  -2.25097e+67   2.50088e+65  -1.91966e+64   7.08466e+65
  -1.12929e+59   4.31981e+58  -1.99116e+59   -1.8487e+67 -1.01245e+134 -2.64625e+199   2.10479e+67   4.10601e+66   1.51411e+65  -2.27444e+67   -5.2645e+65   2.02166e+66   8.18747e+65
          -295             5           -50  -5.19432e+67  7.48747e+134 -3.28072e+201   4.41515e+67  -1.10431e+67  -1.10431e+67  -2.98571e+67  -1.34458e+51   2.04086e+66  -5.33521e+66
          -295             0           -50  -5.18372e+67  7.46995e+134 -3.27501e+201   4.40466e+67  -1.10205e+67  -1.10205e+67  -2.97962e+67   5.62678e+50  -1.19822e+54   -5.5853e+66
  -2.06407e+59   -3.5189e+46  -3.31927e+59  -4.80282e+67  2.64796e+134 -2.96341e+200   4.51876e+67  -1.87834e+66  -4.57594e+66   -4.1574e+67   3.98125e+65    1.2061e+65  -3.45773e+66
   -1.9798e+59   5.96348e+58  -3.29375e+59  -4.81797e+67  2.73049e+134 -3.41359e+200   4.52574e+67  -2.20661e+66  -4.60814e+66  -4.13649e+67  -3.78413e+65     2.938e+66  -3.19941e+66
          -300             5           -50  -8.59238e+67  2.04268e+135 -1.47377e+202   7.30768e+67  -1.82673e+67  -1.82673e+67  -4.93893e+67  -2.70086e+51   2.81739e+66  -9.35337e+66
          -300             0           -50  -8.65898e+67  2.07629e+135 -1.51165e+202   7.36308e+67  -1.84089e+67  -1.84089e+67  -4.97721e+67   2.13379e+51  -1.66373e+54  -9.75149e+66
  -1.12929e+59   4.31981e+58  -1.99116e+59  -1.32417e+67  -1.6636e+134 -3.59996e+200   1.84852e+67   5.22115e+66   3.16641e+66  -2.16293e+67   3.57522e+65   8.23383e+65   8.18747e+65
  -8.89244e+58   1.06503e+59  -2.24886e+59  -2.06829e+67 -1.41474e+134 -1.87119e+200   2.38591e+67   3.37888e+66   1.58442e+66  -2.56462e+67  -8.78248e+65   3.81417e+66   2.05402e+66
          -295            10           -50  -5.86658e+67  9.53751e+134 -4.70969e+201   4.98791e+67  -1.24723e+67  -1.24723e+67  -3.37213e+67  -4.82734e+51   5.03164e+66  -4.20115e+66
          -295             5           -50  -5.19432e+67  7.48747e+134 -3.28072e+201   4.41515e+67  -1.10431e+67  -1.10431e+67  -2.98571e+67   2.44948e+51   2.04086e+66  -5.33521e+66
   -1.9798e+59   5.96348e+58  -3.29375e+59  -4.03987e+67  1.46739e+133  4.42178e+198   4.02166e+67  -5.52377e+65  -1.35578e+65  -3.97107e+67   4.87665e+65   1.49871e+66  -3.19941e+66
  -1.71221e+59   1.49097e+59  -3.57287e+59  -4.83987e+67  1.59519e+134 -7.43877e+199   4.67217e+67  -2.51346e+66  -1.83638e+66  -4.40489e+67  -7.48105e+65   5.72526e+66  -1.83399e+66
          -300            10           -50  -9.32052e+67  2.40079e+135 -1.87561e+202    7.9287e+67  -1.98153e+67  -1.98153e+67  -5.35747e+67  -7.98564e+51   7.04395e+66  -8.08916e+66
          -300             5           -50  -8.59238e+67  2.04268e+135 -1.47377e+202   7.30768e+67  -1.82673e+67  -1.82673e+67  -4.93893e+67   5.61217e+51   2.81739e+66  -9.35337e+66
   -8.8855e+59  -5.86145e+58  -5.59638e+59  -1.42288e+67  -4.6091e+133  1.69559e+199   1.57655e+67   1.88553e+66  -2.92763e+65  -1.58216e+67   4.36413e+65   1.61664e+65  -4.48577e+66
  -9.14486e+59   -2.9698e+58   -5.6501e+59  -1.48466e+67 -3.87967e+133  2.13184e+199   1.61003e+67   1.75133e+66  -4.24106e+65  -1.61739e+67  -3.86536e+65  -2.59485e+64  -4.05432e+66
  -5.39434e+59  -3.45201e+58  -4.27241e+59  -1.22734e+67 -9.64197e+133 -4.15551e+199    1.5718e+67   2.85519e+66   4.98176e+65  -1.56268e+67  -4.20282e+65   8.45057e+64  -6.72726e+66
  -5.09478e+59  -6.74077e+58  -4.24208e+59  -1.17762e+67 -1.02063e+134 -5.46852e+199   1.55158e+67    2.9201e+66   6.03891e+65  -1.53002e+67   5.42777e+65   2.72118e+65  -7.03846e+66
   -9.4052e+59  -9.37887e+58  -8.43761e+59    -2.378e+67  8.55306e+131   1.3468e+199    2.3762e+67  -1.45031e+65  -6.77431e+65  -2.29576e+67   4.37843e+65   2.16297e+65   -4.2292e+66
  -9.66426e+59  -4.74531e+58  -8.54246e+59  -2.50618e+67   1.8446e+133  7.27744e+198    2.4691e+67  -4.20393e+65  -9.49931e+65  -2.36914e+67  -3.85105e+65  -1.11426e+65  -3.77592e+66
  -5.97266e+59  -5.55797e+58    -6.599e+59  -2.17149e+67 -7.05119e+133  -2.0342e+199    2.3282e+67   8.47941e+65   4.17048e+65  -2.29799e+67  -4.40683e+65   1.19273e+65  -6.44886e+66
  -5.66879e+59  -1.08852e+59  -6.54298e+59  -2.05537e+67 -8.40281e+133 -4.34219e+199   2.25052e+67   1.05401e+66    6.6392e+65  -2.22716e+67   5.22376e+65   4.46996e+65  -6.78189e+66
  -9.14486e+59   -2.9698e+58   -5.6501e+59  -1.46428e+67 -4.12124e+133  1.64437e+199   1.59882e+67   1.79467e+66  -3.06918e+65  -1.61305e+67   4.43793e+65   1.69896e+65  -4.05432e+66
  -9.22848e+59  -5.89192e+46  -5.66236e+59  -1.49953e+67 -3.83725e+133  1.90858e+199   1.62244e+67   1.72331e+66  -3.81866e+65  -1.63367e+67  -3.95032e+65  -5.79214e+64  -3.95477e+66
   -5.4877e+59  -4.98555e+46  -4.27078e+59  -1.21119e+67 -9.95267e+133 -5.90779e+199   1.56915e+67   2.92506e+66   6.86777e+65  -1.57237e+67  -4.41086e+65   7.71466e+63  -6.67453e+66
  -5.39434e+59  -3.45201e+58  -4.27241e+59  -1.18476e+67 -1.00738e+134 -6.47793e+199   1.55275e+67   2.94573e+66   7.42973e+65  -1.55363e+67   5.53852e+65   2.35532e+65  -6.72726e+66
  -9.66426e+59  -4.74531e+58  -8.54246e+59  -2.47702e+67  1.27088e+133  8.26204e+198   2.45124e+67  -3.58412e+65  -7.82351e+65  -2.36295e+67   4.42002e+65   2.72511e+65  -3.77592e+66
  -9.74826e+59   -9.6298e+46  -8.56604e+59  -2.53813e+67  2.03801e+133  5.07591e+198   2.49766e+67  -4.84744e+65  -9.12266e+65  -2.39843e+67  -3.96824e+65  -1.11419e+65   -3.6604e+66
  -6.06979e+59  -7.71194e+46  -6.59878e+59  -2.16359e+67 -7.63211e+133 -3.52549e+199   2.33331e+67   9.00273e+65   6.51864e+65   -2.3188e+67  -4.58851e+65   1.04106e+63  -6.38016e+66
  -5.97266e+59  -5.55797e+58    -6.599e+59   -2.1113e+67 -8.10168e+133 -4.49882e+199   2.29516e+67   9.75906e+65   7.63028e+65  -2.28519e+67   5.36087e+65   3.84971e+65  -6.44886e+66
  -9.22848e+59  -5.89192e+46  -5.66236e+59  -1.49953e+67 -3.83725e+133  1.90858e+199   1.62244e+67   1.72331e+66  -3.81866e+65  -1.63367e+67   3.95032e+65   5.79214e+64  -3.95477e+66
  -9.14486e+59    2.9698e+58   -5.6501e+59  -1.46428e+67 -4.12124e+133  1.64437e+199   1.59882e+67   1.79467e+66  -3.06918e+65  -1.61305e+67  -4.43793e+65  -1.69896e+65  -4.05432e+66
  -5.39434e+59   3.45201e+58  -4.27241e+59  -1.18476e+67 -1.00738e+134 -6.47793e+199   1.55275e+67   2.94573e+66   7.42973e+65  -1.55363e+67  -5.53852e+65  -2.35532e+65  -6.72726e+66
   -5.4877e+59  -4.98555e+46  -4.27078e+59  -1.21119e+67 -9.95267e+133 -5.90779e+199   1.56915e+67   2.92506e+66   6.86777e+65  -1.57237e+67   4.41086e+65  -7.71466e+63  -6.67453e+66
  -9.74826e+59   -9.6298e+46  -8.56604e+59  -2.53813e+67  2.03801e+133  5.07591e+198   2.49766e+67  -4.84744e+65  -9.12266e+65  -2.39843e+67   3.96824e+65   1.11419e+65   -3.6604e+66
  -9.66426e+59   4.74531e+58  -8.54246e+59  -2.47702e+67  1.27088e+133  8.26204e+198   2.45124e+67  -3.58412e+65  -7.82351e+65  -2.36295e+67  -4.42002e+65  -2.72511e+65  -3.77592e+66
  -5.97266e+59   5.55797e+58    -6.599e+59   -2.1113e+67 -8.10168e+133 -4.49882e+199   2.29516e+67   9.75906e+65   7.63028e+65  -2.28519e+67  -5.36087e+65  -3.84971e+65  -6.44886e+66
  -6.06979e+59  -7.71194e+46  -6.59878e+59  -2.16359e+67 -7.63211e+133 -3.52549e+199   2.33331e+67   9.00273e+65   6.51864e+65   -2.3188e+67   4.58851e+65  -1.04106e+63  -6.38016e+66
  -9.14486e+59    2.9698e+58   -5.6501e+59  -1.48466e+67 -3.87967e+133  2.13184e+199   1.61003e+67   1.75133e+66  -4.24106e+65  -1.61739e+67   3.86536e+65   2.59485e+64  -4.05432e+66
   -8.8855e+59   5.86145e+58  -5.59638e+59  -1.42288e+67  -4.6091e+133  1.69559e+199   1.57655e+67   1.88553e+66  -2.92763e+65  -1.58216e+67  -4.36413e+65  -1.61664e+65  -4.48577e+66
  -5.09478e+59   6.74077e+58  -4.24208e+59  -1.17762e+67 -1.02063e+134 -5.46852e+199   1.55158e+67    2.9201e+66   6.03891e+65  -1.53002e+67  -5.42777e+65  -2.72118e+65  -7.03846e+66
  -5.39434e+59   3.45201e+58  -4.27241e+59  -1.22734e+67 -9.64197e+133 -4.15551e+199    1.5718e+67   2.85519e+66   4.98176e+65  -1.56268e+67   4.20282e+65  -8.45057e+64  -6.72726e+66
  -9.66426e+59   4.74531e+58  -8.54246e+59  -2.50618e+67   1.8446e+133  7.27744e+198    2.4691e+67  -4.20393e+65  -9.49931e+65  -2.36914e+67   3.85105e+65   1.11426e+65  -3.77592e+66
   -9.4052e+59   9.37887e+58  -8.43761e+59    -2.378e+67  8.55306e+131   1.3468e+199    2.3762e+67  -1.45031e+65  -6.77431e+65  -2.29576e+67  -4.37843e+65  -2.16297e+65   -4.2292e+66
  -5.66879e+59   1.08852e+59  -6.54298e+59  -2.05537e+67 -8.40281e+133 -4.34219e+199   2.25052e+67   1.05401e+66    6.6392e+65  -2.22716e+67  -5.22376e+65  -4.46996e+65  -6.78189e+66
  -5.97266e+59   5.55797e+58    -6.599e+59  -2.17149e+67 -7.05119e+133  -2.0342e+199    2.3282e+67   8.47941e+65   4.17048e+65  -2.29799e+67   4.40683e+65  -1.19273e+65  -6.44886e+66
  -5.09478e+59  -6.74077e+58  -4.24208e+59  -1.40131e+67 -4.89369e+133 -1.45853e+198   1.56622e+67   2.44453e+66   1.28317e+65   -1.6586e+67   5.42777e+65   1.12792e+65  -2.50402e+66
  -5.39434e+59  -3.45201e+58  -4.27241e+59  -1.57105e+67 -3.96765e+133  1.31322e+199   1.69262e+67   2.12447e+66  -2.32539e+65  -1.76024e+67  -4.20282e+65   3.87374e+62  -2.38814e+66
  -2.56226e+59  -3.75618e+58  -2.76298e+59   -1.4725e+67 -7.78449e+133 -1.17508e+199    1.7166e+67   2.46611e+66    2.0178e+65  -1.73929e+67  -3.58905e+65   3.28185e+65  -5.63059e+66
  -2.26386e+59  -7.28286e+58  -2.80202e+59  -1.31602e+67 -8.27392e+133 -3.61135e+199   1.59978e+67      2.71e+66   5.34466e+65  -1.64046e+67   6.84593e+65    4.4059e+65  -5.50459e+66
  -5.66879e+59  -1.08852e+59  -6.54298e+59  -2.52637e+67  7.44543e+131   8.9757e+198    2.5249e+67   5.26709e+64   -3.3742e+65   -2.4979e+67   5.22376e+65   1.27798e+65  -2.46195e+66
  -5.97266e+59  -5.55797e+58    -6.599e+59  -2.82967e+67  3.59937e+133 -4.13018e+198   2.76534e+67   -5.5133e+65  -9.82223e+65  -2.67631e+67  -4.40683e+65  -6.50461e+64  -2.32207e+66
  -3.15457e+59  -5.98048e+58  -4.40325e+59   -2.6867e+67 -2.05559e+133  1.47656e+199   2.72469e+67  -1.15259e+65  -2.92596e+65  -2.64592e+67  -4.03303e+65   5.04632e+65  -5.56452e+66
  -2.84677e+59  -1.17159e+59  -4.46781e+59  -2.39666e+67 -4.87984e+133 -7.92588e+198   2.49639e+67   4.12578e+65   3.24036e+65  -2.47032e+67   6.40195e+65   6.97476e+65  -5.46252e+66
  -5.39434e+59  -3.45201e+58  -4.27241e+59  -1.52846e+67 -4.50095e+133  4.37513e+198   1.66922e+67   2.21501e+66   1.22574e+64  -1.75119e+67   5.53852e+65   1.51414e+65  -2.38814e+66
   -5.4877e+59  -4.98555e+46  -4.27078e+59  -1.59318e+67  -4.1862e+133  8.97321e+198   1.71955e+67   2.11295e+66  -1.25334e+65  -1.79194e+67  -4.41086e+65   7.71466e+63  -2.40531e+66
  -2.65057e+59  -3.50439e+46  -2.73277e+59  -1.46208e+67 -8.50223e+133 -3.07646e+199   1.72856e+67   2.57911e+66   4.40778e+65  -1.76407e+67  -4.17241e+65   1.42687e+65  -5.71766e+66
  -2.56226e+59  -3.75618e+58  -2.76298e+59  -1.41264e+67 -8.49732e+133 -3.70754e+199   1.68679e+67   2.59339e+66   5.45903e+65  -1.72656e+67   6.33609e+65   2.86387e+65  -5.63059e+66
  -5.97266e+59  -5.55797e+58    -6.599e+59  -2.76948e+67  2.27725e+133  3.42827e+198   2.72805e+67  -4.23365e+65  -6.36243e+65  -2.66352e+67   5.36087e+65   2.00652e+65  -2.32207e+66
  -6.06979e+59  -7.71194e+46  -6.59878e+59   -2.8728e+67  3.48645e+133 -3.86008e+198   2.81146e+67  -6.07488e+65  -8.55897e+65  -2.72646e+67  -4.58851e+65   1.04106e+63  -2.31159e+66
   -3.2525e+59  -5.20681e+46  -4.35966e+59  -2.71082e+67 -2.68151e+133  1.01611e+199   2.75984e+67  -7.56938e+64  -1.12326e+65  -2.69202e+67  -4.62663e+65   2.05919e+65  -5.62394e+66
  -3.15457e+59  -5.98048e+58  -4.40325e+59  -2.62278e+67 -3.39869e+133  4.09025e+198   2.68679e+67   2.06501e+64    7.4861e+64  -2.63233e+67   5.88187e+65    4.0553e+65  -5.56452e+66
   -5.4877e+59  -4.98555e+46  -4.27078e+59  -1.59318e+67  -4.1862e+133  8.97321e+198   1.71955e+67   2.11295e+66  -1.25334e+65  -1.79194e+67   4.41086e+65  -7.71466e+63  -2.40531e+66
  -5.39434e+59   3.45201e+58  -4.27241e+59  -1.52846e+67 -4.50095e+133  4.37513e+198   1.66922e+67   2.21501e+66   1.22574e+64  -1.75119e+67  -5.53852e+65  -1.51414e+65  -2.38814e+66
  -2.56226e+59   3.75618e+58  -2.76298e+59  -1.41264e+67 -8.49732e+133 -3.70754e+199   1.68679e+67   2.59339e+66   5.45903e+65  -1.72656e+67  -6.33609e+65  -2.86387e+65  -5.63059e+66
  -2.65057e+59  -3.50439e+46  -2.73277e+59  -1.46208e+67 -8.50223e+133 -3.07646e+199   1.72856e+67   2.57911e+66   4.40778e+65  -1.76407e+67   4.17241e+65  -1.42687e+65  -5.71766e+66
  -6.06979e+59  -7.71194e+46  -6.59878e+59   -2.8728e+67  3.48645e+133 -3.86008e+198   2.81146e+67  -6.07488e+65  -8.55897e+65  -2.72646e+67   4.58851e+65  -1.04106e+63  -2.31159e+66
  -5.97266e+59   5.55797e+58    -6.599e+59  -2.76948e+67  2.27725e+133  3.42827e+198   2.72805e+67  -4.23365e+65  -6.36243e+65  -2.66352e+67  -5.36087e+65  -2.00652e+65  -2.32207e+66
  -3.15457e+59   5.98048e+58  -4.40325e+59  -2.62278e+67 -3.39869e+133  4.09025e+198   2.68679e+67   2.06501e+64    7.4861e+64  -2.63233e+67  -5.88187e+65   -4.0553e+65  -5.56452e+66
   -3.2525e+59  -5.20681e+46  -4.35966e+59  -2.71082e+67 -2.68151e+133  1.01611e+199   2.75984e+67  -7.56938e+64  -1.12326e+65  -2.69202e+67   4.62663e+65  -2.05919e+65  -5.62394e+66
  -5.39434e+59   3.45201e+58  -4.27241e+59  -1.57105e+67 -3.96765e+133  1.31322e+199   1.69262e+67   2.12447e+66  -2.32539e+65  -1.76024e+67   4.20282e+65  -3.87374e+62  -2.38814e+66
  -5.09478e+59   6.74077e+58  -4.24208e+59  -1.40131e+67 -4.89369e+133 -1.45853e+198   1.56622e+67   2.44453e+66   1.28317e+65   -1.6586e+67  -5.42777e+65  -1.12792e+65  -2.50402e+66
  -2.26386e+59   7.28286e+58  -2.80202e+59  -1.31602e+67 -8.27392e+133 -3.61135e+199   1.59978e+67      2.71e+66   5.34466e+65  -1.64046e+67  -6.84593e+65   -4.4059e+65  -5.50459e+66
  -2.56226e+59   3.75618e+58  -2.76298e+59   -1.4725e+67 -7.78449e+133 -1.17508e+199    1.7166e+67   2.46611e+66    2.0178e+65  -1.73929e+67   3.58905e+65  -3.28185e+65  -5.63059e+66
  -5.97266e+59   5.55797e+58    -6.599e+59  -2.82967e+67  3.59937e+133 -4.13018e+198   2.76534e+67   -5.5133e+65  -9.82223e+65  -2.67631e+67   4.40683e+65   6.50461e+64  -2.32207e+66
  -5.66879e+59   1.08852e+59  -6.54298e+59  -2.52637e+67  7.44543e+131   8.9757e+198    2.5249e+67   5.26709e+64   -3.3742e+65   -2.4979e+67  -5.22376e+65  -1.27798e+65  -2.46195e+66
  -2.84677e+59   1.17159e+59  -4.46781e+59  -2.39666e+67 -4.87984e+133 -7.92588e+198   2.49639e+67   4.12578e+65   3.24036e+65  -2.47032e+67  -6.40195e+65  -6.97476e+65  -5.46252e+66
  -3.15457e+59   5.98048e+58  -4.40325e+59   -2.6867e+67 -2.05559e+133  1.47656e+199   2.72469e+67  -1.15259e+65  -2.92596e+65  -2.64592e+67   4.03303e+65  -5.04632e+65  -5.56452e+66
  -2.26386e+59  -7.28286e+58  -2.80202e+59  -1.22222e+67 -5.63794e+133  -2.6589e+199   1.43444e+67   2.90941e+66    7.3387e+65  -1.58655e+67   6.84593e+65  -5.15639e+64  -4.90648e+65
  -2.56226e+59  -3.75618e+58  -2.76298e+59  -1.49745e+67 -4.56171e+133 -4.56594e+198   1.64272e+67   2.41307e+66   1.48736e+65  -1.75363e+67  -3.58905e+65  -2.96599e+65  -9.13504e+65
  -7.28626e+58  -2.73788e+58  -1.24397e+59  -1.86211e+67 -2.08452e+133  6.45711e+198   1.91726e+67  -1.73049e+65  -1.36444e+65  -1.83116e+67  -3.60065e+65   2.46247e+65  -5.13282e+66
   -4.9422e+58  -6.78322e+58  -1.39792e+59  -1.57707e+67 -3.35339e+133 -6.36443e+198   1.68002e+67   3.79693e+65   4.69552e+65  -1.66199e+67   7.19535e+65   4.91282e+65  -4.34036e+66
  -2.84677e+59  -1.17159e+59  -4.46781e+59  -2.77174e+67  2.08843e+133  7.37975e+198   2.73381e+67  -3.84839e+65   -4.7338e+65  -2.68592e+67   6.40195e+65  -1.98409e+65  -1.37831e+66
  -3.15457e+59  -5.98048e+58  -4.40325e+59  -3.25106e+67  8.16518e+133 -4.89274e+199   3.12296e+67  -1.31506e+66   -1.4924e+66  -2.97031e+67  -4.03303e+65  -4.79546e+65  -1.81894e+66
  -1.12929e+59  -4.31981e+58  -1.99116e+59  -3.59578e+67  1.37681e+134 -1.27383e+200   3.39894e+67   -3.8588e+66    -1.663e+66   -3.0436e+67  -3.86692e+65   4.32906e+65  -6.03825e+66
  -8.89244e+58  -1.06503e+59  -2.24886e+59  -3.10665e+67  6.98368e+133 -2.27843e+199   2.99214e+67  -2.87217e+66  -6.23115e+65  -2.75712e+67   6.92908e+65   7.14043e+65  -5.22802e+66
  -2.56226e+59  -3.75618e+58  -2.76298e+59  -1.43759e+67 -5.29037e+133 -1.51181e+199   1.61111e+67   2.54035e+66   4.92859e+65  -1.74091e+67   6.33609e+65  -3.38398e+65  -9.13504e+65
  -2.65057e+59  -3.50439e+46  -2.73277e+59  -1.34011e+67 -5.94868e+133 -3.15697e+199   1.54621e+67   2.83842e+66   7.00092e+65  -1.69396e+67  -4.17241e+65   1.42687e+65  -1.15688e+66
  -7.78811e+58  -1.75416e+46  -1.24152e+59  -2.12361e+67  2.19374e+133  3.04332e+199   2.07132e+67  -7.03017e+65   -1.9278e+66  -1.86053e+67  -2.37093e+65   1.15769e+64  -5.32059e+66
  -7.28626e+58  -2.73788e+58  -1.24397e+59  -2.20319e+67  3.20743e+133   2.7006e+199   2.12915e+67  -8.98172e+65  -2.09696e+66  -1.90367e+67   5.10275e+65  -4.69508e+65  -5.13282e+66
  -3.15457e+59  -5.98048e+58  -4.40325e+59  -3.18713e+67  6.54628e+133 -2.36362e+199   3.08272e+67  -1.17915e+66  -1.12494e+66  -2.95672e+67   5.88187e+65  -5.78648e+65  -1.81894e+66
   -3.2525e+59  -5.20681e+46  -4.35966e+59  -3.05895e+67   4.4298e+133   -9.747e+198   2.98566e+67  -8.15794e+65  -8.52426e+65  -2.89212e+67  -4.62663e+65   2.05919e+65  -2.09474e+66
  -1.18222e+59  -2.53429e+46  -1.98709e+59  -4.01002e+67  2.65062e+134 -4.72051e+200   3.66465e+67   -4.7135e+66  -4.44354e+66  -3.09432e+67  -2.50088e+65   1.91966e+64  -6.25845e+66
  -1.12929e+59  -4.31981e+58  -1.99116e+59   -4.1203e+67  2.90503e+134 -5.48258e+200   3.75125e+67  -4.97393e+66  -4.67799e+66  -3.15511e+67    4.9728e+65   -7.6537e+65  -6.03825e+66
  -2.65057e+59  -3.50439e+46  -2.73277e+59  -1.34011e+67 -5.94868e+133 -3.15697e+199   1.54621e+67   2.83842e+66   7.00092e+65  -1.69396e+67   4.17241e+65  -1.42687e+65  -1.15688e+66
  -2.56226e+59   3.75618e+58  -2.76298e+59  -1.43759e+67 -5.29037e+133 -1.51181e+199   1.61111e+67   2.54035e+66   4.92859e+65  -1.74091e+67  -6.33609e+65   3.38398e+65  -9.13504e+65
  -7.28626e+58   2.73788e+58  -1.24397e+59  -2.20319e+67  3.20743e+133   2.7006e+199   2.12915e+67  -8.98172e+65  -2.09696e+66  -1.90367e+67  -5.10275e+65   4.69508e+65  -5.13282e+66
  -7.78811e+58  -1.75416e+46  -1.24152e+59  -2.12361e+67  2.19374e+133  3.04332e+199   2.07132e+67  -7.03017e+65   -1.9278e+66  -1.86053e+67   2.37093e+65  -1.15769e+64  -5.32059e+66
   -3.2525e+59  -5.20681e+46  -4.35966e+59  -3.05895e+67   4.4298e+133   -9.747e+198   2.98566e+67  -8.15794e+65  -8.52426e+65  -2.89212e+67   4.62663e+65  -2.05919e+65  -2.09474e+66
  -3.15457e+59   5.98048e+58  -4.40325e+59  -3.18713e+67  6.54628e+133 -2.36362e+199   3.08272e+67  -1.17915e+66  -1.12494e+66  -2.95672e+67  -5.88187e+65   5.78648e+65  -1.81894e+66
  -1.12929e+59   4.31981e+58  -1.99116e+59   -4.1203e+67  2.90503e+134 -5.48258e+200   3.75125e+67  -4.97393e+66  -4.67799e+66  -3.15511e+67   -4.9728e+65    7.6537e+65  -6.03825e+66
  -1.18222e+59  -2.53429e+46  -1.98709e+59  -4.01002e+67  2.65062e+134 -4.72051e+200   3.66465e+67   -4.7135e+66  -4.44354e+66  -3.09432e+67   2.50088e+65  -1.91966e+64  -6.25845e+66
  -2.56226e+59   3.75618e+58  -2.76298e+59  -1.49745e+67 -4.56171e+133 -4.56594e+198   1.64272e+67   2.41307e+66   1.48736e+65  -1.75363e+67   3.58905e+65   2.96599e+65  -9.13504e+65
  -2.26386e+59   7.28286e+58  -2.80202e+59  -1.22222e+67 -5.63794e+133  -2.6589e+199   1.43444e+67   2.90941e+66    7.3387e+65  -1.58655e+67  -6.84593e+65   5.15639e+64  -4.90648e+65
   -4.9422e+58   6.78322e+58  -1.39792e+59  -1.57707e+67 -3.35339e+133 -6.36443e+198   1.68002e+67   3.79693e+65   4.69552e+65  -1.66199e+67  -7.19535e+65  -4.91282e+65  -4.34036e+66
  -7.28626e+58   2.73788e+58  -1.24397e+59  -1.86211e+67 -2.08452e+133  6.45711e+198   1.91726e+67  -1.73049e+65  -1.36444e+65  -1.83116e+67   3.60065e+65  -2.46247e+65  -5.13282e+66
  -3.15457e+59   5.98048e+58  -4.40325e+59  -3.25106e+67  8.16518e+133 -4.89274e+199   3.12296e+67  -1.31506e+66   -1.4924e+66  -2.97031e+67   4.03303e+65   4.79546e+65  -1.81894e+66
  -2.84677e+59   1.17159e+59  -4.46781e+59  -2.77174e+67  2.08843e+133  7.37975e+198   2.73381e+67  -3.84839e+65   -4.7338e+65  -2.68592e+67  -6.40195e+65   1.98409e+65  -1.37831e+66
  -8.89244e+58   1.06503e+59  -2.24886e+59  -3.10665e+67  6.98368e+133 -2.27843e+199   2.99214e+67  -2.87217e+66  -6.23115e+65  -2.75712e+67  -6.92908e+65  -7.14043e+65  -5.22802e+66
  -1.12929e+59   4.31981e+58  -1.99116e+59  -3.59578e+67  1.37681e+134 -1.27383e+200   3.39894e+67   -3.8588e+66    -1.663e+66   -3.0436e+67   3.86692e+65  -4.32906e+65  -6.03825e+66
   -4.9422e+58  -6.78322e+58  -1.39792e+59  -1.56096e+67 -2.44543e+133 -4.86927e+198   1.63742e+67   4.13941e+65     5.038e+65  -1.65273e+67   7.19535e+65  -2.47734e+66   1.68525e+66
  -7.28626e+58  -2.73788e+58  -1.24397e+59  -1.14464e+67 -3.74701e+133 -2.52154e+199   1.29804e+67   1.35228e+66   1.38888e+66  -1.41876e+67  -3.60065e+65  -5.66155e+65   8.76768e+64
          -290            -5           -50  -3.24515e+67  2.91457e+134  -7.9456e+200   2.75978e+67  -6.89913e+66  -6.89913e+66  -1.86532e+67   2.76224e+51  -1.29349e+66  -3.44233e+66
          -290           -10           -50  -3.64676e+67  3.69417e+134 -1.13808e+201   3.09914e+67  -7.75296e+66  -7.75296e+66  -2.09617e+67  -3.97017e+51  -3.20467e+66   -2.3349e+66
  -8.89244e+58  -1.06503e+59  -2.24886e+59  -3.18465e+67  9.45655e+133 -8.52597e+198   3.03255e+67    -3.038e+66  -7.88946e+65  -2.80195e+67   6.92908e+65  -3.81417e+66  -1.81004e+65
  -1.12929e+59  -4.31981e+58  -1.99116e+59  -2.49769e+67  1.54624e+133   2.5996e+199   2.46654e+67  -1.52429e+66   6.71518e+65  -2.41241e+67  -3.86692e+65  -8.23383e+65  -1.80521e+66
          -295            -5           -50  -5.19432e+67  7.48747e+134 -3.28072e+201   4.41515e+67  -1.10431e+67  -1.10431e+67  -2.98571e+67   5.13279e+51  -2.04086e+66  -5.33521e+66
          -295           -10           -50  -5.86658e+67  9.53751e+134 -4.70969e+201   4.98791e+67  -1.24723e+67  -1.24723e+67  -3.37213e+67  -6.71998e+51  -5.03164e+66  -4.20115e+66
  -7.28626e+58  -2.73788e+58  -1.24397e+59  -1.48572e+67 -3.09778e+132  8.08833e+198   1.49611e+67   6.27154e+65  -5.71637e+65  -1.49127e+67   5.10275e+65  -1.28191e+66   8.76768e+64
  -7.78811e+58  -1.75416e+46  -1.24152e+59  -1.47215e+67 -2.51973e+132  6.35062e+198   1.48068e+67   6.81988e+65  -5.42792e+65  -1.48607e+67  -2.37093e+65   1.15769e+64  -1.57036e+65
          -290             0           -50  -3.23875e+67  2.90241e+134 -7.89401e+200   2.75447e+67  -6.88554e+66  -6.88554e+66  -1.86165e+67   5.61217e+50  -8.28356e+53  -3.67942e+66
          -290            -5           -50  -3.24515e+67  2.91457e+134  -7.9456e+200   2.75978e+67  -6.89913e+66  -6.89913e+66  -1.86532e+67  -1.12828e+51  -1.29349e+66  -3.44233e+66
  -1.12929e+59  -4.31981e+58  -1.99116e+59  -3.02222e+67  1.24357e+134  -1.2782e+200   2.80895e+67  -2.63942e+66  -2.34348e+66  -2.52393e+67    4.9728e+65  -2.02166e+66  -1.80521e+66
  -1.18222e+59  -2.53429e+46  -1.98709e+59  -3.00444e+67  1.24449e+134 -1.38027e+200   2.78966e+67  -2.57564e+66  -2.30569e+66  -2.51631e+67  -2.50088e+65   1.91966e+64  -2.06291e+66
          -295             0           -50  -5.18372e+67  7.46995e+134 -3.27501e+201   4.40466e+67  -1.10205e+67  -1.10205e+67  -2.97962e+67   1.04059e+51  -1.19689e+54   -5.5853e+66
          -295            -5           -50  -5.19432e+67  7.48747e+134 -3.28072e+201   4.41515e+67  -1.10431e+67  -1.10431e+67  -2.98571e+67  -2.58101e+51  -2.04086e+66  -5.33521e+66
  -7.78811e+58  -1.75416e+46  -1.24152e+59  -1.47215e+67 -2.51973e+132  6.35062e+198   1.48068e+67   6.81988e+65  -5.42792e+65  -1.48607e+67   2.37093e+65  -1.15769e+64  -1.57036e+65
  -7.28626e+58   2.73788e+58  -1.24397e+59  -1.48572e+67 -3.09778e+132  8.08833e+198   1.49611e+67   6.27154e+65  -5.71637e+65  -1.49127e+67  -5.10275e+65   1.28191e+66   8.76768e+64
          -290             5           -50  -3.24515e+67  2.91457e+134  -7.9456e+200   2.75978e+67  -6.89913e+66  -6.89913e+66  -1.86532e+67  -9.55091e+50   1.29349e+66  -3.44233e+66
          -290             0           -50  -3.23875e+67  2.90241e+134 -7.89401e+200   2.75447e+67  -6.88554e+66  -6.88554e+66  -1.86165e+67   3.91682e+50  -8.30039e+53  -3.67942e+66
  -1.18222e+59  -2.53429e+46  -1.98709e+59  -3.00444e+67  1.24449e+134 -1.38027e+200   2.78966e+67  -2.57564e+66  -2.30569e+66  -2.51631e+67   2.50088e+65  -1.91966e+64  -2.06291e+66
  -1.12929e+59   4.31981e+58  -1.99116e+59  -3.02222e+67  1.24357e+134  -1.2782e+200   2.80895e+67  -2.63942e+66  -2.34348e+66  -2.52393e+67   -4.9728e+65   2.02166e+66  -1.80521e+66
          -295             5           -50  -5.19432e+67  7.48747e+134 -3.28072e+201   4.41515e+67  -1.10431e+67  -1.10431e+67  -2.98571e+67  -2.53717e+51   2.04086e+66  -5.33521e+66
          -295             0           -50  -5.18372e+67  7.46995e+134 -3.27501e+201   4.40466e+67  -1.10205e+67  -1.10205e+67  -2.97962e+67   2.01687e+51  -1.19679e+54   -5.5853e+66
  -7.28626e+58   2.73788e+58  -1.24397e+59  -1.14464e+67 -3.74701e+133 -2.52154e+199   1.29804e+67   1.35228e+66   1.38888e+66  -1.41876e+67   3.60065e+65   5.66155e+65   8.76768e+64
   -4.9422e+58   6.78322e+58  -1.39792e+59  -1.56096e+67 -2.44543e+133 -4.86927e+198   1.63742e+67   4.13941e+65     5.038e+65  -1.65273e+67  -7.19535e+65   2.47734e+66   1.68525e+66
          -290            10           -50  -3.64676e+67  3.69417e+134 -1.13808e+201   3.09914e+67  -7.75296e+66  -7.75296e+66  -2.09617e+67  -3.40165e+51   3.20467e+66   -2.3349e+66
          -290             5           -50  -3.24515e+67  2.91457e+134  -7.9456e+200   2.75978e+67  -6.89913e+66  -6.89913e+66  -1.86532e+67   2.24779e+51   1.29349e+66  -3.44233e+66
  -1.12929e+59   4.31981e+58  -1.99116e+59  -2.49769e+67  1.54624e+133   2.5996e+199   2.46654e+67  -1.52429e+66   6.71518e+65  -2.41241e+67   3.86692e+65   8.23383e+65  -1.80521e+66
  -8.89244e+58   1.06503e+59  -2.24886e+59  -3.18465e+67  9.45655e+133 -8.52597e+198   3.03255e+67    -3.038e+66  -7.88946e+65  -2.80195e+67  -6.92908e+65   3.81417e+66  -1.81004e+65
          -295            10           -50  -5.86658e+67  9.53751e+134 -4.70969e+201   4.98791e+67  -1.24723e+67  -1.24723e+67  -3.37213e+67  -6.95382e+51   5.03164e+66  -4.20115e+66
          -295             5           -50  -5.19432e+67  7.48747e+134 -3.28072e+201   4.41515e+67  -1.10431e+67  -1.10431e+67  -2.98571e+67   4.25589e+51   2.04086e+66  -5.33521e+66
  -8.36151e+59  -2.24832e+58  -3.13215e+59  -5.92025e+66 -7.51059e+133  1.67287e+199   1.04955e+67    3.6924e+66  -2.03919e+65  -9.40873e+66       4.3e+65   8.95599e+64  -6.42945e+66
  -8.63181e+59  -1.13208e+58   -3.1331e+59  -6.03459e+66 -6.81753e+133  1.76467e+199    1.0227e+67   3.56484e+66  -2.28228e+65   -9.3712e+66  -4.08775e+65   5.47544e+64  -5.99363e+66
  -4.84616e+59  -1.25751e+58  -2.27709e+59  -4.92619e+66 -1.09861e+134 -6.58486e+198   1.15814e+67   4.13234e+66   7.70266e+64  -9.13555e+66  -4.26771e+65   2.38343e+64  -8.45825e+66
  -4.53638e+59  -2.44742e+58   -2.2696e+59  -4.83008e+66 -1.16409e+134 -8.93387e+198   1.18211e+67   4.24942e+66   9.74602e+64  -9.17696e+66    5.6481e+65   5.86399e+64  -8.75269e+66
   -8.8855e+59  -5.86145e+58  -5.59638e+59  -1.41171e+67  -6.6608e+133  2.14884e+199   1.63065e+67   1.94976e+66  -2.69007e+65  -1.57978e+67   4.81627e+65   1.61664e+65  -6.26682e+66
  -9.14486e+59   -2.9698e+58   -5.6501e+59  -1.50121e+67 -5.42526e+133  2.98862e+199   1.67217e+67   1.65624e+66  -4.59277e+65   -1.6209e+67  -3.57147e+65  -2.59485e+64   -5.8277e+66
  -5.39434e+59  -3.45201e+58  -4.27241e+59  -1.30599e+67   -1.113e+134 -3.25453e+199   1.67887e+67   2.40312e+66   3.30973e+65   -1.5794e+67  -3.78445e+65   8.45057e+64  -8.29232e+66
  -5.09478e+59  -6.74077e+58  -4.24208e+59  -1.21832e+67 -1.22141e+134 -5.68405e+199    1.6449e+67   2.68617e+66   5.17368e+65  -1.53867e+67   6.13136e+65   2.72118e+65  -8.59007e+66
  -8.63181e+59  -1.13208e+58   -3.1331e+59  -5.99328e+66 -6.84157e+133  1.57865e+199   1.02145e+67   3.57362e+66  -2.04481e+65  -9.36241e+66   4.61906e+65   6.88664e+64  -5.99363e+66
  -8.71781e+59  -2.31392e+46  -3.13107e+59  -6.09595e+66 -6.66685e+133  1.69483e+199   1.01897e+67   3.52924e+66  -2.26311e+65  -9.39888e+66  -4.06309e+65   9.60919e+63  -5.88734e+66
  -4.94037e+59  -2.44717e+46  -2.27351e+59  -4.81224e+66 -1.09613e+134 -1.59974e+199   1.15226e+67    4.1486e+66   1.65118e+65  -9.12597e+66  -4.45065e+65   1.69281e+64  -8.41028e+66
  -4.84616e+59  -1.25751e+58  -2.27709e+59  -4.74986e+66 -1.10714e+134 -1.71304e+199   1.15445e+67   4.16982e+66   1.78381e+65  -9.09806e+66   5.91711e+65   7.61854e+64  -8.45825e+66
  -9.14486e+59   -2.9698e+58   -5.6501e+59  -1.48082e+67 -5.67411e+133  2.36504e+199    1.6614e+67   1.69958e+66  -3.42089e+65  -1.61657e+67   4.73182e+65   1.69896e+65   -5.8277e+66
  -9.22848e+59  -5.89192e+46  -5.66236e+59  -1.52329e+67 -5.24134e+133  2.76508e+199   1.68658e+67   1.58674e+66  -4.32377e+65  -1.63872e+67  -3.95032e+65  -5.79214e+64  -5.71412e+66
   -5.4877e+59  -4.98555e+46  -4.27078e+59  -1.30184e+67 -1.12982e+134 -4.92718e+199   1.68066e+67   2.40398e+66   4.94048e+65  -1.59165e+67  -4.41086e+65   7.71466e+63  -8.23705e+66
  -5.39434e+59  -3.45201e+58  -4.27241e+59   -1.2634e+67 -1.15938e+134 -5.90309e+199   1.65999e+67   2.49366e+66    5.7577e+65  -1.57035e+67   5.95689e+65   2.35532e+65  -8.29232e+66
  -8.71781e+59  -2.31392e+46  -3.13107e+59  -6.09595e+66 -6.66685e+133  1.69483e+199   1.01897e+67   3.52924e+66  -2.26311e+65  -9.39888e+66   4.06309e+65  -9.60919e+63  -5.88734e+66
  -8.63181e+59   1.13208e+58   -3.1331e+59  -5.99328e+66 -6.84157e+133  1.57865e+199   1.02145e+67   3.57362e+66  -2.04481e+65  -9.36241e+66  -4.61906e+65  -6.88664e+64  -5.99363e+66
  -4.84616e+59   1.25751e+58  -2.27709e+59  -4.74986e+66 -1.10714e+134 -1.71304e+199   1.15445e+67   4.16982e+66   1.78381e+65  -9.09806e+66  -5.91711e+65  -7.61854e+64  -8.45825e+66
  -4.94037e+59  -2.44717e+46  -2.27351e+59  -4.81224e+66 -1.09613e+134 -1.59974e+199   1.15226e+67    4.1486e+66   1.65118e+65  -9.12597e+66   4.45065e+65  -1.69281e+64  -8.41028e+66
  -9.22848e+59  -5.89192e+46  -5.66236e+59  -1.52329e+67 -5.24134e+133  2.76508e+199   1.68658e+67   1.58674e+66  -4.32377e+65  -1.63872e+67   3.95032e+65   5.79214e+64  -5.71412e+66
  -9.14486e+59    2.9698e+58   -5.6501e+59  -1.48082e+67 -5.67411e+133  2.36504e+199    1.6614e+67   1.69958e+66  -3.42089e+65  -1.61657e+67  -4.73182e+65  -1.69896e+65   -5.8277e+66
  -5.39434e+59   3.45201e+58  -4.27241e+59   -1.2634e+67 -1.15938e+134 -5.90309e+199   1.65999e+67   2.49366e+66    5.7577e+65  -1.57035e+67  -5.95689e+65  -2.35532e+65  -8.29232e+66
   -5.4877e+59  -4.98555e+46  -4.27078e+59  -1.30184e+67 -1.12982e+134 -4.92718e+199   1.68066e+67   2.40398e+66   4.94048e+65  -1.59165e+67   4.41086e+65  -7.71466e+63  -8.23705e+66
  -8.63181e+59   1.13208e+58   -3.1331e+59  -6.03459e+66 -6.81753e+133  1.76467e+199    1.0227e+67   3.56484e+66  -2.28228e+65   -9.3712e+66   4.08775e+65  -5.47544e+64  -5.99363e+66
  -8.36151e+59   2.24832e+58  -3.13215e+59  -5.92025e+66 -7.51059e+133  1.67287e+199   1.04955e+67    3.6924e+66  -2.03919e+65  -9.40873e+66      -4.3e+65  -8.95599e+64  -6.42945e+66
  -4.53638e+59   2.44742e+58   -2.2696e+59  -4.83008e+66 -1.16409e+134 -8.93387e+198   1.18211e+67   4.24942e+66   9.74602e+64  -9.17696e+66   -5.6481e+65  -5.86399e+64  -8.75269e+66
  -4.84616e+59   1.25751e+58  -2.27709e+59  -4.92619e+66 -1.09861e+134 -6.58486e+198   1.15814e+67   4.13234e+66   7.70266e+64  -9.13555e+66   4.26771e+65  -2.38343e+64  -8.45825e+66
  -9.14486e+59    2.9698e+58   -5.6501e+59  -1.50121e+67 -5.42526e+133  2.98862e+199   1.67217e+67   1.65624e+66  -4.59277e+65   -1.6209e+67   3.57147e+65   2.59485e+64   -5.8277e+66
   -8.8855e+59   5.86145e+58  -5.59638e+59  -1.41171e+67  -6.6608e+133  2.14884e+199   1.63065e+67   1.94976e+66  -2.69007e+65  -1.57978e+67  -4.81627e+65  -1.61664e+65  -6.26682e+66
  -5.09478e+59   6.74077e+58  -4.24208e+59  -1.21832e+67 -1.22141e+134 -5.68405e+199    1.6449e+67   2.68617e+66   5.17368e+65  -1.53867e+67  -6.13136e+65  -2.72118e+65  -8.59007e+66
  -5.39434e+59   3.45201e+58  -4.27241e+59  -1.30599e+67   -1.113e+134 -3.25453e+199   1.67887e+67   2.40312e+66   3.30973e+65   -1.5794e+67   3.78445e+65  -8.45057e+64  -8.29232e+66
  -4.53638e+59  -2.44742e+58   -2.2696e+59  -4.55143e+66 -5.38131e+133  -5.8783e+198     8.633e+66   4.30866e+66   1.56699e+65  -9.01679e+66    5.6481e+65   1.04994e+65  -3.72759e+66
  -4.84616e+59  -1.25751e+58  -2.27709e+59  -5.26362e+66 -5.12623e+133  1.55782e+198   8.88639e+66    4.0606e+66    5.2893e+63  -9.32951e+66  -4.26771e+65   4.40761e+64  -3.62863e+66
  -2.08278e+59  -1.42578e+58  -1.40815e+59  -6.71943e+66 -7.31319e+133  1.52738e+199   1.08758e+67   3.10196e+66  -1.82379e+65  -9.63901e+66  -3.53644e+65   1.24729e+65   -6.6546e+66
  -1.77489e+59  -2.74463e+58  -1.41773e+59  -6.02636e+66 -7.37877e+133  5.22866e+198   1.04931e+67   3.33903e+66  -3.50326e+64  -9.33036e+66   6.89424e+65   1.85646e+65  -6.50642e+66
  -5.09478e+59  -6.74077e+58  -4.24208e+59  -1.44201e+67 -5.42973e+133   3.4509e+198   1.61937e+67   2.21059e+66   4.17945e+64  -1.66725e+67   6.13136e+65   1.12792e+65  -4.05562e+66
  -5.39434e+59  -3.45201e+58  -4.27241e+59   -1.6497e+67 -3.90543e+133  2.06728e+199    1.7641e+67    1.6724e+66  -3.99742e+65  -1.77696e+67  -3.78445e+65   3.87374e+62   -3.9532e+66
  -2.56226e+59  -3.75618e+58  -2.76298e+59  -1.76685e+67 -5.55504e+133  2.96162e+199   1.91762e+67   7.74204e+65  -4.23995e+65  -1.80187e+67  -3.08779e+65   3.28185e+65  -6.97917e+66
  -2.26386e+59  -7.28286e+58  -2.80202e+59  -1.56107e+67 -6.96807e+133  3.52473e+198   1.77024e+67   1.30141e+66   1.34782e+64  -1.69256e+67   7.34289e+65    4.4059e+65  -6.83445e+66
  -4.84616e+59  -1.25751e+58  -2.27709e+59  -5.08729e+66 -5.21598e+133 -2.66396e+198   8.83404e+66   4.09809e+66   1.06644e+65  -9.29202e+66   5.91711e+65   9.64271e+64  -3.62863e+66
  -4.94037e+59  -2.44717e+46  -2.27351e+59  -5.33475e+66  -5.1833e+133 -8.53394e+197   8.96061e+66   4.03752e+66    5.4035e+64   -9.4263e+66  -4.45065e+65   1.69281e+64  -3.64481e+66
  -2.17161e+59  -2.01379e+46  -1.39593e+59  -6.67943e+66 -7.56243e+133  7.55899e+198   1.09654e+67   3.10559e+66  -7.28442e+64  -9.71218e+66  -4.19676e+65   5.77641e+64  -6.76491e+66
  -2.08278e+59  -1.42578e+58  -1.40815e+59   -6.4405e+66 -7.49091e+133  4.78655e+198   1.07884e+67   3.16126e+66   -2.2049e+64  -9.57971e+66     6.813e+65   1.37263e+65   -6.6546e+66
  -5.39434e+59  -3.45201e+58  -4.27241e+59  -1.60711e+67 -4.47067e+133  1.27705e+199   1.74065e+67   1.76295e+66  -1.54946e+65  -1.76791e+67   5.95689e+65   1.51414e+65   -3.9532e+66
   -5.4877e+59  -4.98555e+46  -4.27078e+59  -1.68384e+67  -3.9516e+133  1.77287e+199   1.79735e+67   1.59187e+66  -3.18062e+65  -1.81122e+67  -4.41086e+65   7.71466e+63  -3.96783e+66
  -2.65057e+59  -3.50439e+46  -2.73277e+59  -1.78285e+67 -5.96645e+133  1.93845e+199   1.94299e+67   7.35311e+65  -2.41175e+65  -1.83227e+67  -4.17241e+65   1.42687e+65  -7.08794e+66
  -2.56226e+59  -3.75618e+58  -2.76298e+59  -1.70698e+67 -6.40301e+133  1.07357e+199   1.88523e+67   9.01483e+65  -7.98719e+64  -1.78914e+67   6.83734e+65   2.86387e+65  -6.97917e+66
  -4.94037e+59  -2.44717e+46  -2.27351e+59  -5.33475e+66  -5.1833e+133 -8.53394e+197   8.96061e+66   4.03752e+66    5.4035e+64   -9.4263e+66   4.45065e+65  -1.69281e+64  -3.64481e+66
  -4.84616e+59   1.25751e+58  -2.27709e+59  -5.08729e+66 -5.21598e+133 -2.66396e+198   8.83404e+66   4.09809e+66   1.06644e+65  -9.29202e+66  -5.91711e+65  -9.64271e+64  -3.62863e+66
  -2.08278e+59   1.42578e+58  -1.40815e+59   -6.4405e+66 -7.49091e+133  4.78655e+198   1.07884e+67   3.16126e+66   -2.2049e+64  -9.57971e+66    -6.813e+65  -1.37263e+65   -6.6546e+66
  -2.17161e+59  -2.01379e+46  -1.39593e+59  -6.67943e+66 -7.56243e+133  7.55899e+198   1.09654e+67   3.10559e+66  -7.28442e+64  -9.71218e+66   4.19676e+65  -5.77641e+64  -6.76491e+66
   -5.4877e+59  -4.98555e+46  -4.27078e+59  -1.68384e+67  -3.9516e+133  1.77287e+199   1.79735e+67   1.59187e+66  -3.18062e+65  -1.81122e+67   4.41086e+65  -7.71466e+63  -3.96783e+66
  -5.39434e+59   3.45201e+58  -4.27241e+59  -1.60711e+67 -4.47067e+133  1.27705e+199   1.74065e+67   1.76295e+66  -1.54946e+65  -1.76791e+67  -5.95689e+65  -1.51414e+65   -3.9532e+66
  -2.56226e+59   3.75618e+58  -2.76298e+59  -1.70698e+67 -6.40301e+133  1.07357e+199   1.88523e+67   9.01483e+65  -7.98719e+64  -1.78914e+67  -6.83734e+65  -2.86387e+65  -6.97917e+66
  -2.65057e+59  -3.50439e+46  -2.73277e+59  -1.78285e+67 -5.96645e+133  1.93845e+199   1.94299e+67   7.35311e+65  -2.41175e+65  -1.83227e+67   4.17241e+65  -1.42687e+65  -7.08794e+66
  -4.84616e+59   1.25751e+58  -2.27709e+59  -5.26362e+66 -5.12623e+133  1.55782e+198   8.88639e+66    4.0606e+66    5.2893e+63  -9.32951e+66   4.26771e+65  -4.40761e+64  -3.62863e+66
  -4.53638e+59   2.44742e+58   -2.2696e+59  -4.55143e+66 -5.38131e+133  -5.8783e+198     8.633e+66   4.30866e+66   1.56699e+65  -9.01679e+66   -5.6481e+65  -1.04994e+65  -3.72759e+66
  -1.77489e+59   2.74463e+58  -1.41773e+59  -6.02636e+66 -7.37877e+133  5.22866e+198   1.04931e+67   3.33903e+66  -3.50326e+64  -9.33036e+66  -6.89424e+65  -1.85646e+65  -6.50642e+66
  -2.08278e+59   1.42578e+58  -1.40815e+59  -6.71943e+66 -7.31319e+133  1.52738e+199   1.08758e+67   3.10196e+66  -1.82379e+65  -9.63901e+66   3.53644e+65  -1.24729e+65   -6.6546e+66
  -5.39434e+59   3.45201e+58  -4.27241e+59   -1.6497e+67 -3.90543e+133  2.06728e+199    1.7641e+67    1.6724e+66  -3.99742e+65  -1.77696e+67   3.78445e+65  -3.87374e+62   -3.9532e+66
  -5.09478e+59   6.74077e+58  -4.24208e+59  -1.44201e+67 -5.42973e+133   3.4509e+198   1.61937e+67   2.21059e+66   4.17945e+64  -1.66725e+67  -6.13136e+65  -1.12792e+65  -4.05562e+66
  -2.26386e+59   7.28286e+58  -2.80202e+59  -1.56107e+67 -6.96807e+133  3.52473e+198   1.77024e+67   1.30141e+66   1.34782e+64  -1.69256e+67  -7.34289e+65   -4.4059e+65  -6.83445e+66
  -2.56226e+59   3.75618e+58  -2.76298e+59  -1.76685e+67 -5.55504e+133  2.96162e+199   1.91762e+67   7.74204e+65  -4.23995e+65  -1.80187e+67   3.08779e+65  -3.28185e+65  -6.97917e+66
  -1.77489e+59  -2.74463e+58  -1.41773e+59  -3.66283e+66 -3.37821e+133 -1.09316e+199   6.87011e+66   3.84151e+66   4.67449e+65   -7.9718e+66   6.89424e+65   4.05184e+64   -8.6639e+65
  -2.08278e+59  -1.42578e+58  -1.40815e+59  -5.12077e+66 -3.27215e+133 -4.04915e+198   7.67748e+66   3.44183e+66   1.57495e+65  -8.72009e+66  -3.53644e+65  -1.06658e+65  -1.31933e+66
  -4.48699e+58  -1.10428e+58  -6.00493e+58  -9.51376e+66 -2.37057e+133  1.51522e+199   1.06872e+67   6.22373e+65  -4.82095e+65  -9.65404e+66  -3.69157e+65   1.12512e+65  -4.68001e+66
  -2.07201e+58  -2.73466e+58  -6.56458e+58  -8.11857e+66 -2.32223e+133  8.13851e+198   9.44105e+66   9.85993e+65  -1.85479e+65  -8.91908e+66    7.7177e+65   2.59689e+65  -3.90339e+66
  -2.26386e+59  -7.28286e+58  -2.80202e+59  -1.46728e+67 -3.16181e+133  3.02817e+198   1.57134e+67   1.50081e+66   2.12883e+65  -1.63865e+67   7.34289e+65  -5.15639e+64  -1.82051e+66
  -2.56226e+59  -3.75618e+58  -2.76298e+59   -1.7918e+67 -1.00781e+133  9.94307e+198   1.81971e+67    7.2116e+65  -4.77039e+65  -1.81621e+67  -3.08779e+65  -2.96599e+65  -2.26209e+66
  -7.28626e+58  -2.73788e+58  -1.24397e+59  -2.17706e+67  2.27571e+133 -1.67388e+198   2.12416e+67  -1.98342e+66  -8.06034e+65  -1.89812e+67  -3.35655e+65   2.46247e+65  -5.62276e+66
   -4.9422e+58  -6.78322e+58  -1.39792e+59  -1.85882e+67 -7.47185e+131  7.91251e+198   1.86083e+67  -1.23983e+66  -1.29451e+65  -1.72189e+67   8.05272e+65   4.91282e+65  -4.85751e+66
  -2.08278e+59  -1.42578e+58  -1.40815e+59  -4.84184e+66 -3.41761e+133 -6.03221e+198   7.59075e+66   3.50113e+66   3.17825e+65  -8.66079e+66     6.813e+65  -9.41236e+64  -1.31933e+66
  -2.17161e+59  -2.01379e+46  -1.39593e+59   -4.5345e+66 -3.47852e+133 -1.09792e+199   7.43955e+66    3.5616e+66   3.83164e+65  -8.47927e+66  -4.19676e+65   5.77641e+64  -1.58799e+66
   -4.9864e+58  -1.13192e+46  -6.00563e+58   -1.0559e+67 -1.65133e+133  3.38218e+199    1.1314e+67   4.02458e+65  -1.20142e+66  -9.76007e+66  -2.35939e+65  -3.29567e+62  -4.87565e+66
  -4.48699e+58  -1.10428e+58  -6.00493e+58  -1.08862e+67 -1.32802e+133  3.56278e+199   1.14799e+67   3.30597e+65  -1.27097e+66  -9.94581e+66    5.3584e+65  -1.52217e+65  -4.68001e+66
  -2.56226e+59  -3.75618e+58  -2.76298e+59  -1.73193e+67 -1.87162e+133  1.20947e+199   1.78515e+67   8.48439e+65  -1.32916e+65  -1.80348e+67   6.83734e+65  -3.38398e+65  -2.26209e+66
  -2.65057e+59  -3.50439e+46  -2.73277e+59  -1.66088e+67 -2.44094e+133  2.91464e+198   1.73281e+67   9.94625e+65   1.81388e+64  -1.76216e+67  -4.17241e+65   1.42687e+65  -2.52716e+66
  -7.78811e+58  -1.75416e+46  -1.24152e+59  -2.44511e+67  7.23666e+133  -3.9079e+199   2.29235e+67  -2.55097e+66  -2.61129e+66  -1.92888e+67  -2.37093e+65   1.15769e+64  -5.81482e+66
  -7.28626e+58  -2.73788e+58  -1.24397e+59  -2.51814e+67  8.32654e+133  -5.1146e+199   2.34699e+67  -2.70854e+66  -2.76655e+66  -1.97063e+67   5.34685e+65  -4.69508e+65  -5.62276e+66
  -2.17161e+59  -2.01379e+46  -1.39593e+59   -4.5345e+66 -3.47852e+133 -1.09792e+199   7.43955e+66    3.5616e+66   3.83164e+65  -8.47927e+66   4.19676e+65  -5.77641e+64  -1.58799e+66
  -2.08278e+59   1.42578e+58  -1.40815e+59  -4.84184e+66 -3.41761e+133 -6.03221e+198   7.59075e+66   3.50113e+66   3.17825e+65  -8.66079e+66    -6.813e+65   9.41236e+64  -1.31933e+66
  -4.48699e+58   1.10428e+58  -6.00493e+58  -1.08862e+67 -1.32802e+133  3.56278e+199   1.14799e+67   3.30597e+65  -1.27097e+66  -9.94581e+66   -5.3584e+65   1.52217e+65  -4.68001e+66
   -4.9864e+58  -1.13192e+46  -6.00563e+58   -1.0559e+67 -1.65133e+133  3.38218e+199    1.1314e+67   4.02458e+65  -1.20142e+66  -9.76007e+66   2.35939e+65   3.29567e+62  -4.87565e+66
  -2.65057e+59  -3.50439e+46  -2.73277e+59  -1.66088e+67 -2.44094e+133  2.91464e+198   1.73281e+67   9.94625e+65   1.81388e+64  -1.76216e+67   4.17241e+65  -1.42687e+65  -2.52716e+66
  -2.56226e+59   3.75618e+58  -2.76298e+59  -1.73193e+67 -1.87162e+133  1.20947e+199   1.78515e+67   8.48439e+65  -1.32916e+65  -1.80348e+67  -6.83734e+65   3.38398e+65  -2.26209e+66
  -7.28626e+58   2.73788e+58  -1.24397e+59  -2.51814e+67  8.32654e+133  -5.1146e+199   2.34699e+67  -2.70854e+66  -2.76655e+66  -1.97063e+67  -5.34685e+65   4.69508e+65  -5.62276e+66
  -7.78811e+58  -1.75416e+46  -1.24152e+59  -2.44511e+67  7.23666e+133  -3.9079e+199   2.29235e+67  -2.55097e+66  -2.61129e+66  -1.92888e+67   2.37093e+65  -1.15769e+64  -5.81482e+66
  -2.08278e+59   1.42578e+58  -1.40815e+59  -5.12077e+66 -3.27215e+133 -4.04915e+198   7.67748e+66   3.44183e+66   1.57495e+65  -8.72009e+66   3.53644e+65   1.06658e+65  -1.31933e+66
  -1.77489e+59   2.74463e+58  -1.41773e+59  -3.66283e+66 -3.37821e+133 -1.09316e+199   6.87011e+66   3.84151e+66   4.67449e+65   -7.9718e+66  -6.89424e+65  -4.05184e+64   -8.6639e+65
  -2.07201e+58   2.73466e+58  -6.56458e+58  -8.11857e+66 -2.32223e+133  8.13851e+198   9.44105e+66   9.85993e+65  -1.85479e+65  -8.91908e+66   -7.7177e+65  -2.59689e+65  -3.90339e+66
  -4.48699e+58   1.10428e+58  -6.00493e+58  -9.51376e+66 -2.37057e+133  1.51522e+199   1.06872e+67   6.22373e+65  -4.82095e+65  -9.65404e+66   3.69157e+65  -1.12512e+65  -4.68001e+66
  -2.56226e+59   3.75618e+58  -2.76298e+59   -1.7918e+67 -1.00781e+133  9.94307e+198   1.81971e+67    7.2116e+65  -4.77039e+65  -1.81621e+67   3.08779e+65   2.96599e+65  -2.26209e+66
  -2.26386e+59   7.28286e+58  -2.80202e+59  -1.46728e+67 -3.16181e+133  3.02817e+198   1.57134e+67   1.50081e+66   2.12883e+65  -1.63865e+67  -7.34289e+65   5.15639e+64  -1.82051e+66
   -4.9422e+58   6.78322e+58  -1.39792e+59  -1.85882e+67 -7.47185e+131  7.91251e+198   1.86083e+67  -1.23983e+66  -1.29451e+65  -1.72189e+67  -8.05272e+65  -4.91282e+65  -4.85751e+66
  -7.28626e+58   2.73788e+58  -1.24397e+59  -2.17706e+67  2.27571e+133 -1.67388e+198   2.12416e+67  -1.98342e+66  -8.06034e+65  -1.89812e+67   3.35655e+65  -2.46247e+65  -5.62276e+66
  -2.07201e+58  -2.73466e+58  -6.56458e+58  -5.38439e+66 -2.18259e+133 -8.36148e+198   7.12864e+66   1.56728e+66   3.95803e+65  -7.34747e+66    7.7177e+65  -1.02757e+66   2.52409e+66
  -4.48699e+58  -1.10428e+58  -6.00493e+58  -4.10943e+66 -1.58323e+133 -7.34902e+198   5.72012e+66   1.77132e+66   6.66856e+65  -6.54761e+66  -3.69157e+65  -2.57308e+65   9.20222e+65
          -285            -5           -50   -1.5665e+67  6.63007e+133 -8.39977e+199   1.33826e+67  -3.33036e+66  -3.33036e+66  -9.00432e+66   1.42935e+51  -5.21708e+65  -2.11984e+66
          -285           -10           -50   -1.7125e+67   8.2303e+133  -1.2091e+200   1.45245e+67  -3.64075e+66  -3.64075e+66   -9.8435e+66  -1.95184e+51  -1.29197e+66  -9.78902e+65
   -4.9422e+58  -6.78322e+58  -1.39792e+59  -1.84271e+67  1.42423e+133  1.20084e+199   1.80365e+67  -1.20558e+66  -9.52026e+64  -1.71263e+67   8.05272e+65  -2.47734e+66    1.1681e+66
  -7.28626e+58  -2.73788e+58  -1.24397e+59   -1.4596e+67 -4.80519e+132   6.4469e+198   1.47596e+67  -4.58094e+65   7.19293e+65  -1.48572e+67  -3.35655e+65  -5.66155e+65  -4.02269e+65
          -290            -5           -50  -3.24515e+67  2.91457e+134  -7.9456e+200   2.75978e+67  -6.89913e+66  -6.89913e+66  -1.86532e+67   3.57776e+51  -1.29349e+66  -3.44233e+66
          -290           -10           -50  -3.64676e+67  3.69417e+134 -1.13808e+201   3.09914e+67  -7.75296e+66  -7.75296e+66  -2.09617e+67  -3.80867e+51  -3.20467e+66   -2.3349e+66
  -4.48699e+58  -1.10428e+58  -6.00493e+58  -5.48186e+66 -1.08717e+133  2.38376e+198   6.39706e+66   1.47955e+66  -1.22017e+65  -6.83939e+66    5.3584e+65  -5.22038e+65   9.20222e+65
   -4.9864e+58  -1.13192e+46  -6.00563e+58   -5.4773e+66 -1.00006e+133  1.66312e+198   6.32467e+66   1.48283e+66  -1.21049e+65  -6.83908e+66  -2.35939e+65  -3.29567e+62   6.72377e+65
          -285             0           -50  -1.56669e+67  6.55335e+133   -8.142e+199   1.34133e+67  -3.33075e+66  -3.33075e+66  -9.00536e+66   1.49073e+50  -5.34535e+53  -2.35578e+66
          -285            -5           -50   -1.5665e+67  6.63007e+133 -8.39977e+199   1.33826e+67  -3.33036e+66  -3.33036e+66  -9.00432e+66  -5.61582e+50  -5.21708e+65  -2.11984e+66
  -7.28626e+58  -2.73788e+58  -1.24397e+59  -1.80067e+67   3.7156e+133 -1.57333e+199   1.69436e+67  -1.18322e+66  -1.24123e+66  -1.55823e+67   5.34685e+65  -1.28191e+66  -4.02269e+65
  -7.78811e+58  -1.75416e+46  -1.24152e+59  -1.79364e+67  3.81348e+133 -2.08274e+199   1.68398e+67  -1.16596e+66  -1.22628e+66  -1.55442e+67  -2.37093e+65   1.15769e+64  -6.51269e+65
          -290             0           -50  -3.23875e+67  2.90241e+134 -7.89401e+200   2.75447e+67  -6.88554e+66  -6.88554e+66  -1.86165e+67   7.71673e+50  -8.28543e+53  -3.67942e+66
          -290            -5           -50  -3.24515e+67  2.91457e+134  -7.9456e+200   2.75978e+67  -6.89913e+66  -6.89913e+66  -1.86532e+67  -1.02013e+51  -1.29349e+66  -3.44233e+66
   -4.9864e+58  -1.13192e+46  -6.00563e+58   -5.4773e+66 -1.00006e+133  1.66312e+198   6.32467e+66   1.48283e+66  -1.21049e+65  -6.83908e+66   2.35939e+65   3.29567e+62   6.72377e+65
  -4.48699e+58   1.10428e+58  -6.00493e+58  -5.48186e+66 -1.08717e+133  2.38376e+198   6.39706e+66   1.47955e+66  -1.22017e+65  -6.83939e+66   -5.3584e+65   5.22038e+65   9.20222e+65
          -285             5           -50   -1.5665e+67  6.63007e+133 -8.39977e+199   1.33826e+67  -3.33036e+66  -3.33036e+66  -9.00432e+66  -8.04557e+50   5.21708e+65  -2.11984e+66
          -285             0           -50  -1.56669e+67  6.55335e+133   -8.142e+199   1.34133e+67  -3.33075e+66  -3.33075e+66  -9.00536e+66   2.39686e+50  -5.35237e+53  -2.35578e+66
  -7.78811e+58  -1.75416e+46  -1.24152e+59  -1.79364e+67  3.81348e+133 -2.08274e+199   1.68398e+67  -1.16596e+66  -1.22628e+66  -1.55442e+67   2.37093e+65  -1.15769e+64  -6.51269e+65
  -7.28626e+58   2.73788e+58  -1.24397e+59  -1.80067e+67   3.7156e+133 -1.57333e+199   1.69436e+67  -1.18322e+66  -1.24123e+66  -1.55823e+67  -5.34685e+65   1.28191e+66  -4.02269e+65
          -290             5           -50  -3.24515e+67  2.91457e+134  -7.9456e+200   2.75978e+67  -6.89913e+66  -6.89913e+66  -1.86532e+67  -1.56527e+51   1.29349e+66  -3.44233e+66
          -290             0           -50  -3.23875e+67  2.90241e+134 -7.89401e+200   2.75447e+67  -6.88554e+66  -6.88554e+66  -1.86165e+67   7.95057e+50  -8.28543e+53  -3.67942e+66
  -4.48699e+58   1.10428e+58  -6.00493e+58  -4.10943e+66 -1.58323e+133 -7.34902e+198   5.72012e+66   1.77132e+66   6.66856e+65  -6.54761e+66   3.69157e+65   2.57308e+65   9.20222e+65
  -2.07201e+58   2.73466e+58  -6.56458e+58  -5.38439e+66 -2.18259e+133 -8.36148e+198   7.12864e+66   1.56728e+66   3.95803e+65  -7.34747e+66   -7.7177e+65   1.02757e+66   2.52409e+66
          -285            10           -50   -1.7125e+67   8.2303e+133  -1.2091e+200   1.45245e+67  -3.64075e+66  -3.64075e+66   -9.8435e+66  -1.95476e+51   1.29197e+66  -9.78902e+65
          -285             5           -50   -1.5665e+67  6.63007e+133 -8.39977e+199   1.33826e+67  -3.33036e+66  -3.33036e+66  -9.00432e+66   1.47027e+51   5.21708e+65  -2.11984e+66
  -7.28626e+58   2.73788e+58  -1.24397e+59   -1.4596e+67 -4.80519e+132   6.4469e+198   1.47596e+67  -4.58094e+65   7.19293e+65  -1.48572e+67   3.35655e+65   5.66155e+65  -4.02269e+65
   -4.9422e+58   6.78322e+58  -1.39792e+59  -1.84271e+67  1.42423e+133  1.20084e+199   1.80365e+67  -1.20558e+66  -9.52026e+64  -1.71263e+67  -8.05272e+65   2.47734e+66    1.1681e+66
          -290            10           -50  -3.64676e+67  3.69417e+134 -1.13808e+201   3.09914e+67  -7.75296e+66  -7.75296e+66  -2.09617e+67  -5.29648e+51   3.20467e+66   -2.3349e+66
          -290             5           -50  -3.24515e+67  2.91457e+134  -7.9456e+200   2.75978e+67  -6.89913e+66  -6.89913e+66  -1.86532e+67   3.00485e+51   1.29349e+66  -3.44233e+66
   -7.7986e+59   1.61556e+58  -7.56534e+58      3.08e+66 -6.53077e+133  5.76967e+198   8.64836e+66   5.97366e+66  -8.06155e+64  -2.81305e+66   4.65041e+65   1.00707e+64  -6.93054e+66
  -8.08655e+59   8.37237e+57  -7.06045e+58   3.53033e+66 -5.65406e+133   1.8466e+197   8.30685e+66   5.90256e+66   1.51237e+64  -2.38735e+66  -4.30026e+65   1.22356e+65  -6.50402e+66
  -4.28281e+59   1.08314e+58  -3.73951e+58    3.3823e+66 -9.63073e+133   2.3063e+199   1.03801e+67   6.04204e+66  -2.40917e+65  -2.41882e+66  -4.38072e+65  -4.26209e+64   -8.9792e+66
  -3.95602e+59   2.09913e+58   -3.8952e+58   2.91498e+66 -1.04843e+134  3.77938e+199   1.06462e+67   6.10338e+66  -3.40269e+65  -2.84813e+66   6.04086e+65  -1.54906e+65  -9.27166e+66
  -8.36151e+59  -2.24832e+58  -3.13215e+59  -4.90473e+66 -8.65744e+133  1.02561e+198   1.05181e+67   4.27612e+66   1.19785e+64  -9.19283e+66   5.48462e+65   8.95599e+64  -6.84814e+66
  -8.63181e+59  -1.13208e+58   -3.1331e+59  -5.19463e+66 -7.82739e+133  5.22897e+198   1.02595e+67   4.04765e+66  -4.96533e+64  -9.19262e+66  -3.46605e+65   5.47544e+64  -6.41855e+66
  -4.84616e+59  -1.25751e+58  -2.27709e+59  -4.53046e+66 -1.19445e+134 -1.77997e+199   1.18309e+67    4.3598e+66   1.61159e+65  -9.05142e+66  -3.57728e+65   2.38343e+64  -8.89372e+66
  -4.53638e+59  -2.44742e+58   -2.2696e+59  -4.25755e+66 -1.27355e+134 -2.41065e+199   1.20616e+67   4.57851e+66   2.19179e+65  -9.05524e+66    6.8443e+65   5.86399e+64  -9.18926e+66
  -8.08655e+59   8.37237e+57  -7.06045e+58   3.37663e+66 -5.70162e+133  5.01032e+198   8.27151e+66   5.86988e+66  -7.32231e+64  -2.42003e+66   5.04291e+65  -4.06934e+64  -6.50402e+66
  -8.17674e+59   1.26535e+46  -6.90068e+58   3.58319e+66 -5.45807e+133  2.38018e+198   8.21097e+66   5.87423e+66  -2.93092e+64  -2.26173e+66  -4.26094e+65   7.54833e+64  -6.40326e+66
  -4.38039e+59    1.4006e+44  -3.70079e+58     3.435e+66 -9.50906e+133  2.81308e+199   1.03388e+67    6.0214e+66  -2.93167e+65  -2.29323e+66  -4.60988e+65   1.82902e+64  -8.94295e+66
  -4.28281e+59   1.08314e+58  -3.73951e+58   3.20712e+66 -9.70119e+133  3.46786e+199   1.03585e+67    6.0048e+66  -3.41615e+65  -2.45607e+66   6.44831e+65  -9.78865e+64   -8.9792e+66
  -8.63181e+59  -1.13208e+58   -3.1331e+59  -5.15331e+66 -7.85979e+133  4.07225e+198   1.02545e+67   4.05643e+66  -2.59066e+64  -9.18384e+66   5.24076e+65   6.88664e+64  -6.41855e+66
  -8.71781e+59  -2.31392e+46  -3.13107e+59  -5.30297e+66 -7.65111e+133  5.99722e+198    1.0229e+67   3.98504e+66  -5.77243e+64  -9.23029e+66  -4.06309e+65   9.60919e+63  -6.31392e+66
  -4.94037e+59  -2.44717e+46  -2.27351e+59  -4.48246e+66  -1.1898e+134  -2.5754e+199   1.17929e+67   4.33816e+66    2.3523e+65  -9.05585e+66  -4.45065e+65   1.69281e+64  -8.85361e+66
  -4.84616e+59  -1.25751e+58  -2.27709e+59  -4.35413e+66  -1.2039e+134 -2.81551e+199   1.18046e+67   4.39729e+66   2.62514e+65  -9.01393e+66   6.60754e+65   7.61854e+64  -8.89372e+66
  -8.17674e+59   1.26535e+46  -6.90068e+58   3.58319e+66 -5.45807e+133  2.38018e+198   8.21097e+66   5.87423e+66  -2.93092e+64  -2.26173e+66   4.26094e+65  -7.54833e+64  -6.40326e+66
  -8.08655e+59  -8.37237e+57  -7.06045e+58   3.37663e+66 -5.70162e+133  5.01032e+198   8.27151e+66   5.86988e+66  -7.32231e+64  -2.42003e+66  -5.04291e+65   4.06934e+64  -6.50402e+66
  -4.28281e+59  -1.08314e+58  -3.73951e+58   3.20712e+66 -9.70119e+133  3.46786e+199   1.03585e+67    6.0048e+66  -3.41615e+65  -2.45607e+66  -6.44831e+65   9.78865e+64   -8.9792e+66
  -4.38039e+59    1.4006e+44  -3.70079e+58     3.435e+66 -9.50906e+133  2.81308e+199   1.03388e+67    6.0214e+66  -2.93167e+65  -2.29323e+66   4.60988e+65  -1.82902e+64  -8.94295e+66
  -8.71781e+59  -2.31392e+46  -3.13107e+59  -5.30297e+66 -7.65111e+133  5.99722e+198    1.0229e+67   3.98504e+66  -5.77243e+64  -9.23029e+66   4.06309e+65  -9.60919e+63  -6.31392e+66
  -8.63181e+59   1.13208e+58   -3.1331e+59  -5.15331e+66 -7.85979e+133  4.07225e+198   1.02545e+67   4.05643e+66  -2.59066e+64  -9.18384e+66  -5.24076e+65  -6.88664e+64  -6.41855e+66
  -4.84616e+59   1.25751e+58  -2.27709e+59  -4.35413e+66  -1.2039e+134 -2.81551e+199   1.18046e+67   4.39729e+66   2.62514e+65  -9.01393e+66  -6.60754e+65  -7.61854e+64  -8.89372e+66
  -4.94037e+59  -2.44717e+46  -2.27351e+59  -4.48246e+66  -1.1898e+134  -2.5754e+199   1.17929e+67   4.33816e+66    2.3523e+65  -9.05585e+66   4.45065e+65  -1.69281e+64  -8.85361e+66
  -8.08655e+59  -8.37237e+57  -7.06045e+58   3.53033e+66 -5.65406e+133   1.8466e+197   8.30685e+66   5.90256e+66   1.51237e+64  -2.38735e+66   4.30026e+65  -1.22356e+65  -6.50402e+66
   -7.7986e+59  -1.61556e+58  -7.56534e+58      3.08e+66 -6.53077e+133  5.76967e+198   8.64836e+66   5.97366e+66  -8.06155e+64  -2.81305e+66  -4.65041e+65  -1.00707e+64  -6.93054e+66
  -3.95602e+59  -2.09913e+58   -3.8952e+58   2.91498e+66 -1.04843e+134  3.77938e+199   1.06462e+67   6.10338e+66  -3.40269e+65  -2.84813e+66  -6.04086e+65   1.54906e+65  -9.27166e+66
  -4.28281e+59  -1.08314e+58  -3.73951e+58    3.3823e+66 -9.63073e+133   2.3063e+199   1.03801e+67   6.04204e+66  -2.40917e+65  -2.41882e+66   4.38072e+65   4.26209e+64   -8.9792e+66
  -8.63181e+59   1.13208e+58   -3.1331e+59  -5.19463e+66 -7.82739e+133  5.22897e+198   1.02595e+67   4.04765e+66  -4.96533e+64  -9.19262e+66   3.46605e+65  -5.47544e+64  -6.41855e+66
  -8.36151e+59   2.24832e+58  -3.13215e+59  -4.90473e+66 -8.65744e+133  1.02561e+198   1.05181e+67   4.27612e+66   1.19785e+64  -9.19283e+66  -5.48462e+65  -8.95599e+64  -6.84814e+66
  -4.53638e+59   2.44742e+58   -2.2696e+59  -4.25755e+66 -1.27355e+134 -2.41065e+199   1.20616e+67   4.57851e+66   2.19179e+65  -9.05524e+66   -6.8443e+65  -5.86399e+64  -9.18926e+66
  -4.84616e+59   1.25751e+58  -2.27709e+59  -4.53046e+66 -1.19445e+134 -1.77997e+199   1.18309e+67    4.3598e+66   1.61159e+65  -9.05142e+66   3.57728e+65  -2.38343e+64  -8.89372e+66
  -3.95602e+59   2.09913e+58   -3.8952e+58   4.81829e+66 -2.54289e+133 -1.44994e+198   6.97458e+66   6.50802e+66   6.43713e+64   -1.7541e+66   6.04086e+65   8.97694e+64  -3.73446e+66
  -4.28281e+59   1.08314e+58  -3.73951e+58   5.37217e+66 -2.07422e+133 -3.43377e+198    7.0429e+66   6.46509e+66   1.82125e+65  -1.27504e+66  -4.38072e+65   9.01621e+64  -3.63925e+66
  -1.60936e+59   1.04799e+58  -1.18135e+58   3.02404e+66 -5.29965e+133  1.62265e+199   7.88298e+66   5.11616e+66  -3.17868e+65  -1.77425e+66  -3.61407e+65  -9.04903e+64  -6.53591e+66
  -1.28549e+59   2.06481e+58  -9.54661e+57   2.44341e+66 -5.40261e+133  2.50944e+199   7.74573e+66   5.14372e+66   -4.4131e+65    -2.259e+66   7.42062e+65   -9.0883e+64  -6.36981e+66
  -4.53638e+59  -2.44742e+58   -2.2696e+59  -3.97891e+66 -6.02582e+133 -1.27962e+199   8.72295e+66   4.63775e+66   2.78418e+65  -8.89507e+66    6.8443e+65   1.04994e+65  -4.16416e+66
  -4.84616e+59  -1.25751e+58  -2.27709e+59  -4.86789e+66  -5.6735e+133 -3.71914e+198   8.96835e+66   4.28807e+66   8.94219e+64  -9.24538e+66  -3.57728e+65   4.40761e+64  -4.06411e+66
  -2.08278e+59  -1.42578e+58  -1.40815e+59  -6.87747e+66 -7.62362e+133  1.79953e+199   1.11147e+67   3.01112e+66  -2.15977e+65  -9.67261e+66  -2.85909e+65   1.24729e+65  -6.96076e+66
  -1.77489e+59  -2.74463e+58  -1.41773e+59  -6.01525e+66 -7.79469e+133   6.5855e+198   1.06832e+67   3.34542e+66  -3.26699e+64    -9.328e+66    8.1756e+65   1.85646e+65  -6.79951e+66
  -4.28281e+59   1.08314e+58  -3.73951e+58   5.19698e+66 -2.16798e+133 -1.39122e+198   6.97771e+66   6.42784e+66   8.14265e+64  -1.31229e+66   6.44831e+65   3.48965e+64  -3.63925e+66
  -4.38039e+59    1.4006e+44  -3.70079e+58   5.35802e+66 -2.06884e+133 -2.12631e+198   7.02829e+66   6.43023e+66   1.15664e+65  -1.18787e+66  -4.60988e+65   1.82902e+64  -3.66655e+66
  -1.70087e+59  -5.89902e+45  -1.23807e+58   3.12183e+66 -5.40267e+133  1.73658e+199   7.98577e+66   5.11165e+66  -3.26534e+65  -1.66329e+66  -4.32326e+65   -2.6798e+64  -6.64913e+66
  -1.60936e+59   1.04799e+58  -1.18135e+58   2.94272e+66 -5.36012e+133  1.99753e+199   7.89055e+66   5.09887e+66  -3.64613e+65  -1.79154e+66   7.36385e+65  -1.01918e+64  -6.53591e+66
  -4.84616e+59  -1.25751e+58  -2.27709e+59  -4.69156e+66 -5.77235e+133  -7.2875e+198    8.9294e+66   4.32555e+66   1.90776e+65  -9.20789e+66   6.60754e+65   9.64271e+64  -4.06411e+66
  -4.94037e+59  -2.44717e+46  -2.27351e+59  -5.00496e+66 -5.70973e+133 -5.07106e+198    9.0635e+66   4.22708e+66   1.24146e+65  -9.35619e+66  -4.45065e+65   1.69281e+64  -4.08814e+66
  -2.17161e+59  -2.01379e+46  -1.39593e+59  -6.89388e+66 -7.84729e+133  1.14193e+199   1.12249e+67   2.98233e+66  -1.18436e+65  -9.75777e+66  -4.19676e+65   5.77641e+64  -7.07072e+66
  -2.08278e+59  -1.42578e+58  -1.40815e+59  -6.59854e+66 -7.81849e+133  8.24316e+198   1.10329e+67   3.07042e+66  -5.56472e+64  -9.61331e+66   7.49036e+65   1.37263e+65  -6.96076e+66
  -4.38039e+59    1.4006e+44  -3.70079e+58   5.35802e+66 -2.06884e+133 -2.12631e+198   7.02829e+66   6.43023e+66   1.15664e+65  -1.18787e+66   4.60988e+65  -1.82902e+64  -3.66655e+66
  -4.28281e+59  -1.08314e+58  -3.73951e+58   5.19698e+66 -2.16798e+133 -1.39122e+198   6.97771e+66   6.42784e+66   8.14265e+64  -1.31229e+66  -6.44831e+65  -3.48965e+64  -3.63925e+66
  -1.60936e+59  -1.04799e+58  -1.18135e+58   2.94272e+66 -5.36012e+133  1.99753e+199   7.89055e+66   5.09887e+66  -3.64613e+65  -1.79154e+66  -7.36385e+65   1.01918e+64  -6.53591e+66
  -1.70087e+59  -5.89902e+45  -1.23807e+58   3.12183e+66 -5.40267e+133  1.73658e+199   7.98577e+66   5.11165e+66  -3.26534e+65  -1.66329e+66   4.32326e+65    2.6798e+64  -6.64913e+66
  -4.94037e+59  -2.44717e+46  -2.27351e+59  -5.00496e+66 -5.70973e+133 -5.07106e+198    9.0635e+66   4.22708e+66   1.24146e+65  -9.35619e+66   4.45065e+65  -1.69281e+64  -4.08814e+66
  -4.84616e+59   1.25751e+58  -2.27709e+59  -4.69156e+66 -5.77235e+133  -7.2875e+198    8.9294e+66   4.32555e+66   1.90776e+65  -9.20789e+66  -6.60754e+65  -9.64271e+64  -4.06411e+66
  -2.08278e+59   1.42578e+58  -1.40815e+59  -6.59854e+66 -7.81849e+133  8.24316e+198   1.10329e+67   3.07042e+66  -5.56472e+64  -9.61331e+66  -7.49036e+65  -1.37263e+65  -6.96076e+66
  -2.17161e+59  -2.01379e+46  -1.39593e+59  -6.89388e+66 -7.84729e+133  1.14193e+199   1.12249e+67   2.98233e+66  -1.18436e+65  -9.75777e+66   4.19676e+65  -5.77641e+64  -7.07072e+66
  -4.28281e+59  -1.08314e+58  -3.73951e+58   5.37217e+66 -2.07422e+133 -3.43377e+198    7.0429e+66   6.46509e+66   1.82125e+65  -1.27504e+66   4.38072e+65  -9.01621e+64  -3.63925e+66
  -3.95602e+59  -2.09913e+58   -3.8952e+58   4.81829e+66 -2.54289e+133 -1.44994e+198   6.97458e+66   6.50802e+66   6.43713e+64   -1.7541e+66  -6.04086e+65  -8.97694e+64  -3.73446e+66
  -1.28549e+59  -2.06481e+58  -9.54661e+57   2.44341e+66 -5.40261e+133  2.50944e+199   7.74573e+66   5.14372e+66   -4.4131e+65    -2.259e+66  -7.42062e+65    9.0883e+64  -6.36981e+66
  -1.60936e+59  -1.04799e+58  -1.18135e+58   3.02404e+66 -5.29965e+133  1.62265e+199   7.88298e+66   5.11616e+66  -3.17868e+65  -1.77425e+66   3.61407e+65   9.04903e+64  -6.53591e+66
  -4.84616e+59   1.25751e+58  -2.27709e+59  -4.86789e+66  -5.6735e+133 -3.71914e+198   8.96835e+66   4.28807e+66   8.94219e+64  -9.24538e+66   3.57728e+65  -4.40761e+64  -4.06411e+66
  -4.53638e+59   2.44742e+58   -2.2696e+59  -3.97891e+66 -6.02582e+133 -1.27962e+199   8.72295e+66   4.63775e+66   2.78418e+65  -8.89507e+66   -6.8443e+65  -1.04994e+65  -4.16416e+66
  -1.77489e+59   2.74463e+58  -1.41773e+59  -6.01525e+66 -7.79469e+133   6.5855e+198   1.06832e+67   3.34542e+66  -3.26699e+64    -9.328e+66   -8.1756e+65  -1.85646e+65  -6.79951e+66
  -2.08278e+59   1.42578e+58  -1.40815e+59  -6.87747e+66 -7.62362e+133  1.79953e+199   1.11147e+67   3.01112e+66  -2.15977e+65  -9.67261e+66   2.85909e+65  -1.24729e+65  -6.96076e+66
  -1.28549e+59   2.06481e+58  -9.54661e+57   6.03236e+66  5.32554e+130 -5.12931e+197   6.02794e+66   5.90672e+66   3.21695e+65  -1.96058e+65   7.42062e+65   1.74197e+65  -2.11604e+65
  -1.60936e+59   1.04799e+58  -1.18135e+58   6.26401e+66  2.07053e+132  -6.4755e+195    6.0965e+66   5.80498e+66   3.70944e+65   8.80922e+64  -3.61407e+65   9.40135e+64  -6.98132e+65
  -1.71571e+58   6.22311e+57   1.34823e+57   1.58611e+66 -1.89214e+133  8.31758e+198   4.63003e+66   2.95574e+66  -4.63202e+65  -9.06422e+65  -3.80204e+65  -2.34374e+64  -3.89203e+66
   8.15645e+57   1.46941e+58   6.10115e+57   1.24117e+66 -1.46343e+133  7.47695e+198   4.02179e+66   2.99236e+66  -5.36536e+65  -1.21466e+66   7.90257e+65   5.67466e+64  -3.06888e+66
  -1.77489e+59  -2.74463e+58  -1.41773e+59  -3.65172e+66 -3.46164e+133 -9.79502e+198    6.9247e+66    3.8479e+66   4.69812e+65  -7.96944e+66    8.1756e+65   4.05184e+64  -1.15948e+66
  -2.08278e+59  -1.42578e+58  -1.40815e+59   -5.2788e+66 -3.27383e+133 -3.38338e+198   7.78486e+66   3.35099e+66   1.23896e+65  -8.75369e+66  -2.85909e+65  -1.06658e+65  -1.62549e+66
  -4.48699e+58  -1.10428e+58  -6.00493e+58  -9.58679e+66 -2.44342e+133  1.57189e+199   1.07861e+67   5.80394e+65  -4.97622e+65  -9.66956e+66  -3.25222e+65   1.12512e+65  -4.81939e+66
  -2.07201e+58  -2.73466e+58  -6.56458e+58    -8.073e+66  -2.4546e+133  8.95508e+198   9.47202e+66   1.01219e+66  -1.75792e+65  -8.90939e+66   8.45239e+65   2.59689e+65  -4.01676e+66
  -1.60936e+59   1.04799e+58  -1.18135e+58   6.18269e+66  1.24907e+132 -4.18635e+197   6.08084e+66   5.78769e+66   3.24199e+65    7.0803e+64   7.36385e+65   1.74312e+65  -6.98132e+65
  -1.70087e+59  -5.89902e+45  -1.23807e+58   6.01879e+66  5.39158e+131 -2.96362e+197   5.97383e+66   5.72754e+66   2.89355e+65    1.8961e+63  -4.32326e+65   -2.6798e+64  -9.70525e+65
  -2.23323e+58  -6.07084e+45   1.14151e+57   2.03122e+66 -1.96896e+133  3.04307e+198   4.88011e+66   3.03325e+66  -1.56176e+65  -8.45855e+65  -2.44495e+65  -9.76671e+63   -4.0893e+66
  -1.71571e+58   6.22311e+57   1.34823e+57   2.17251e+66 -1.82089e+133    1.506e+198   4.78839e+66    3.0804e+66  -1.26138e+65  -7.81755e+65   5.71219e+65   1.91343e+65  -3.89203e+66
  -2.08278e+59  -1.42578e+58  -1.40815e+59  -4.99987e+66 -3.43644e+133 -4.10141e+198   7.70475e+66   3.41029e+66   2.84227e+65  -8.69439e+66   7.49036e+65  -9.41236e+64  -1.62549e+66
  -2.17161e+59  -2.01379e+46  -1.39593e+59  -4.74895e+66 -3.47943e+133 -9.52358e+198   7.57277e+66   3.43834e+66   3.37573e+65  -8.52486e+66  -4.19676e+65   5.77641e+64  -1.89379e+66
   -4.9864e+58  -1.13192e+46  -6.00563e+58  -1.06857e+67  -1.6791e+133  3.53703e+199   1.14444e+67    3.2966e+65  -1.22834e+66    -9.787e+66  -2.35939e+65  -3.29567e+62  -5.01257e+66
  -4.48699e+58  -1.10428e+58  -6.00493e+58  -1.09592e+67  -1.4017e+133  3.77719e+199   1.15811e+67   2.88619e+65   -1.2865e+66  -9.96134e+66   5.79775e+65  -1.52217e+65  -4.81939e+66
  -1.70087e+59  -5.89902e+45  -1.23807e+58   6.01879e+66  5.39158e+131 -2.96362e+197   5.97383e+66   5.72754e+66   2.89355e+65    1.8961e+63   4.32326e+65    2.6798e+64  -9.70525e+65
  -1.60936e+59  -1.04799e+58  -1.18135e+58   6.18269e+66  1.24907e+132 -4.18635e+197   6.08084e+66   5.78769e+66   3.24199e+65    7.0803e+64  -7.36385e+65  -1.74312e+65  -6.98132e+65
  -1.71571e+58  -6.22311e+57   1.34823e+57   2.17251e+66 -1.82089e+133    1.506e+198   4.78839e+66    3.0804e+66  -1.26138e+65  -7.81755e+65  -5.71219e+65  -1.91343e+65  -3.89203e+66
  -2.23323e+58  -6.07084e+45   1.14151e+57   2.03122e+66 -1.96896e+133  3.04307e+198   4.88011e+66   3.03325e+66  -1.56176e+65  -8.45855e+65   2.44495e+65   9.76671e+63   -4.0893e+66
  -2.17161e+59  -2.01379e+46  -1.39593e+59  -4.74895e+66 -3.47943e+133 -9.52358e+198   7.57277e+66   3.43834e+66   3.37573e+65  -8.52486e+66   4.19676e+65  -5.77641e+64  -1.89379e+66
  -2.08278e+59   1.42578e+58  -1.40815e+59  -4.99987e+66 -3.43644e+133 -4.10141e+198   7.70475e+66   3.41029e+66   2.84227e+65  -8.69439e+66  -7.49036e+65   9.41236e+64  -1.62549e+66
  -4.48699e+58   1.10428e+58  -6.00493e+58  -1.09592e+67  -1.4017e+133  3.77719e+199   1.15811e+67   2.88619e+65   -1.2865e+66  -9.96134e+66  -5.79775e+65   1.52217e+65  -4.81939e+66
   -4.9864e+58  -1.13192e+46  -6.00563e+58  -1.06857e+67  -1.6791e+133  3.53703e+199   1.14444e+67    3.2966e+65  -1.22834e+66    -9.787e+66   2.35939e+65   3.29567e+62  -5.01257e+66
  -1.60936e+59  -1.04799e+58  -1.18135e+58   6.26401e+66  2.07053e+132  -6.4755e+195    6.0965e+66   5.80498e+66   3.70944e+65   8.80922e+64   3.61407e+65  -9.40135e+64  -6.98132e+65
  -1.28549e+59  -2.06481e+58  -9.54661e+57   6.03236e+66  5.32554e+130 -5.12931e+197   6.02794e+66   5.90672e+66   3.21695e+65  -1.96058e+65  -7.42062e+65  -1.74197e+65  -2.11604e+65
   8.15645e+57  -1.46941e+58   6.10115e+57   1.24117e+66 -1.46343e+133  7.47695e+198   4.02179e+66   2.99236e+66  -5.36536e+65  -1.21466e+66  -7.90257e+65  -5.67466e+64  -3.06888e+66
  -1.71571e+58  -6.22311e+57   1.34823e+57   1.58611e+66 -1.89214e+133  8.31758e+198   4.63003e+66   2.95574e+66  -4.63202e+65  -9.06422e+65   3.80204e+65   2.34374e+64  -3.89203e+66
  -2.08278e+59   1.42578e+58  -1.40815e+59   -5.2788e+66 -3.27383e+133 -3.38338e+198   7.78486e+66   3.35099e+66   1.23896e+65  -8.75369e+66   2.85909e+65   1.06658e+65  -1.62549e+66
  -1.77489e+59   2.74463e+58  -1.41773e+59  -3.65172e+66 -3.46164e+133 -9.79502e+198    6.9247e+66    3.8479e+66   4.69812e+65  -7.96944e+66   -8.1756e+65  -4.05184e+64  -1.15948e+66
  -2.07201e+58   2.73466e+58  -6.56458e+58    -8.073e+66  -2.4546e+133  8.95508e+198   9.47202e+66   1.01219e+66  -1.75792e+65  -8.90939e+66  -8.45239e+65  -2.59689e+65  -4.01676e+66
  -4.48699e+58   1.10428e+58  -6.00493e+58  -9.58679e+66 -2.44342e+133  1.57189e+199   1.07861e+67   5.80394e+65  -4.97622e+65  -9.66956e+66   3.25222e+65  -1.12512e+65  -4.81939e+66
   8.15645e+57   1.46941e+58   6.10115e+57    6.9148e+66 -2.32065e+132 -3.19084e+198   7.08061e+66   4.19857e+66   6.69668e+65   2.04656e+66   7.90257e+65   4.69661e+65   3.77496e+66
  -1.71571e+58   6.22311e+57   1.34823e+57   5.37132e+66  1.97316e+132 -1.73793e+197   5.18439e+66   3.76046e+66   3.41526e+65   1.26933e+66  -3.80204e+65   6.94578e+64    2.0901e+66
          -280            -5           -50   3.51713e+65 -7.07643e+131 -5.44615e+196   9.11781e+65   7.47737e+64   7.47737e+64   2.02166e+65  -1.06397e+51   2.94005e+65  -8.10573e+65
          -280           -10           -50   1.59161e+66  1.03208e+131 -1.08568e+197   1.55885e+66   3.38373e+65   3.38373e+65    9.1486e+65   3.65229e+51   6.94209e+65   3.85344e+65
  -2.07201e+58  -2.73466e+58  -6.56458e+58  -5.33882e+66 -2.16037e+133 -7.72555e+198   7.07861e+66   1.59347e+66    4.0549e+65  -7.33778e+66   8.45239e+65  -1.02757e+66   2.41072e+66
  -4.48699e+58  -1.10428e+58  -6.00493e+58  -4.18246e+66   -1.528e+133  -7.0793e+198   5.72477e+66   1.72935e+66    6.5133e+65  -6.56314e+66  -3.25222e+65  -2.57308e+65   7.80835e+65
          -285            -5           -50   -1.5665e+67  6.63007e+133 -8.39977e+199   1.33826e+67  -3.33036e+66  -3.33036e+66  -9.00432e+66   1.84734e+51  -5.21708e+65  -2.11984e+66
          -285           -10           -50   -1.7125e+67   8.2303e+133  -1.2091e+200   1.45245e+67  -3.64075e+66  -3.64075e+66   -9.8435e+66   6.89829e+50  -1.29197e+66  -9.78902e+65
  -1.71571e+58   6.22311e+57   1.34823e+57   5.95771e+66  4.22261e+132   6.2068e+197   5.59212e+66   3.88513e+66    6.7859e+65   1.39399e+66   5.71219e+65   2.84239e+65    2.0901e+66
  -2.23323e+58  -6.07084e+45   1.14151e+57   5.85654e+66  5.18922e+132  1.13171e+198   5.39536e+66   3.84651e+66   6.57081e+65   1.35295e+66  -2.44495e+65  -9.76671e+63   1.83617e+66
          -280             0           -50   2.97784e+65 -1.08749e+132 -6.97869e+196   1.08451e+66   6.33084e+64   6.33084e+64   1.71167e+65  -4.26758e+50  -2.86747e+53  -1.05507e+66
          -280            -5           -50   3.51713e+65 -7.07643e+131 -5.44615e+196   9.11781e+65   7.47737e+64   7.47737e+64   2.02166e+65   1.27406e+51   2.94005e+65  -8.10573e+65
  -4.48699e+58  -1.10428e+58  -6.00493e+58  -5.55489e+66 -1.03277e+133  2.87904e+198   6.41751e+66   1.43757e+66  -1.37544e+65  -6.85491e+66   5.79775e+65  -5.22038e+65   7.80835e+65
   -4.9864e+58  -1.13192e+46  -6.00563e+58  -5.60395e+66  -9.2163e+132   1.8573e+198   6.37343e+66   1.41003e+66  -1.47974e+65    -6.866e+66  -2.35939e+65  -3.29567e+62   5.35459e+65
          -285             0           -50  -1.56669e+67  6.55335e+133   -8.142e+199   1.34133e+67  -3.33075e+66  -3.33075e+66  -9.00536e+66   9.35361e+49  -5.34676e+53  -2.35578e+66
          -285            -5           -50   -1.5665e+67  6.63007e+133 -8.39977e+199   1.33826e+67  -3.33036e+66  -3.33036e+66  -9.00432e+66   4.66219e+50  -5.21708e+65  -2.11984e+66
  -2.23323e+58  -6.07084e+45   1.14151e+57   5.85654e+66  5.18922e+132  1.13171e+198   5.39536e+66   3.84651e+66   6.57081e+65   1.35295e+66   2.44495e+65   9.76671e+63   1.83617e+66
  -1.71571e+58  -6.22311e+57   1.34823e+57   5.95771e+66  4.22261e+132   6.2068e+197   5.59212e+66   3.88513e+66    6.7859e+65   1.39399e+66  -5.71219e+65  -2.84239e+65    2.0901e+66
          -280             5           -50   3.51713e+65 -7.07643e+131 -5.44615e+196   9.11781e+65   7.47737e+64   7.47737e+64   2.02166e+65    4.0922e+49  -2.94005e+65  -8.10573e+65
          -280             0           -50   2.97784e+65 -1.08749e+132 -6.97869e+196   1.08451e+66   6.33084e+64   6.33084e+64   1.71167e+65  -2.45532e+50  -2.86861e+53  -1.05507e+66
   -4.9864e+58  -1.13192e+46  -6.00563e+58  -5.60395e+66  -9.2163e+132   1.8573e+198   6.37343e+66   1.41003e+66  -1.47974e+65    -6.866e+66   2.35939e+65   3.29567e+62   5.35459e+65
  -4.48699e+58   1.10428e+58  -6.00493e+58  -5.55489e+66 -1.03277e+133  2.87904e+198   6.41751e+66   1.43757e+66  -1.37544e+65  -6.85491e+66  -5.79775e+65   5.22038e+65   7.80835e+65
          -285             5           -50   -1.5665e+67  6.63007e+133 -8.39977e+199   1.33826e+67  -3.33036e+66  -3.33036e+66  -9.00432e+66   -1.1882e+51   5.21708e+65  -2.11984e+66
          -285             0           -50  -1.56669e+67  6.55335e+133   -8.142e+199   1.34133e+67  -3.33075e+66  -3.33075e+66  -9.00536e+66    2.3384e+50  -5.34986e+53  -2.35578e+66
  -1.71571e+58  -6.22311e+57   1.34823e+57   5.37132e+66  1.97316e+132 -1.73793e+197   5.18439e+66   3.76046e+66   3.41526e+65   1.26933e+66   3.80204e+65  -6.94578e+64    2.0901e+66
   8.15645e+57  -1.46941e+58   6.10115e+57    6.9148e+66 -2.32065e+132 -3.19084e+198   7.08061e+66   4.19857e+66   6.69668e+65   2.04656e+66  -7.90257e+65  -4.69661e+65   3.77496e+66
          -280            10           -50   1.59161e+66  1.03208e+131 -1.08568e+197   1.55885e+66   3.38373e+65   3.38373e+65    9.1486e+65   4.20912e+50  -6.94209e+65   3.85344e+65
          -280             5           -50   3.51713e+65 -7.07643e+131 -5.44615e+196   9.11781e+65   7.47737e+64   7.47737e+64   2.02166e+65  -2.22148e+51  -2.94005e+65  -8.10573e+65
  -4.48699e+58   1.10428e+58  -6.00493e+58  -4.18246e+66   -1.528e+133  -7.0793e+198   5.72477e+66   1.72935e+66    6.5133e+65  -6.56314e+66   3.25222e+65   2.57308e+65   7.80835e+65
  -2.07201e+58   2.73466e+58  -6.56458e+58  -5.33882e+66 -2.16037e+133 -7.72555e+198   7.07861e+66   1.59347e+66    4.0549e+65  -7.33778e+66  -8.45239e+65   1.02757e+66   2.41072e+66
          -285            10           -50   -1.7125e+67   8.2303e+133  -1.2091e+200   1.45245e+67  -3.64075e+66  -3.64075e+66   -9.8435e+66  -3.12177e+51   1.29197e+66  -9.78902e+65
          -285             5           -50   -1.5665e+67  6.63007e+133 -8.39977e+199   1.33826e+67  -3.33036e+66  -3.33036e+66  -9.00432e+66   1.40304e+50   5.21708e+65  -2.11984e+66
  -7.18842e+59   5.79064e+58    1.8053e+59   1.30155e+67  8.87641e+131 -8.12723e+197   1.29814e+67   8.53252e+66   7.08844e+64   4.41213e+66   5.28852e+65  -6.85453e+64  -6.11491e+66
  -7.49399e+59   2.93717e+58   1.90927e+59   1.43959e+67  1.90129e+133  4.72722e+198   1.37197e+67   8.65955e+66    3.6435e+65   5.37201e+66  -4.51537e+65   1.93418e+65  -5.69012e+66
  -3.67427e+59    3.5675e+58   1.66464e+59   1.33663e+67 -3.19516e+133  7.82764e+198   1.45124e+67   8.59168e+66  -3.78461e+65   5.15313e+66  -4.42037e+65   -1.3979e+65   -8.4148e+66
  -3.33227e+59   6.97546e+58    1.6312e+59   1.19232e+67 -4.92368e+133  2.88392e+199   1.38347e+67   8.42858e+66  -6.85266e+65   4.17991e+66    6.8803e+65  -4.01754e+65  -8.67136e+66
   -7.7986e+59   1.61556e+58  -7.56534e+58   4.31294e+66 -5.32829e+133 -8.85886e+198   8.47846e+66   6.68236e+66   1.81506e+65  -2.55093e+66   6.12071e+65   1.00707e+64  -6.05077e+66
  -8.08655e+59   8.37237e+57  -7.06045e+58   4.76439e+66 -4.44797e+133 -1.19507e+199   8.19629e+66    6.6119e+66   2.77483e+65  -2.12499e+66  -3.68318e+65   1.22356e+65  -5.61461e+66
  -4.28281e+59   1.08314e+58  -3.73951e+58   4.56131e+66 -8.42079e+133  -7.9722e+197   1.02476e+67   6.71974e+66   9.73664e+63  -2.16817e+66  -3.70182e+65  -4.26209e+64  -8.33929e+66
  -3.95602e+59   2.09913e+58   -3.8952e+58   4.04711e+66 -9.27096e+133  1.25009e+199   1.04446e+67   6.75413e+66  -9.95799e+64  -2.60744e+66   7.59886e+65  -1.54906e+65  -8.60722e+66
  -7.49399e+59   2.93717e+58   1.90927e+59   1.41776e+67  1.65056e+133  2.50272e+198    1.3583e+67   8.61313e+66   2.38858e+65    5.3256e+66   5.34536e+65  -1.75259e+65  -5.69012e+66
  -7.59084e+59    5.0759e+46   1.93521e+59   1.45651e+67  2.12129e+133  4.74228e+198   1.38177e+67   8.63258e+66   3.21234e+65   5.61125e+66  -4.57557e+65   1.22534e+65  -5.61942e+66
  -3.77612e+59   2.64963e+46   1.66906e+59   1.33998e+67 -3.19654e+133  1.16959e+199   1.45437e+67   8.55836e+66   -5.2209e+65   5.36351e+66  -4.81201e+65   2.08981e+64  -8.38855e+66
  -3.67427e+59    3.5675e+58   1.66464e+59   1.29502e+67 -3.66798e+133  1.72825e+199   1.42964e+67    8.5032e+66  -6.17674e+65   5.06465e+66   6.92509e+65  -2.76895e+65   -8.4148e+66
  -8.08655e+59   8.37237e+57  -7.06045e+58   4.61069e+66 -4.52054e+133 -7.70826e+198   8.15254e+66   6.57923e+66   1.89136e+65  -2.15767e+66   5.65999e+65  -4.06934e+64  -5.61461e+66
  -8.17674e+59   1.26535e+46  -6.90068e+58   4.75276e+66 -4.29819e+133 -8.92062e+198   8.09757e+66    6.5465e+66    2.1934e+65  -2.01308e+66  -4.26094e+65   7.54833e+64  -5.53267e+66
  -4.38039e+59    1.4006e+44  -3.70079e+58   4.59031e+66 -8.30424e+133  4.50095e+198   1.02036e+67   6.68548e+66  -4.75499e+64  -2.04762e+66  -4.60988e+65   1.82902e+64  -8.30179e+66
  -4.28281e+59   1.08314e+58  -3.73951e+58   4.38612e+66 -8.52063e+133  9.88622e+198   1.02198e+67   6.68249e+66  -9.09615e+64  -2.20541e+66   7.12721e+65  -9.78865e+64  -8.33929e+66
  -7.59084e+59    5.0759e+46   1.93521e+59   1.45651e+67  2.12129e+133  4.74228e+198   1.38177e+67   8.63258e+66   3.21234e+65   5.61125e+66   4.57557e+65  -1.22534e+65  -5.61942e+66
  -7.49399e+59  -2.93717e+58   1.90927e+59   1.41776e+67  1.65056e+133  2.50272e+198    1.3583e+67   8.61313e+66   2.38858e+65    5.3256e+66  -5.34536e+65   1.75259e+65  -5.69012e+66
  -3.67427e+59   -3.5675e+58   1.66464e+59   1.29502e+67 -3.66798e+133  1.72825e+199   1.42964e+67    8.5032e+66  -6.17674e+65   5.06465e+66  -6.92509e+65   2.76895e+65   -8.4148e+66
  -3.77612e+59   2.64963e+46   1.66906e+59   1.33998e+67 -3.19654e+133  1.16959e+199   1.45437e+67   8.55836e+66   -5.2209e+65   5.36351e+66   4.81201e+65  -2.08981e+64  -8.38855e+66
  -8.17674e+59   1.26535e+46  -6.90068e+58   4.75276e+66 -4.29819e+133 -8.92062e+198   8.09757e+66    6.5465e+66    2.1934e+65  -2.01308e+66   4.26094e+65  -7.54833e+64  -5.53267e+66
  -8.08655e+59  -8.37237e+57  -7.06045e+58   4.61069e+66 -4.52054e+133 -7.70826e+198   8.15254e+66   6.57923e+66   1.89136e+65  -2.15767e+66  -5.65999e+65   4.06934e+64  -5.61461e+66
  -4.28281e+59  -1.08314e+58  -3.73951e+58   4.38612e+66 -8.52063e+133  9.88622e+198   1.02198e+67   6.68249e+66  -9.09615e+64  -2.20541e+66  -7.12721e+65   9.78865e+64  -8.33929e+66
  -4.38039e+59    1.4006e+44  -3.70079e+58   4.59031e+66 -8.30424e+133  4.50095e+198   1.02036e+67   6.68548e+66  -4.75499e+64  -2.04762e+66   4.60988e+65  -1.82902e+64  -8.30179e+66
  -7.49399e+59  -2.93717e+58   1.90927e+59   1.43959e+67  1.90129e+133  4.72722e+198   1.37197e+67   8.65955e+66    3.6435e+65   5.37201e+66   4.51537e+65  -1.93418e+65  -5.69012e+66
  -7.18842e+59  -5.79064e+58    1.8053e+59   1.30155e+67  8.87641e+131 -8.12723e+197   1.29814e+67   8.53252e+66   7.08844e+64   4.41213e+66  -5.28852e+65   6.85453e+64  -6.11491e+66
  -3.33227e+59  -6.97546e+58    1.6312e+59   1.19232e+67 -4.92368e+133  2.88392e+199   1.38347e+67   8.42858e+66  -6.85266e+65   4.17991e+66   -6.8803e+65   4.01754e+65  -8.67136e+66
  -3.67427e+59   -3.5675e+58   1.66464e+59   1.33663e+67 -3.19516e+133  7.82764e+198   1.45124e+67   8.59168e+66  -3.78461e+65   5.15313e+66   4.42037e+65    1.3979e+65   -8.4148e+66
  -8.08655e+59  -8.37237e+57  -7.06045e+58   4.76439e+66 -4.44797e+133 -1.19507e+199   8.19629e+66    6.6119e+66   2.77483e+65  -2.12499e+66   3.68318e+65  -1.22356e+65  -5.61461e+66
   -7.7986e+59  -1.61556e+58  -7.56534e+58   4.31294e+66 -5.32829e+133 -8.85886e+198   8.47846e+66   6.68236e+66   1.81506e+65  -2.55093e+66  -6.12071e+65  -1.00707e+64  -6.05077e+66
  -3.95602e+59  -2.09913e+58   -3.8952e+58   4.04711e+66 -9.27096e+133  1.25009e+199   1.04446e+67   6.75413e+66  -9.95799e+64  -2.60744e+66  -7.59886e+65   1.54906e+65  -8.60722e+66
  -4.28281e+59  -1.08314e+58  -3.73951e+58   4.56131e+66 -8.42079e+133  -7.9722e+197   1.02476e+67   6.71974e+66   9.73664e+63  -2.16817e+66   3.70182e+65   4.26209e+64  -8.33929e+66
  -3.33227e+59   6.97546e+58    1.6312e+59   1.55851e+67  5.21243e+133  1.56836e+198   1.38119e+67   9.20708e+66   9.32328e+64   6.28474e+66    6.8803e+65   5.54659e+64  -2.58991e+66
  -3.67427e+59    3.5675e+58   1.66464e+59   1.74661e+67  7.28558e+133  3.05664e+199   1.52384e+67   9.46328e+66   4.93139e+65   7.50968e+66  -4.42037e+65    1.0995e+65  -2.52445e+66
  -1.10134e+59   3.66921e+58   1.26285e+59    1.4543e+67  1.89246e+133 -8.20299e+198   1.38771e+67   7.89206e+66  -2.37269e+65   6.88824e+66  -3.58389e+65  -3.02566e+65  -5.63124e+66
  -7.63356e+58    7.1925e+58   1.31673e+59   1.26332e+67  3.88924e+132 -1.01233e+199   1.24783e+67    7.6193e+66  -6.43299e+65   5.65717e+66    8.2577e+65   -3.5705e+65  -5.46483e+66
  -3.95602e+59   2.09913e+58   -3.8952e+58   5.95042e+66 -1.91225e+133 -5.78291e+198   7.38444e+66   7.15877e+66    3.0506e+65  -1.51341e+66   7.59886e+65   8.97694e+64  -3.07002e+66
  -4.28281e+59   1.08314e+58  -3.73951e+58   6.55117e+66 -1.38103e+133 -6.77741e+198   7.53181e+66   7.14278e+66   4.32778e+65  -1.02439e+66  -3.70182e+65   9.01621e+64  -2.99934e+66
  -1.60936e+59   1.04799e+58  -1.18135e+58   3.92678e+66 -4.68051e+133  5.58508e+198   7.88826e+66   5.63506e+66  -1.25948e+65  -1.58233e+66   -2.9175e+65  -9.04903e+64  -6.10613e+66
  -1.28549e+59   2.06481e+58  -9.54661e+57   3.29723e+66 -4.87766e+133  1.47948e+199   7.72323e+66    5.6345e+66   -2.5979e+65  -2.07748e+66   8.92409e+65   -9.0883e+64  -5.94494e+66
  -3.67427e+59    3.5675e+58   1.66464e+59   1.70499e+67   6.6984e+133   1.2577e+199   1.49571e+67    9.3748e+66   2.53926e+65    7.4212e+66   6.92509e+65  -2.71545e+64  -2.52445e+66
  -3.77612e+59   2.64963e+46   1.66906e+59   1.77336e+67  7.46445e+133  2.53613e+199   1.54867e+67   9.47972e+66   3.99276e+65   7.85461e+66  -4.81201e+65   2.08981e+64  -2.55033e+66
  -1.19716e+59   8.88273e+45   1.23679e+59   1.48451e+67  1.92477e+133  -9.7638e+198    1.4182e+67    7.9155e+66  -3.10922e+65   7.24052e+66  -4.52713e+65  -1.23132e+65  -5.75606e+66
  -1.10134e+59   3.66921e+58   1.26285e+59   1.41624e+67  1.41484e+133 -1.27042e+199   1.36537e+67   7.81113e+66  -4.56069e+65   6.80731e+66   7.85655e+65  -1.71184e+65  -5.63124e+66
  -4.28281e+59   1.08314e+58  -3.73951e+58   6.37598e+66 -1.50417e+133 -5.11102e+198   7.46289e+66   7.10554e+66    3.3208e+65  -1.06164e+66   7.12721e+65   3.48965e+64  -2.99934e+66
  -4.38039e+59    1.4006e+44  -3.70079e+58   6.51334e+66 -1.38279e+133 -5.47298e+198    7.5001e+66   7.09431e+66   3.61282e+65  -9.42257e+65  -4.60988e+65   1.82902e+64  -3.02539e+66
  -1.70087e+59  -5.89902e+45  -1.23807e+58   3.98186e+66 -4.79067e+133  6.90008e+198    7.9851e+66     5.606e+66  -1.43695e+65  -1.48045e+66  -4.32326e+65   -2.6798e+64  -6.23112e+66
  -1.60936e+59   1.04799e+58  -1.18135e+58   3.84546e+66 -4.76148e+133  9.12968e+198   7.89952e+66   5.61777e+66  -1.72692e+65  -1.59962e+66   8.06042e+65  -1.01918e+64  -6.10613e+66
  -3.77612e+59   2.64963e+46   1.66906e+59   1.77336e+67  7.46445e+133  2.53613e+199   1.54867e+67   9.47972e+66   3.99276e+65   7.85461e+66   4.81201e+65  -2.08981e+64  -2.55033e+66
  -3.67427e+59   -3.5675e+58   1.66464e+59   1.70499e+67   6.6984e+133   1.2577e+199   1.49571e+67    9.3748e+66   2.53926e+65    7.4212e+66  -6.92509e+65   2.71545e+64  -2.52445e+66
  -1.10134e+59  -3.66921e+58   1.26285e+59   1.41624e+67  1.41484e+133 -1.27042e+199   1.36537e+67   7.81113e+66  -4.56069e+65   6.80731e+66  -7.85655e+65   1.71184e+65  -5.63124e+66
  -1.19716e+59   8.88273e+45   1.23679e+59   1.48451e+67  1.92477e+133  -9.7638e+198    1.4182e+67    7.9155e+66  -3.10922e+65   7.24052e+66   4.52713e+65   1.23132e+65  -5.75606e+66
  -4.38039e+59    1.4006e+44  -3.70079e+58   6.51334e+66 -1.38279e+133 -5.47298e+198    7.5001e+66   7.09431e+66   3.61282e+65  -9.42257e+65   4.60988e+65  -1.82902e+64  -3.02539e+66
  -4.28281e+59  -1.08314e+58  -3.73951e+58   6.37598e+66 -1.50417e+133 -5.11102e+198   7.46289e+66   7.10554e+66    3.3208e+65  -1.06164e+66  -7.12721e+65  -3.48965e+64  -2.99934e+66
  -1.60936e+59  -1.04799e+58  -1.18135e+58   3.84546e+66 -4.76148e+133  9.12968e+198   7.89952e+66   5.61777e+66  -1.72692e+65  -1.59962e+66  -8.06042e+65   1.01918e+64  -6.10613e+66
  -1.70087e+59  -5.89902e+45  -1.23807e+58   3.98186e+66 -4.79067e+133  6.90008e+198    7.9851e+66     5.606e+66  -1.43695e+65  -1.48045e+66   4.32326e+65    2.6798e+64  -6.23112e+66
  -3.67427e+59   -3.5675e+58   1.66464e+59   1.74661e+67  7.28558e+133  3.05664e+199   1.52384e+67   9.46328e+66   4.93139e+65   7.50968e+66   4.42037e+65   -1.0995e+65  -2.52445e+66
  -3.33227e+59  -6.97546e+58    1.6312e+59   1.55851e+67  5.21243e+133  1.56836e+198   1.38119e+67   9.20708e+66   9.32328e+64   6.28474e+66   -6.8803e+65  -5.54659e+64  -2.58991e+66
  -7.63356e+58   -7.1925e+58   1.31673e+59   1.26332e+67  3.88924e+132 -1.01233e+199   1.24783e+67    7.6193e+66  -6.43299e+65   5.65717e+66   -8.2577e+65    3.5705e+65  -5.46483e+66
  -1.10134e+59  -3.66921e+58   1.26285e+59    1.4543e+67  1.89246e+133 -8.20299e+198   1.38771e+67   7.89206e+66  -2.37269e+65   6.88824e+66   3.58389e+65   3.02566e+65  -5.63124e+66
  -4.28281e+59  -1.08314e+58  -3.73951e+58   6.55117e+66 -1.38103e+133 -6.77741e+198   7.53181e+66   7.14278e+66   4.32778e+65  -1.02439e+66   3.70182e+65  -9.01621e+64  -2.99934e+66
  -3.95602e+59  -2.09913e+58   -3.8952e+58   5.95042e+66 -1.91225e+133 -5.78291e+198   7.38444e+66   7.15877e+66    3.0506e+65  -1.51341e+66  -7.59886e+65  -8.97694e+64  -3.07002e+66
  -1.28549e+59  -2.06481e+58  -9.54661e+57   3.29723e+66 -4.87766e+133  1.47948e+199   7.72323e+66    5.6345e+66   -2.5979e+65  -2.07748e+66  -8.92409e+65    9.0883e+64  -5.94494e+66
  -1.60936e+59  -1.04799e+58  -1.18135e+58   3.92678e+66 -4.68051e+133  5.58508e+198   7.88826e+66   5.63506e+66  -1.25948e+65  -1.58233e+66    2.9175e+65   9.04903e+64  -6.10613e+66
  -7.63356e+58    7.1925e+58   1.31673e+59   1.71378e+67  7.38357e+133  1.58646e+199   1.48279e+67   8.57697e+66   3.14372e+65   8.24643e+66    8.2577e+65   3.35119e+65   1.17827e+66
  -1.10134e+59   3.66921e+58   1.26285e+59    1.9501e+67  1.01664e+134  6.84372e+199   1.66921e+67   8.94611e+66   8.16789e+65    9.7381e+66  -3.58389e+65   3.19545e+65   6.96361e+65
   1.32256e+58   2.45412e+58   6.71011e+58   1.42601e+67  3.94394e+133 -1.34989e+199   1.28028e+67   5.90248e+66  -2.66271e+65   8.62389e+66   -3.9685e+65  -1.75078e+65  -2.72156e+66
   3.99436e+58   5.94444e+58   8.29578e+58   1.18953e+67  2.54974e+133 -3.24862e+199   1.07704e+67   5.53243e+66  -7.69025e+65   7.13189e+66    8.5192e+65  -1.59505e+65  -1.86248e+66
  -1.28549e+59   2.06481e+58  -9.54661e+57   6.88618e+66  2.24678e+132 -1.85936e+197   6.72106e+66    6.3975e+66   5.03216e+65   -1.4538e+64   8.92409e+65   1.74197e+65   2.13266e+65
  -1.60936e+59   1.04799e+58  -1.18135e+58   7.16675e+66  5.32189e+132   8.9116e+197   6.78531e+66   6.32387e+66   5.62865e+65   2.80013e+65   -2.9175e+65   9.40135e+64  -2.68352e+65
  -1.71571e+58   6.22311e+57   1.34823e+57   2.28261e+66 -1.70621e+133  5.10805e+198   4.71936e+66   3.35609e+66  -3.15128e+65  -7.58347e+65  -3.30498e+65  -2.34374e+64  -3.68627e+66
   8.15645e+57   1.46941e+58   6.10115e+57   2.00045e+66 -1.33435e+133  4.93596e+198   4.16478e+66    3.4288e+66  -3.75114e+65  -1.05324e+66   9.18272e+65   5.67466e+64  -2.82748e+66
  -1.10134e+59   3.66921e+58   1.26285e+59   1.91203e+67  9.53833e+133  4.36353e+199   1.64379e+67   8.86519e+66   5.97989e+65   9.65717e+66   7.85655e+65   4.50927e+65   6.96361e+65
  -1.19716e+59   8.88273e+45   1.23679e+59   1.84144e+67  8.82709e+133  3.40402e+199   1.58373e+67   8.67434e+66   4.47911e+65   9.29218e+66  -4.52713e+65  -1.23132e+65   3.99813e+65
   7.88104e+57  -7.95308e+44   6.67693e+58   1.63257e+67  6.48142e+133  5.40129e+199   1.42026e+67   6.32562e+66   1.15197e+66   8.84812e+66  -2.52498e+65  -1.56734e+64  -2.92768e+66
   1.32256e+58   2.45412e+58   6.71011e+58   1.69633e+67  7.16691e+133  5.98363e+199   1.46998e+67   6.47717e+66   1.28751e+66   9.19858e+66   6.12922e+65   5.58385e+65  -2.72156e+66
  -1.60936e+59   1.04799e+58  -1.18135e+58   7.08543e+66  4.29534e+132  3.80261e+197   6.77554e+66   6.30658e+66    5.1612e+65   2.62724e+65   8.06042e+65   1.74312e+65  -2.68352e+65
  -1.70087e+59  -5.89902e+45  -1.23807e+58   6.87882e+66  3.68168e+132  3.46795e+197   6.60579e+66   6.22188e+66   4.72195e+65   1.84736e+65  -4.32326e+65   -2.6798e+64  -5.52517e+65
  -2.23323e+58  -6.07084e+45   1.14151e+57   2.73078e+66 -1.75297e+133  1.52842e+197   4.99868e+66   3.43536e+66  -7.45166e+63  -6.97131e+65  -2.44495e+65  -9.76671e+63  -3.88001e+66
  -1.71571e+58   6.22311e+57   1.34823e+57   2.86901e+66  -1.6154e+133 -1.10552e+198   4.93814e+66   3.48075e+66   2.19363e+64   -6.3368e+65   6.20925e+65   1.91343e+65  -3.68627e+66
  -1.19716e+59   8.88273e+45   1.23679e+59   1.84144e+67  8.82709e+133  3.40402e+199   1.58373e+67   8.67434e+66   4.47911e+65   9.29218e+66   4.52713e+65   1.23132e+65   3.99813e+65
  -1.10134e+59  -3.66921e+58   1.26285e+59   1.91203e+67  9.53833e+133  4.36353e+199   1.64379e+67   8.86519e+66   5.97989e+65   9.65717e+66  -7.85655e+65  -4.50927e+65   6.96361e+65
   1.32256e+58  -2.45412e+58   6.71011e+58   1.69633e+67  7.16691e+133  5.98363e+199   1.46998e+67   6.47717e+66   1.28751e+66   9.19858e+66  -6.12922e+65  -5.58385e+65  -2.72156e+66
   7.88104e+57  -7.95308e+44   6.67693e+58   1.63257e+67  6.48142e+133  5.40129e+199   1.42026e+67   6.32562e+66   1.15197e+66   8.84812e+66   2.52498e+65   1.56734e+64  -2.92768e+66
  -1.70087e+59  -5.89902e+45  -1.23807e+58   6.87882e+66  3.68168e+132  3.46795e+197   6.60579e+66   6.22188e+66   4.72195e+65   1.84736e+65   4.32326e+65    2.6798e+64  -5.52517e+65
  -1.60936e+59  -1.04799e+58  -1.18135e+58   7.08543e+66  4.29534e+132  3.80261e+197   6.77554e+66   6.30658e+66    5.1612e+65   2.62724e+65  -8.06042e+65  -1.74312e+65  -2.68352e+65
  -1.71571e+58  -6.22311e+57   1.34823e+57   2.86901e+66  -1.6154e+133 -1.10552e+198   4.93814e+66   3.48075e+66   2.19363e+64   -6.3368e+65  -6.20925e+65  -1.91343e+65  -3.68627e+66
  -2.23323e+58  -6.07084e+45   1.14151e+57   2.73078e+66 -1.75297e+133  1.52842e+197   4.99868e+66   3.43536e+66  -7.45166e+63  -6.97131e+65   2.44495e+65   9.76671e+63  -3.88001e+66
  -1.10134e+59  -3.66921e+58   1.26285e+59    1.9501e+67  1.01664e+134  6.84372e+199   1.66921e+67   8.94611e+66   8.16789e+65    9.7381e+66   3.58389e+65  -3.19545e+65   6.96361e+65
  -7.63356e+58   -7.1925e+58   1.31673e+59   1.71378e+67  7.38357e+133  1.58646e+199   1.48279e+67   8.57697e+66   3.14372e+65   8.24643e+66   -8.2577e+65  -3.35119e+65   1.17827e+66
   3.99436e+58  -5.94444e+58   8.29578e+58   1.18953e+67  2.54974e+133 -3.24862e+199   1.07704e+67   5.53243e+66  -7.69025e+65   7.13189e+66   -8.5192e+65   1.59505e+65  -1.86248e+66
   1.32256e+58  -2.45412e+58   6.71011e+58   1.42601e+67  3.94394e+133 -1.34989e+199   1.28028e+67   5.90248e+66  -2.66271e+65   8.62389e+66    3.9685e+65   1.75078e+65  -2.72156e+66
  -1.60936e+59  -1.04799e+58  -1.18135e+58   7.16675e+66  5.32189e+132   8.9116e+197   6.78531e+66   6.32387e+66   5.62865e+65   2.80013e+65    2.9175e+65  -9.40135e+64  -2.68352e+65
  -1.28549e+59  -2.06481e+58  -9.54661e+57   6.88618e+66  2.24678e+132 -1.85936e+197   6.72106e+66    6.3975e+66   5.03216e+65   -1.4538e+64  -8.92409e+65  -1.74197e+65   2.13266e+65
   8.15645e+57  -1.46941e+58   6.10115e+57   2.00045e+66 -1.33435e+133  4.93596e+198   4.16478e+66    3.4288e+66  -3.75114e+65  -1.05324e+66  -9.18272e+65  -5.67466e+64  -2.82748e+66
  -1.71571e+58  -6.22311e+57   1.34823e+57   2.28261e+66 -1.70621e+133  5.10805e+198   4.71936e+66   3.35609e+66  -3.15128e+65  -7.58347e+65   3.30498e+65   2.34374e+64  -3.68627e+66
   3.99436e+58   5.94444e+58   8.29578e+58   2.08283e+67   7.8005e+133  4.75538e+199    1.8863e+67   7.43157e+66   1.13011e+66   1.22666e+67    8.5192e+65   2.05926e+66   5.51812e+66
   1.32256e+58   2.45412e+58   6.71011e+58   1.63253e+67  5.07599e+133  4.51746e+198   1.46887e+67   6.34155e+66   1.72797e+65     9.811e+66   -3.9685e+65   4.10288e+65   3.73126e+66
          -275            -5           -50   1.75046e+67   8.7003e+133  1.32891e+200   1.48125e+67   3.72146e+66   3.72146e+66   1.00617e+67  -5.26141e+50   1.15942e+66    6.2483e+65
          -275           -10           -50   2.16412e+67  1.24184e+134  2.10646e+200   1.85514e+67   4.60088e+66   4.60088e+66   1.24394e+67  -2.11918e+50    2.8084e+66    1.8871e+66
   8.15645e+57   1.46941e+58   6.10115e+57   7.67408e+66 -1.27382e+132 -4.32097e+198   7.75664e+66   4.63501e+66   8.31091e+65   2.20799e+66   9.18272e+65   4.69661e+65   4.01637e+66
  -1.71571e+58   6.22311e+57   1.34823e+57   6.06782e+66  3.24361e+132  2.64681e+196   5.79437e+66   4.16081e+66   4.89601e+65    1.4174e+66  -3.30498e+65   6.94578e+64   2.29586e+66
          -280            -5           -50   3.51713e+65 -7.07643e+131 -5.44615e+196   9.11781e+65   7.47737e+64   7.47737e+64   2.02166e+65   2.10456e+51   2.94005e+65  -8.10573e+65
          -280           -10           -50   1.59161e+66  1.03208e+131 -1.08568e+197   1.55885e+66   3.38373e+65   3.38373e+65    9.1486e+65   -2.6307e+51   6.94209e+65   3.85344e+65
   1.32256e+58   2.45412e+58   6.71011e+58   1.90285e+67  8.60969e+133  9.22642e+199   1.66129e+67   6.91624e+66   1.72658e+66   1.03857e+67   6.12922e+65   1.14375e+66   3.73126e+66
   7.88104e+57  -7.95308e+44   6.67693e+58   1.88978e+67  8.80612e+133  9.94392e+199   1.64032e+67   6.87244e+66   1.69879e+66   1.03265e+67  -2.52498e+65  -1.56734e+64   3.47286e+66
          -275             0           -50   1.74181e+67  8.77237e+133  1.36777e+200   1.46856e+67   3.70306e+66   3.70306e+66    1.0012e+67  -1.19843e+50   -3.8116e+52   3.72332e+65
          -275            -5           -50   1.75046e+67   8.7003e+133  1.32891e+200   1.48125e+67   3.72146e+66   3.72146e+66   1.00617e+67  -1.20209e+50   1.15942e+66    6.2483e+65
  -1.71571e+58   6.22311e+57   1.34823e+57   6.65421e+66  5.68862e+132  9.75316e+197   6.21208e+66   4.28548e+66   8.26665e+65   1.54207e+66   6.20925e+65   2.84239e+65   2.29586e+66
  -2.23323e+58  -6.07084e+45   1.14151e+57    6.5561e+66  6.76988e+132  1.68926e+198   6.01768e+66   4.24862e+66   8.05805e+65   1.50167e+66  -2.44495e+65  -9.76671e+63   2.04546e+66
          -280             0           -50   2.97784e+65 -1.08749e+132 -6.97869e+196   1.08451e+66   6.33084e+64   6.33084e+64   1.71167e+65    3.5076e+50  -2.87109e+53  -1.05507e+66
          -280            -5           -50   3.51713e+65 -7.07643e+131 -5.44615e+196   9.11781e+65   7.47737e+64   7.47737e+64   2.02166e+65  -1.06982e+51   2.94005e+65  -8.10573e+65
   7.88104e+57  -7.95308e+44   6.67693e+58   1.88978e+67  8.80612e+133  9.94392e+199   1.64032e+67   6.87244e+66   1.69879e+66   1.03265e+67   2.52498e+65   1.56734e+64   3.47286e+66
   1.32256e+58  -2.45412e+58   6.71011e+58   1.90285e+67  8.60969e+133  9.22642e+199   1.66129e+67   6.91624e+66   1.72658e+66   1.03857e+67  -6.12922e+65  -1.14375e+66   3.73126e+66
          -275             5           -50   1.75046e+67   8.7003e+133  1.32891e+200   1.48125e+67   3.72146e+66   3.72146e+66   1.00617e+67   4.24932e+50  -1.15942e+66    6.2483e+65
          -275             0           -50   1.74181e+67  8.77237e+133  1.36777e+200   1.46856e+67   3.70306e+66   3.70306e+66    1.0012e+67   -4.0922e+49  -3.80867e+52   3.72332e+65
  -2.23323e+58  -6.07084e+45   1.14151e+57    6.5561e+66  6.76988e+132  1.68926e+198   6.01768e+66   4.24862e+66   8.05805e+65   1.50167e+66   2.44495e+65   9.76671e+63   2.04546e+66
  -1.71571e+58  -6.22311e+57   1.34823e+57   6.65421e+66  5.68862e+132  9.75316e+197   6.21208e+66   4.28548e+66   8.26665e+65   1.54207e+66  -6.20925e+65  -2.84239e+65   2.29586e+66
          -280             5           -50   3.51713e+65 -7.07643e+131 -5.44615e+196   9.11781e+65   7.47737e+64   7.47737e+64   2.02166e+65  -8.40363e+50  -2.94005e+65  -8.10573e+65
          -280             0           -50   2.97784e+65 -1.08749e+132 -6.97869e+196   1.08451e+66   6.33084e+64   6.33084e+64   1.71167e+65   6.07985e+50  -2.86443e+53  -1.05507e+66
   1.32256e+58  -2.45412e+58   6.71011e+58   1.63253e+67  5.07599e+133  4.51746e+198   1.46887e+67   6.34155e+66   1.72797e+65     9.811e+66    3.9685e+65  -4.10288e+65   3.73126e+66
   3.99436e+58  -5.94444e+58   8.29578e+58   2.08283e+67   7.8005e+133  4.75538e+199    1.8863e+67   7.43157e+66   1.13011e+66   1.22666e+67   -8.5192e+65  -2.05926e+66   5.51812e+66
          -275            10           -50   2.16412e+67  1.24184e+134  2.10646e+200   1.85514e+67   4.60088e+66   4.60088e+66   1.24394e+67   8.09672e+50   -2.8084e+66    1.8871e+66
          -275             5           -50   1.75046e+67   8.7003e+133  1.32891e+200   1.48125e+67   3.72146e+66   3.72146e+66   1.00617e+67     2.923e+49  -1.15942e+66    6.2483e+65
  -1.71571e+58  -6.22311e+57   1.34823e+57   6.06782e+66  3.24361e+132  2.64681e+196   5.79437e+66   4.16081e+66   4.89601e+65    1.4174e+66   3.30498e+65  -6.94578e+64   2.29586e+66
   8.15645e+57  -1.46941e+58   6.10115e+57   7.67408e+66 -1.27382e+132 -4.32097e+198   7.75664e+66   4.63501e+66   8.31091e+65   2.20799e+66  -9.18272e+65  -4.69661e+65   4.01637e+66
          -280            10           -50   1.59161e+66  1.03208e+131 -1.08568e+197   1.55885e+66   3.38373e+65   3.38373e+65    9.1486e+65  -2.83531e+51  -6.94209e+65   3.85344e+65
          -280             5           -50   3.51713e+65 -7.07643e+131 -5.44615e+196   9.11781e+65   7.47737e+64   7.47737e+64   2.02166e+65   2.12795e+51  -2.94005e+65  -8.10573e+65
  -6.53862e+59   1.01016e+59    4.8442e+59   2.56585e+67  1.54913e+134  7.54609e+199   2.24376e+67   1.15948e+67   5.57054e+65   1.35066e+67   5.00177e+65  -2.95139e+65  -3.91651e+66
  -6.86385e+59     4.918e+58   4.96889e+59   2.66241e+67  1.71158e+134  1.10925e+200    2.3188e+67   1.16144e+67   7.62345e+65   1.42474e+67  -6.00672e+65   1.01711e+65  -3.69611e+66
  -3.02188e+59   5.94963e+58   4.06009e+59    2.5013e+67  1.03149e+134 -4.77162e+199   2.28583e+67    1.1482e+67   -3.7387e+65   1.39049e+67  -5.33599e+65  -1.66035e+65  -6.83395e+66
  -2.67072e+59   1.19732e+59   3.99207e+59   2.37735e+67  8.11015e+133 -6.65413e+199   2.20018e+67    1.1305e+67  -6.37384e+65   1.31059e+67   7.02136e+65  -5.62885e+65  -7.11982e+66
  -7.18842e+59   5.79064e+58    1.8053e+59   1.40493e+67   3.1009e+133  6.59615e+198   1.28986e+67   9.12671e+66   2.90654e+65    4.6319e+66   5.93045e+65  -6.85453e+64  -3.86103e+66
  -7.49399e+59   2.93717e+58   1.90927e+59   1.53764e+67  4.67578e+133  2.10161e+199   1.37722e+67   9.22311e+66   5.72792e+65   5.58046e+66  -5.07804e+65   1.93418e+65  -3.59103e+66
  -3.67427e+59    3.5675e+58   1.66464e+59   1.45101e+67  2.39152e+132 -3.02743e+198   1.44274e+67    9.2491e+66  -1.35304e+65   5.39629e+66  -4.90328e+65   -1.3979e+65  -6.72887e+66
  -3.33227e+59   6.97546e+58    1.6312e+59   1.29091e+67 -1.75037e+133  5.29669e+198   1.35702e+67   8.99528e+66  -4.75665e+65   4.38951e+66   7.45408e+65  -4.01754e+65  -7.06434e+66
  -6.86385e+59     4.918e+58   4.96889e+59    2.7317e+67  1.85803e+134  1.78721e+200   2.36731e+67   1.17617e+67   1.16062e+66   1.43947e+67    3.4033e+65  -2.89215e+65  -3.69611e+66
  -6.98989e+59   9.41023e+46   5.01084e+59   2.78498e+67  1.94033e+134  1.99643e+200    2.4116e+67   1.15991e+67    1.2739e+66   1.49769e+67  -5.95496e+65    1.9817e+65  -3.62567e+66
  -3.14683e+59   5.62762e+46   4.05241e+59   2.58981e+67  1.15841e+134 -1.91888e+199   2.35557e+67    1.1452e+67  -1.15804e+65   1.45619e+67  -5.90297e+65  -3.62688e+64  -6.89632e+66
  -3.02188e+59   5.94963e+58   4.06009e+59    2.5206e+67  1.06739e+134  -3.3298e+199   2.29914e+67    1.1523e+67  -2.62945e+65   1.39459e+67   5.35121e+65  -5.23654e+65  -6.83395e+66
  -7.49399e+59   2.93717e+58   1.90927e+59    1.5158e+67  4.42094e+133  1.60019e+199   1.36219e+67    9.1767e+66     4.473e+65   5.53404e+66   4.78269e+65  -1.75259e+65  -3.59103e+66
  -7.59084e+59    5.0759e+46   1.93521e+59   1.49576e+67  4.39174e+133  1.45464e+199   1.34094e+67    8.8582e+66   4.04683e+65    5.6947e+66  -4.57557e+65   1.22534e+65  -3.49175e+66
  -3.77612e+59   2.64963e+46   1.66906e+59   1.40527e+67 -2.33901e+132 -2.45506e+198   1.41357e+67   8.93367e+66  -3.83276e+65   5.50232e+66  -4.81201e+65   2.08981e+64   -6.7624e+66
  -3.67427e+59    3.5675e+58   1.66464e+59   1.40939e+67 -2.56524e+132 -1.75739e+198   1.41846e+67   9.16062e+66  -3.74517e+65   5.30781e+66   6.44218e+65  -2.76895e+65  -6.72887e+66
  -6.98989e+59   9.41023e+46   5.01084e+59   2.78498e+67  1.94033e+134  1.99643e+200    2.4116e+67   1.15991e+67    1.2739e+66   1.49769e+67   5.95496e+65   -1.9817e+65  -3.62567e+66
  -6.86385e+59    -4.918e+58   4.96889e+59    2.7317e+67  1.85803e+134  1.78721e+200   2.36731e+67   1.17617e+67   1.16062e+66   1.43947e+67   -3.4033e+65   2.89215e+65  -3.69611e+66
  -3.02188e+59  -5.94963e+58   4.06009e+59    2.5206e+67  1.06739e+134  -3.3298e+199   2.29914e+67    1.1523e+67  -2.62945e+65   1.39459e+67  -5.35121e+65   5.23654e+65  -6.83395e+66
  -3.14683e+59   5.62762e+46   4.05241e+59   2.58981e+67  1.15841e+134 -1.91888e+199   2.35557e+67    1.1452e+67  -1.15804e+65   1.45619e+67   5.90297e+65   3.62688e+64  -6.89632e+66
  -7.59084e+59    5.0759e+46   1.93521e+59   1.49576e+67  4.39174e+133  1.45464e+199   1.34094e+67    8.8582e+66   4.04683e+65    5.6947e+66   4.57557e+65  -1.22534e+65  -3.49175e+66
  -7.49399e+59  -2.93717e+58   1.90927e+59    1.5158e+67  4.42094e+133  1.60019e+199   1.36219e+67    9.1767e+66     4.473e+65   5.53404e+66  -4.78269e+65   1.75259e+65  -3.59103e+66
  -3.67427e+59   -3.5675e+58   1.66464e+59   1.40939e+67 -2.56524e+132 -1.75739e+198   1.41846e+67   9.16062e+66  -3.74517e+65   5.30781e+66  -6.44218e+65   2.76895e+65  -6.72887e+66
  -3.77612e+59   2.64963e+46   1.66906e+59   1.40527e+67 -2.33901e+132 -2.45506e+198   1.41357e+67   8.93367e+66  -3.83276e+65   5.50232e+66   4.81201e+65  -2.08981e+64   -6.7624e+66
  -6.86385e+59    -4.918e+58   4.96889e+59   2.66241e+67  1.71158e+134  1.10925e+200    2.3188e+67   1.16144e+67   7.62345e+65   1.42474e+67   6.00672e+65  -1.01711e+65  -3.69611e+66
  -6.53862e+59  -1.01016e+59    4.8442e+59   2.56585e+67  1.54913e+134  7.54609e+199   2.24376e+67   1.15948e+67   5.57054e+65   1.35066e+67  -5.00177e+65   2.95139e+65  -3.91651e+66
  -2.67072e+59  -1.19732e+59   3.99207e+59   2.37735e+67  8.11015e+133 -6.65413e+199   2.20018e+67    1.1305e+67  -6.37384e+65   1.31059e+67  -7.02136e+65   5.62885e+65  -7.11982e+66
  -3.02188e+59  -5.94963e+58   4.06009e+59    2.5013e+67  1.03149e+134 -4.77162e+199   2.28583e+67    1.1482e+67   -3.7387e+65   1.39049e+67   5.33599e+65   1.66035e+65  -6.83395e+66
  -7.49399e+59  -2.93717e+58   1.90927e+59   1.53764e+67  4.67578e+133  2.10161e+199   1.37722e+67   9.22311e+66   5.72792e+65   5.58046e+66   5.07804e+65  -1.93418e+65  -3.59103e+66
  -7.18842e+59  -5.79064e+58    1.8053e+59   1.40493e+67   3.1009e+133  6.59615e+198   1.28986e+67   9.12671e+66   2.90654e+65    4.6319e+66  -5.93045e+65   6.85453e+64  -3.86103e+66
  -3.33227e+59  -6.97546e+58    1.6312e+59   1.29091e+67 -1.75037e+133  5.29669e+198   1.35702e+67   8.99528e+66  -4.75665e+65   4.38951e+66  -7.45408e+65   4.01754e+65  -7.06434e+66
  -3.67427e+59   -3.5675e+58   1.66464e+59   1.45101e+67  2.39152e+132 -3.02743e+198   1.44274e+67    9.2491e+66  -1.35304e+65   5.39629e+66   4.90328e+65    1.3979e+65  -6.72887e+66
  -2.67072e+59   1.19732e+59   3.99207e+59    2.7819e+67  1.93209e+134  3.40508e+199   2.40975e+67   1.21651e+67    2.2268e+65   1.54312e+67   7.02136e+65   7.39939e+64  -3.99972e+65
  -3.02188e+59   5.94963e+58   4.06009e+59   3.20124e+67  2.66592e+134    2.536e+200   2.75354e+67   1.29701e+67   1.11418e+66   1.79281e+67  -5.33599e+65   1.66363e+65    -2.256e+65
  -5.78686e+58   6.27769e+58   2.88297e+59   2.81179e+67  1.73796e+134  7.54844e+198   2.48359e+67   1.09163e+67   1.01491e+65   1.71002e+67  -4.37689e+65  -6.36337e+65  -3.88857e+66
  -2.25193e+58   1.24968e+59   2.98486e+59   2.40903e+67  1.15937e+134 -1.13763e+200     2.155e+67   1.02066e+67  -7.54778e+65   1.46385e+67   8.35931e+65  -7.28706e+65  -3.67276e+66
  -3.33227e+59   6.97546e+58    1.6312e+59    1.6571e+67   6.6876e+133  1.52098e+199   1.44125e+67   9.77378e+66   3.02834e+65   6.49434e+66   7.45408e+65   5.54659e+64  -9.82884e+65
  -3.67427e+59    3.5675e+58   1.66464e+59   1.86098e+67  9.06686e+133  5.53591e+199   1.59893e+67   1.01207e+67   7.36295e+65   7.75283e+66  -4.90328e+65    1.0995e+65  -8.38526e+65
  -1.10134e+59   3.66921e+58   1.26285e+59   1.49246e+67  3.36882e+133 -8.32401e+198   1.37497e+67   8.11136e+66  -1.56155e+65   6.96935e+66  -3.64404e+65  -3.02566e+65  -4.50149e+66
  -7.63356e+58    7.1925e+58   1.31673e+59   1.30514e+67  1.85549e+133 -1.79861e+199   1.23201e+67   7.85971e+66  -5.54382e+65   5.74609e+66   9.09216e+65   -3.5705e+65  -4.25567e+66
  -3.02188e+59   5.94963e+58   4.06009e+59   3.22053e+67  2.71378e+134   2.8079e+200   2.76732e+67   1.30111e+67   1.22511e+66   1.79692e+67   5.35121e+65  -1.91256e+65    -2.256e+65
  -3.14683e+59   5.62762e+46   4.05241e+59   3.26278e+67  2.78129e+134  3.05583e+200   2.80436e+67   1.28827e+67   1.31492e+66   1.84302e+67  -5.90297e+65  -3.62688e+64  -3.54587e+65
   -6.8843e+58   2.57806e+46   2.83601e+59   2.86269e+67  1.79093e+134  2.08182e+199   2.53062e+67   1.08929e+67   1.54351e+65   1.75796e+67  -5.18476e+65  -2.21873e+65  -4.05913e+66
  -5.78686e+58   6.27769e+58   2.88297e+59   2.79651e+67   1.7037e+134 -5.81899e+198   2.47321e+67   1.08838e+67   1.36691e+64   1.70677e+67   7.13877e+65   -3.7686e+65  -3.88857e+66
  -3.67427e+59    3.5675e+58   1.66464e+59   1.81937e+67  8.45683e+133  3.47125e+199   1.56984e+67   1.00322e+67   4.97082e+65   7.66436e+66   6.44218e+65  -2.71545e+64  -8.38526e+65
  -3.77612e+59   2.64963e+46   1.66906e+59   1.83866e+67  8.72935e+133  4.00921e+199   1.58358e+67   9.85504e+66    5.3809e+65   7.99342e+66  -4.81201e+65   2.08981e+64  -9.24181e+65
  -1.19716e+59   8.88273e+45   1.23679e+59   1.49761e+67  3.21152e+133  -1.2503e+199   1.38624e+67   7.99079e+66  -2.83077e+65   7.26836e+66  -4.52713e+65  -1.23132e+65  -4.62872e+66
  -1.10134e+59   3.66921e+58   1.26285e+59   1.45439e+67  2.88226e+133 -1.63643e+199   1.35168e+67   8.03044e+66  -3.74955e+65   6.88842e+66    7.7964e+65  -1.71184e+65  -4.50149e+66
  -3.14683e+59   5.62762e+46   4.05241e+59   3.26278e+67  2.78129e+134  3.05583e+200   2.80436e+67   1.28827e+67   1.31492e+66   1.84302e+67   5.90297e+65   3.62688e+64  -3.54587e+65
  -3.02188e+59  -5.94963e+58   4.06009e+59   3.22053e+67  2.71378e+134   2.8079e+200   2.76732e+67   1.30111e+67   1.22511e+66   1.79692e+67  -5.35121e+65   1.91256e+65    -2.256e+65
  -5.78686e+58  -6.27769e+58   2.88297e+59   2.79651e+67   1.7037e+134 -5.81899e+198   2.47321e+67   1.08838e+67   1.36691e+64   1.70677e+67  -7.13877e+65    3.7686e+65  -3.88857e+66
   -6.8843e+58   2.57806e+46   2.83601e+59   2.86269e+67  1.79093e+134  2.08182e+199   2.53062e+67   1.08929e+67   1.54351e+65   1.75796e+67   5.18476e+65   2.21873e+65  -4.05913e+66
  -3.77612e+59   2.64963e+46   1.66906e+59   1.83866e+67  8.72935e+133  4.00921e+199   1.58358e+67   9.85504e+66    5.3809e+65   7.99342e+66   4.81201e+65  -2.08981e+64  -9.24181e+65
  -3.67427e+59   -3.5675e+58   1.66464e+59   1.81937e+67  8.45683e+133  3.47125e+199   1.56984e+67   1.00322e+67   4.97082e+65   7.66436e+66  -6.44218e+65   2.71545e+64  -8.38526e+65
  -1.10134e+59  -3.66921e+58   1.26285e+59   1.45439e+67  2.88226e+133 -1.63643e+199   1.35168e+67   8.03044e+66  -3.74955e+65   6.88842e+66   -7.7964e+65   1.71184e+65  -4.50149e+66
  -1.19716e+59   8.88273e+45   1.23679e+59   1.49761e+67  3.21152e+133  -1.2503e+199   1.38624e+67   7.99079e+66  -2.83077e+65   7.26836e+66   4.52713e+65   1.23132e+65  -4.62872e+66
  -3.02188e+59  -5.94963e+58   4.06009e+59   3.20124e+67  2.66592e+134    2.536e+200   2.75354e+67   1.29701e+67   1.11418e+66   1.79281e+67   5.33599e+65  -1.66363e+65    -2.256e+65
  -2.67072e+59  -1.19732e+59   3.99207e+59    2.7819e+67  1.93209e+134  3.40508e+199   2.40975e+67   1.21651e+67    2.2268e+65   1.54312e+67  -7.02136e+65  -7.39939e+64  -3.99972e+65
  -2.25193e+58  -1.24968e+59   2.98486e+59   2.40903e+67  1.15937e+134 -1.13763e+200     2.155e+67   1.02066e+67  -7.54778e+65   1.46385e+67  -8.35931e+65   7.28706e+65  -3.67276e+66
  -5.78686e+58  -6.27769e+58   2.88297e+59   2.81179e+67  1.73796e+134  7.54844e+198   2.48359e+67   1.09163e+67   1.01491e+65   1.71002e+67   4.37689e+65   6.36337e+65  -3.88857e+66
  -3.67427e+59   -3.5675e+58   1.66464e+59   1.86098e+67  9.06686e+133  5.53591e+199   1.59893e+67   1.01207e+67   7.36295e+65   7.75283e+66   4.90328e+65   -1.0995e+65  -8.38526e+65
  -3.33227e+59  -6.97546e+58    1.6312e+59    1.6571e+67   6.6876e+133  1.52098e+199   1.44125e+67   9.77378e+66   3.02834e+65   6.49434e+66  -7.45408e+65  -5.54659e+64  -9.82884e+65
  -7.63356e+58   -7.1925e+58   1.31673e+59   1.30514e+67  1.85549e+133 -1.79861e+199   1.23201e+67   7.85971e+66  -5.54382e+65   5.74609e+66  -9.09216e+65    3.5705e+65  -4.25567e+66
  -1.10134e+59  -3.66921e+58   1.26285e+59   1.49246e+67  3.36882e+133 -8.32401e+198   1.37497e+67   8.11136e+66  -1.56155e+65   6.96935e+66   3.64404e+65   3.02566e+65  -4.50149e+66
  -2.25193e+58   1.24968e+59   2.98486e+59   3.11513e+67  2.29003e+134  1.42068e+200   2.72287e+67   1.17077e+67   7.46394e+65   1.86972e+67   8.35931e+65   3.68549e+65   3.42901e+66
  -5.78686e+58   6.27769e+58   2.88297e+59   3.50096e+67  3.04657e+134   3.8819e+200   3.03482e+67   1.23814e+67   1.56665e+66   2.10615e+67  -4.37689e+65   4.47737e+65   2.84878e+66
    4.3844e+58   4.31112e+58   1.44167e+59   2.89254e+67  1.80407e+134  1.52651e+199   2.56178e+67   9.04258e+66   1.14788e+65    1.9768e+67  -4.39321e+65  -3.24285e+65  -1.16439e+66
    7.1713e+58   1.06979e+59   1.70697e+59   2.49628e+67  1.24607e+134 -1.21147e+200   2.23278e+67   8.30888e+66  -7.27666e+65   1.73815e+67    9.2906e+65  -4.03473e+65  -3.06755e+65
  -7.63356e+58    7.1925e+58   1.31673e+59    1.7556e+67  7.37746e+133  2.09154e+199   1.53114e+67   8.81738e+66   4.03288e+65   8.33535e+66   9.09216e+65   3.35119e+65   2.38743e+66
  -1.10134e+59   3.66921e+58   1.26285e+59   1.98825e+67  1.03474e+134  7.51495e+199   1.70834e+67   9.16542e+66   8.97903e+65   9.81921e+66  -3.64404e+65   3.19545e+65    1.8261e+66
   1.32256e+58   2.45412e+58   6.71011e+58   1.43216e+67  4.26325e+133 -1.35307e+199   1.27466e+67   5.93783e+66  -2.53197e+65   8.63696e+66  -3.84944e+65  -1.75078e+65  -2.18706e+66
   3.99436e+58   5.94444e+58   8.29578e+58   1.18907e+67  2.68728e+133 -3.55776e+199   1.07012e+67   5.52977e+66  -7.70008e+65    7.1309e+66   9.83437e+65  -1.59505e+65  -1.34834e+66
  -5.78686e+58   6.27769e+58   2.88297e+59   3.48568e+67  2.99921e+134  3.58013e+200   3.02502e+67   1.23489e+67   1.47883e+66    2.1029e+67   7.13877e+65   7.07214e+65   2.84878e+66
   -6.8843e+58   2.57806e+46   2.83601e+59     3.352e+67  2.75206e+134  2.77532e+200   2.91271e+67   1.19332e+67   1.19463e+66   2.03922e+67  -5.18476e+65  -2.21873e+65   2.53713e+66
   3.73761e+58   5.57029e+45   1.43203e+59   3.30733e+67  2.86285e+134  5.81639e+200   2.84176e+67   9.81828e+66   2.95784e+66   2.02972e+67  -3.05571e+65  -4.55452e+64  -1.40716e+66
    4.3844e+58   4.31112e+58   1.44167e+59     3.434e+67  3.11187e+134  6.67821e+200   2.94627e+67   1.01937e+67   3.22714e+66   2.09192e+67   5.71754e+65   8.83541e+65  -1.16439e+66
  -1.10134e+59   3.66921e+58   1.26285e+59   1.95019e+67  9.71042e+133  5.13314e+199   1.68291e+67    9.0845e+66   6.79103e+65   9.73828e+66    7.7964e+65   4.50927e+65    1.8261e+66
  -1.19716e+59   8.88273e+45   1.23679e+59   1.85454e+67  8.75911e+133  3.58142e+199   1.60106e+67   8.74962e+66   4.75756e+65   9.32002e+66  -4.52713e+65  -1.23132e+65   1.52715e+66
   7.88104e+57  -7.95308e+44   6.67693e+58   1.61383e+67  6.55738e+133  5.38308e+199   1.39597e+67   6.21792e+66   1.11214e+66   8.80828e+66  -2.52498e+65  -1.56734e+64  -2.41715e+66
   1.32256e+58   2.45412e+58   6.71011e+58   1.70248e+67  7.49562e+133  6.46495e+199    1.4659e+67   6.51252e+66   1.30059e+66   9.21165e+66   6.24827e+65   5.58385e+65  -2.18706e+66
   -6.8843e+58   2.57806e+46   2.83601e+59     3.352e+67  2.75206e+134  2.77532e+200   2.91271e+67   1.19332e+67   1.19463e+66   2.03922e+67   5.18476e+65   2.21873e+65   2.53713e+66
  -5.78686e+58  -6.27769e+58   2.88297e+59   3.48568e+67  2.99921e+134  3.58013e+200   3.02502e+67   1.23489e+67   1.47883e+66    2.1029e+67  -7.13877e+65  -7.07214e+65   2.84878e+66
    4.3844e+58  -4.31112e+58   1.44167e+59     3.434e+67  3.11187e+134  6.67821e+200   2.94627e+67   1.01937e+67   3.22714e+66   2.09192e+67  -5.71754e+65  -8.83541e+65  -1.16439e+66
   3.73761e+58   5.57029e+45   1.43203e+59   3.30733e+67  2.86285e+134  5.81639e+200   2.84176e+67   9.81828e+66   2.95784e+66   2.02972e+67   3.05571e+65   4.55452e+64  -1.40716e+66
  -1.19716e+59   8.88273e+45   1.23679e+59   1.85454e+67  8.75911e+133  3.58142e+199   1.60106e+67   8.74962e+66   4.75756e+65   9.32002e+66   4.52713e+65   1.23132e+65   1.52715e+66
  -1.10134e+59  -3.66921e+58   1.26285e+59   1.95019e+67  9.71042e+133  5.13314e+199   1.68291e+67    9.0845e+66   6.79103e+65   9.73828e+66   -7.7964e+65  -4.50927e+65    1.8261e+66
   1.32256e+58  -2.45412e+58   6.71011e+58   1.70248e+67  7.49562e+133  6.46495e+199    1.4659e+67   6.51252e+66   1.30059e+66   9.21165e+66  -6.24827e+65  -5.58385e+65  -2.18706e+66
   7.88104e+57  -7.95308e+44   6.67693e+58   1.61383e+67  6.55738e+133  5.38308e+199   1.39597e+67   6.21792e+66   1.11214e+66   8.80828e+66   2.52498e+65   1.56734e+64  -2.41715e+66
  -5.78686e+58  -6.27769e+58   2.88297e+59   3.50096e+67  3.04657e+134   3.8819e+200   3.03482e+67   1.23814e+67   1.56665e+66   2.10615e+67   4.37689e+65  -4.47737e+65   2.84878e+66
  -2.25193e+58  -1.24968e+59   2.98486e+59   3.11513e+67  2.29003e+134  1.42068e+200   2.72287e+67   1.17077e+67   7.46394e+65   1.86972e+67  -8.35931e+65  -3.68549e+65   3.42901e+66
    7.1713e+58  -1.06979e+59   1.70697e+59   2.49628e+67  1.24607e+134 -1.21147e+200   2.23278e+67   8.30888e+66  -7.27666e+65   1.73815e+67   -9.2906e+65   4.03473e+65  -3.06755e+65
    4.3844e+58  -4.31112e+58   1.44167e+59   2.89254e+67  1.80407e+134  1.52651e+199   2.56178e+67   9.04258e+66   1.14788e+65    1.9768e+67   4.39321e+65   3.24285e+65  -1.16439e+66
  -1.10134e+59  -3.66921e+58   1.26285e+59   1.98825e+67  1.03474e+134  7.51495e+199   1.70834e+67   9.16542e+66   8.97903e+65   9.81921e+66   3.64404e+65  -3.19545e+65    1.8261e+66
  -7.63356e+58   -7.1925e+58   1.31673e+59    1.7556e+67  7.37746e+133  2.09154e+199   1.53114e+67   8.81738e+66   4.03288e+65   8.33535e+66  -9.09216e+65  -3.35119e+65   2.38743e+66
   3.99436e+58  -5.94444e+58   8.29578e+58   1.18907e+67  2.68728e+133 -3.55776e+199   1.07012e+67   5.52977e+66  -7.70008e+65    7.1309e+66  -9.83437e+65   1.59505e+65  -1.34834e+66
   1.32256e+58  -2.45412e+58   6.71011e+58   1.43216e+67  4.26325e+133 -1.35307e+199   1.27466e+67   5.93783e+66  -2.53197e+65   8.63696e+66   3.84944e+65   1.75078e+65  -2.18706e+66
    7.1713e+58   1.06979e+59   1.70697e+59   3.61563e+67  2.39502e+134  2.05033e+200   3.26769e+67   1.06886e+67   1.65207e+66   2.38156e+67    9.2906e+65   3.80073e+66   7.53318e+66
    4.3844e+58   4.31112e+58   1.44167e+59   2.89353e+67  1.48778e+134  3.79204e+198   2.62387e+67   9.04468e+66   1.16887e+65   1.97737e+67  -4.39321e+65   7.83378e+65    5.7123e+66
          -270            -5           -50   3.76089e+67  4.01183e+134  1.31454e+201   3.18315e+67   7.99559e+66   7.99559e+66   2.16177e+67  -8.50009e+51   2.03675e+66   2.07137e+66
          -270           -10           -50   4.45297e+67  5.37228e+134  1.94348e+201   3.80219e+67   9.46694e+66   9.46694e+66   2.55958e+67   7.58958e+51    5.0541e+66   3.38802e+66
   3.99436e+58   5.94444e+58   8.29578e+58   2.08236e+67  7.17617e+133  4.28663e+199   1.90227e+67   7.42891e+66   1.12913e+66   1.22656e+67   9.83437e+65   2.05926e+66   6.03227e+66
   1.32256e+58   2.45412e+58   6.71011e+58   1.63868e+67  4.71452e+133   4.3854e+198    1.4879e+67    6.3769e+66   1.85872e+65   9.82407e+66  -3.84944e+65   4.10288e+65   4.26576e+66
          -275            -5           -50   1.75046e+67   8.7003e+133  1.32891e+200   1.48125e+67   3.72146e+66   3.72146e+66   1.00617e+67  -6.16169e+51   1.15942e+66    6.2483e+65
          -275           -10           -50   2.16412e+67  1.24184e+134  2.10646e+200   1.85514e+67   4.60088e+66   4.60088e+66   1.24394e+67   5.76124e+51    2.8084e+66    1.8871e+66
    4.3844e+58   4.31112e+58   1.44167e+59   3.43499e+67   2.7692e+134  5.49315e+200   3.00499e+67   1.01958e+67   3.22924e+66   2.09249e+67   5.71754e+65    1.9912e+66    5.7123e+66
   3.73761e+58   5.57029e+45   1.43203e+59   3.38054e+67  2.73192e+134  5.51547e+200   2.94892e+67    9.9739e+66   3.11347e+66    2.0718e+67  -3.05571e+65  -4.55452e+64   5.37686e+66
          -270             0           -50   3.73574e+67  4.01044e+134  1.32971e+201   3.15362e+67   7.94213e+66   7.94213e+66   2.14732e+67   -1.7918e+51   2.62041e+53    1.7658e+66
          -270            -5           -50   3.76089e+67  4.01183e+134  1.31454e+201   3.18315e+67   7.99559e+66   7.99559e+66   2.16177e+67   2.49186e+51   2.03675e+66   2.07137e+66
   1.32256e+58   2.45412e+58   6.71011e+58     1.909e+67  8.25762e+133  8.70433e+199   1.67884e+67   6.95159e+66   1.73965e+66   1.03988e+67   6.24827e+65   1.14375e+66   4.26576e+66
   7.88104e+57  -7.95308e+44   6.67693e+58   1.87104e+67   8.1943e+133  8.84921e+199   1.63749e+67   6.76474e+66   1.65895e+66   1.02867e+67  -2.52498e+65  -1.56734e+64   3.98339e+66
          -275             0           -50   1.74181e+67  8.77237e+133  1.36777e+200   1.46856e+67   3.70306e+66   3.70306e+66    1.0012e+67  -1.12243e+51  -3.81627e+52   3.72332e+65
          -275            -5           -50   1.75046e+67   8.7003e+133  1.32891e+200   1.48125e+67   3.72146e+66   3.72146e+66   1.00617e+67   1.42058e+51   1.15942e+66    6.2483e+65
   3.73761e+58   5.57029e+45   1.43203e+59   3.38054e+67  2.73192e+134  5.51547e+200   2.94892e+67    9.9739e+66   3.11347e+66    2.0718e+67   3.05571e+65   4.55452e+64   5.37686e+66
    4.3844e+58  -4.31112e+58   1.44167e+59   3.43499e+67   2.7692e+134  5.49315e+200   3.00499e+67   1.01958e+67   3.22924e+66   2.09249e+67  -5.71754e+65   -1.9912e+66    5.7123e+66
          -270             5           -50   3.76089e+67  4.01183e+134  1.31454e+201   3.18315e+67   7.99559e+66   7.99559e+66   2.16177e+67   4.34139e+51  -2.03675e+66   2.07137e+66
          -270             0           -50   3.73574e+67  4.01044e+134  1.32971e+201   3.15362e+67   7.94213e+66   7.94213e+66   2.14732e+67  -1.64857e+51   2.62977e+53    1.7658e+66
   7.88104e+57  -7.95308e+44   6.67693e+58   1.87104e+67   8.1943e+133  8.84921e+199   1.63749e+67   6.76474e+66   1.65895e+66   1.02867e+67   2.52498e+65   1.56734e+64   3.98339e+66
   1.32256e+58  -2.45412e+58   6.71011e+58     1.909e+67  8.25762e+133  8.70433e+199   1.67884e+67   6.95159e+66   1.73965e+66   1.03988e+67  -6.24827e+65  -1.14375e+66   4.26576e+66
          -275             5           -50   1.75046e+67   8.7003e+133  1.32891e+200   1.48125e+67   3.72146e+66   3.72146e+66   1.00617e+67   3.10861e+51  -1.15942e+66    6.2483e+65
          -275             0           -50   1.74181e+67  8.77237e+133  1.36777e+200   1.46856e+67   3.70306e+66   3.70306e+66    1.0012e+67  -1.13413e+51  -3.70169e+52   3.72332e+65
    4.3844e+58  -4.31112e+58   1.44167e+59   2.89353e+67  1.48778e+134  3.79204e+198   2.62387e+67   9.04468e+66   1.16887e+65   1.97737e+67   4.39321e+65  -7.83378e+65    5.7123e+66
    7.1713e+58  -1.06979e+59   1.70697e+59   3.61563e+67  2.39502e+134  2.05033e+200   3.26769e+67   1.06886e+67   1.65207e+66   2.38156e+67   -9.2906e+65  -3.80073e+66   7.53318e+66
          -270            10           -50   4.45297e+67  5.37228e+134  1.94348e+201   3.80219e+67   9.46694e+66   9.46694e+66   2.55958e+67   1.18564e+52   -5.0541e+66   3.38802e+66
          -270             5           -50   3.76089e+67  4.01183e+134  1.31454e+201   3.18315e+67   7.99559e+66   7.99559e+66   2.16177e+67   -6.8106e+51  -2.03675e+66   2.07137e+66
   1.32256e+58  -2.45412e+58   6.71011e+58   1.63868e+67  4.71452e+133   4.3854e+198    1.4879e+67    6.3769e+66   1.85872e+65   9.82407e+66   3.84944e+65  -4.10288e+65   4.26576e+66
   3.99436e+58  -5.94444e+58   8.29578e+58   2.08236e+67  7.17617e+133  4.28663e+199   1.90227e+67   7.42891e+66   1.12913e+66   1.22656e+67  -9.83437e+65  -2.05926e+66   6.03227e+66
          -275            10           -50   2.16412e+67  1.24184e+134  2.10646e+200   1.85514e+67   4.60088e+66   4.60088e+66   1.24394e+67   8.24872e+51   -2.8084e+66    1.8871e+66
          -275             5           -50   1.75046e+67   8.7003e+133  1.32891e+200   1.48125e+67   3.72146e+66   3.72146e+66   1.00617e+67  -3.83498e+51  -1.15942e+66    6.2483e+65
  -5.78422e+59   1.38162e+59   8.50346e+59   3.78507e+67  3.59305e+134  2.45087e+200   3.27624e+67   1.51752e+67   7.49882e+65   2.19256e+67   -4.0587e+65   2.15626e+63  -1.03822e+66
  -6.24159e+59   6.09346e+58   8.75934e+59   4.19309e+67  4.39635e+134   5.4028e+200    3.6312e+67    1.4794e+67   1.61731e+66   2.55195e+67  -1.60548e+66   5.83799e+65   -4.2717e+65
  -2.36072e+59   7.41663e+58   7.00197e+59   3.97341e+67  3.45204e+134 -7.68764e+199   3.51225e+67   1.46946e+67   -1.3006e+64   2.50525e+67  -1.45898e+66  -7.79446e+65  -4.43615e+66
  -1.90521e+59   1.63706e+59   7.03464e+59    3.4929e+67  2.57624e+134 -3.35019e+200   3.10227e+67   1.46591e+67  -1.03456e+66   2.13045e+67  -7.45741e+64  -1.36109e+66   -3.9517e+66
  -6.53862e+59   1.01016e+59    4.8442e+59   2.83872e+67   2.1531e+134  2.08069e+200   2.43007e+67   1.31633e+67   1.13718e+66   1.40867e+67   2.18451e+65  -2.95139e+65  -9.85711e+65
  -6.86385e+59     4.918e+58   4.96889e+59   2.64183e+67  1.80721e+134   1.0355e+200   2.27421e+67   1.14961e+67   7.18594e+65   1.42036e+67  -9.81163e+65   1.01711e+65  -2.43371e+65
  -3.02188e+59   5.94963e+58   4.06009e+59   2.52419e+67  1.34692e+134 -6.15233e+199   2.24156e+67   1.16136e+67   -3.2521e+65   1.39535e+67  -9.65948e+65  -1.66035e+65  -4.25235e+66
  -2.67072e+59   1.19732e+59   3.99207e+59   2.64859e+67  1.58705e+134 -1.44031e+199    2.3298e+67   1.28641e+67  -6.07437e+64   1.36825e+67   4.18458e+65  -5.62885e+65  -3.89919e+66
  -6.24159e+59   6.09346e+58   8.75934e+59   4.61813e+67  5.84793e+134  1.66608e+201   3.93436e+67   1.56977e+67   4.06047e+66   2.64232e+67  -6.02767e+65  -6.88379e+65   -4.2717e+65
  -6.48672e+59   1.44321e+47   8.74595e+59   4.29134e+67  4.87447e+134  1.16255e+201   3.67983e+67   1.38777e+67   3.36572e+66     2.567e+67   -1.1581e+66  -6.32613e+64  -7.44418e+65
  -2.59404e+59   9.12175e+46   6.99476e+59    4.0756e+67  3.93538e+134  5.15725e+200   3.56022e+67   1.38879e+67   1.65683e+66   2.52113e+67  -1.10229e+66  -3.40423e+64  -4.48974e+66
  -2.36072e+59   7.41663e+58   7.00197e+59   4.37444e+67  4.77485e+134  8.64577e+200   3.78958e+67   1.55472e+67   2.29216e+66   2.59051e+67  -4.09218e+65   -6.5916e+65  -4.43615e+66
  -6.86385e+59     4.918e+58   4.96889e+59   2.71112e+67  1.95981e+134  1.85553e+200   2.32171e+67   1.16434e+67   1.11687e+66   1.43509e+67    -4.016e+64  -2.89215e+65  -2.43371e+65
  -6.98989e+59   9.41023e+46   5.01084e+59   2.52991e+67  1.63585e+134  1.01425e+200    2.1828e+67   1.01329e+67   7.31628e+65   1.44346e+67  -5.95496e+65    1.9817e+65  -5.10002e+65
  -3.14683e+59   5.62762e+46   4.05241e+59   2.39023e+67  1.14026e+134 -7.40274e+199   2.13844e+67   1.03048e+67  -5.40106e+65   1.41376e+67  -5.90297e+65  -3.62688e+64  -4.25532e+66
  -3.02188e+59   5.94963e+58   4.06009e+59   2.54349e+67  1.39237e+134 -3.39614e+199   2.25321e+67   1.16546e+67  -2.14286e+65   1.39946e+67   1.02772e+65  -5.23654e+65  -4.25235e+66
  -6.48672e+59   1.44321e+47   8.74595e+59   4.29134e+67  4.87447e+134  1.16255e+201   3.67983e+67   1.38777e+67   3.36572e+66     2.567e+67    1.1581e+66   6.32613e+64  -7.44418e+65
  -6.24159e+59  -6.09346e+58   8.75934e+59   4.61813e+67  5.84793e+134  1.66608e+201   3.93436e+67   1.56977e+67   4.06047e+66   2.64232e+67   6.02767e+65   6.88379e+65   -4.2717e+65
  -2.36072e+59  -7.41663e+58   7.00197e+59   4.37444e+67  4.77485e+134  8.64577e+200   3.78958e+67   1.55472e+67   2.29216e+66   2.59051e+67   4.09218e+65    6.5916e+65  -4.43615e+66
  -2.59404e+59   9.12175e+46   6.99476e+59    4.0756e+67  3.93538e+134  5.15725e+200   3.56022e+67   1.38879e+67   1.65683e+66   2.52113e+67   1.10229e+66   3.40423e+64  -4.48974e+66
  -6.98989e+59   9.41023e+46   5.01084e+59   2.52991e+67  1.63585e+134  1.01425e+200    2.1828e+67   1.01329e+67   7.31628e+65   1.44346e+67   5.95496e+65   -1.9817e+65  -5.10002e+65
  -6.86385e+59    -4.918e+58   4.96889e+59   2.71112e+67  1.95981e+134  1.85553e+200   2.32171e+67   1.16434e+67   1.11687e+66   1.43509e+67     4.016e+64   2.89215e+65  -2.43371e+65
  -3.02188e+59  -5.94963e+58   4.06009e+59   2.54349e+67  1.39237e+134 -3.39614e+199   2.25321e+67   1.16546e+67  -2.14286e+65   1.39946e+67  -1.02772e+65   5.23654e+65  -4.25235e+66
  -3.14683e+59   5.62762e+46   4.05241e+59   2.39023e+67  1.14026e+134 -7.40274e+199   2.13844e+67   1.03048e+67  -5.40106e+65   1.41376e+67   5.90297e+65   3.62688e+64  -4.25532e+66
  -6.24159e+59  -6.09346e+58   8.75934e+59   4.19309e+67  4.39635e+134   5.4028e+200    3.6312e+67    1.4794e+67   1.61731e+66   2.55195e+67   1.60548e+66  -5.83799e+65   -4.2717e+65
  -5.78422e+59  -1.38162e+59   8.50346e+59   3.78507e+67  3.59305e+134  2.45087e+200   3.27624e+67   1.51752e+67   7.49882e+65   2.19256e+67    4.0587e+65  -2.15626e+63  -1.03822e+66
  -1.90521e+59  -1.63706e+59   7.03464e+59    3.4929e+67  2.57624e+134 -3.35019e+200   3.10227e+67   1.46591e+67  -1.03456e+66   2.13045e+67   7.45741e+64   1.36109e+66   -3.9517e+66
  -2.36072e+59  -7.41663e+58   7.00197e+59   3.97341e+67  3.45204e+134 -7.68764e+199   3.51225e+67   1.46946e+67   -1.3006e+64   2.50525e+67   1.45898e+66   7.79446e+65  -4.43615e+66
  -6.86385e+59    -4.918e+58   4.96889e+59   2.64183e+67  1.80721e+134   1.0355e+200   2.27421e+67   1.14961e+67   7.18594e+65   1.42036e+67   9.81163e+65  -1.01711e+65  -2.43371e+65
  -6.53862e+59  -1.01016e+59    4.8442e+59   2.83872e+67   2.1531e+134  2.08069e+200   2.43007e+67   1.31633e+67   1.13718e+66   1.40867e+67  -2.18451e+65   2.95139e+65  -9.85711e+65
  -2.67072e+59  -1.19732e+59   3.99207e+59   2.64859e+67  1.58705e+134 -1.44031e+199    2.3298e+67   1.28641e+67  -6.07437e+64   1.36825e+67  -4.18458e+65   5.62885e+65  -3.89919e+66
  -3.02188e+59  -5.94963e+58   4.06009e+59   2.52419e+67  1.34692e+134 -6.15233e+199   2.24156e+67   1.16136e+67   -3.2521e+65   1.39535e+67   9.65948e+65   1.66035e+65  -4.25235e+66
  -1.90521e+59   1.63706e+59   7.03464e+59   4.89382e+67  5.92029e+134  9.66877e+200   4.24608e+67   1.76374e+67   1.94377e+66    2.9357e+67  -7.45741e+64  -6.47451e+65   4.08342e+66
  -2.36072e+59   7.41663e+58   7.00197e+59   4.79947e+67  5.57469e+134  7.72576e+200   4.17854e+67   1.64508e+67   1.74318e+66   2.98007e+67  -1.45898e+66  -5.16634e+65   3.31741e+66
  -1.21023e+58   8.18351e+58   4.92794e+59   4.19637e+67  3.83603e+134  3.79856e+199   3.71126e+67   1.32458e+67   1.99372e+65   2.85185e+67  -9.61332e+65   -8.3879e+65  -9.19979e+65
   2.73041e+58   1.74143e+59    5.0288e+59   4.12432e+67  3.73916e+134 -7.65378e+197   3.64292e+67    1.3476e+67   4.62012e+64   2.77211e+67   4.61523e+65  -9.69607e+65  -6.34515e+65
  -2.67072e+59   1.19732e+59   3.99207e+59   3.05313e+67  2.35323e+134  1.66543e+200   2.63977e+67   1.37242e+67    7.9932e+65   1.60079e+67   4.18458e+65   7.39939e+64   2.82065e+66
  -3.02188e+59   5.94963e+58   4.06009e+59   3.22412e+67  2.65153e+134  2.49531e+200   2.78271e+67   1.31016e+67   1.16284e+66   1.79768e+67  -9.65948e+65   1.66363e+65     2.356e+66
  -5.78686e+58   6.27769e+58   2.88297e+59   2.64226e+67  1.54977e+134 -5.79605e+199   2.33061e+67   9.94177e+66  -2.58933e+65   1.67397e+67  -7.69655e+65  -6.36337e+65  -1.88138e+66
  -2.25193e+58   1.24968e+59   2.98486e+59   2.30487e+67  1.10506e+134 -1.41156e+200   2.05118e+67   9.60784e+66  -9.76221e+65   1.44171e+67     6.532e+65  -7.28706e+65  -1.89727e+66
  -2.36072e+59   7.41663e+58   7.00197e+59    5.2005e+67  7.13221e+134  2.09594e+201    4.4624e+67   1.73034e+67   4.04835e+66   3.06533e+67  -4.09218e+65  -3.96349e+65   3.31741e+66
  -2.59404e+59   9.12175e+46   6.99476e+59   5.22403e+67  7.05193e+134  2.04807e+201   4.49873e+67   1.63294e+67   4.09837e+66   3.18125e+67  -1.10229e+66  -3.40423e+64   3.22076e+66
  -3.33413e+58   4.68528e+46   4.80335e+59   4.50805e+67  4.68681e+134  6.85486e+200    3.9542e+67   1.29385e+67   1.85159e+66   3.02903e+67  -1.00342e+66   -5.8864e+65  -1.38561e+66
  -1.21023e+58   8.18351e+58   4.92794e+59   4.46958e+67  4.76556e+134  6.97589e+200   3.90021e+67   1.38266e+67   1.76982e+66   2.90994e+67   -1.0303e+65  -9.50946e+65  -9.19979e+65
  -3.02188e+59   5.94963e+58   4.06009e+59   3.24342e+67  2.70895e+134  2.93796e+200   2.79479e+67   1.31426e+67   1.27377e+66   1.80178e+67   1.02772e+65  -1.91256e+65     2.356e+66
  -3.14683e+59   5.62762e+46   4.05241e+59    3.0632e+67  2.32219e+134  1.77348e+200   2.65726e+67   1.17355e+67   8.90619e+65   1.80059e+67  -5.90297e+65  -3.62688e+64   2.28641e+66
   -6.8843e+58   2.57806e+46   2.83601e+59   2.46169e+67  1.20278e+134 -1.01986e+200   2.20389e+67   8.58801e+66  -6.98151e+65   1.67271e+67  -5.18476e+65  -2.21873e+65  -2.31997e+66
  -5.78686e+58   6.27769e+58   2.88297e+59   2.62698e+67    1.525e+134 -5.94831e+199   2.31862e+67   9.90929e+66  -3.46755e+65   1.67073e+67   3.81911e+65   -3.7686e+65  -1.88138e+66
  -2.59404e+59   9.12175e+46   6.99476e+59   5.22403e+67  7.05193e+134  2.04807e+201   4.49873e+67   1.63294e+67   4.09837e+66   3.18125e+67   1.10229e+66   3.40423e+64   3.22076e+66
  -2.36072e+59  -7.41663e+58   7.00197e+59    5.2005e+67  7.13221e+134  2.09594e+201    4.4624e+67   1.73034e+67   4.04835e+66   3.06533e+67   4.09218e+65   3.96349e+65   3.31741e+66
  -1.21023e+58  -8.18351e+58   4.92794e+59   4.46958e+67  4.76556e+134  6.97589e+200   3.90021e+67   1.38266e+67   1.76982e+66   2.90994e+67    1.0303e+65   9.50946e+65  -9.19979e+65
  -3.33413e+58   4.68528e+46   4.80335e+59   4.50805e+67  4.68681e+134  6.85486e+200    3.9542e+67   1.29385e+67   1.85159e+66   3.02903e+67   1.00342e+66    5.8864e+65  -1.38561e+66
  -3.14683e+59   5.62762e+46   4.05241e+59    3.0632e+67  2.32219e+134  1.77348e+200   2.65726e+67   1.17355e+67   8.90619e+65   1.80059e+67   5.90297e+65   3.62688e+64   2.28641e+66
  -3.02188e+59  -5.94963e+58   4.06009e+59   3.24342e+67  2.70895e+134  2.93796e+200   2.79479e+67   1.31426e+67   1.27377e+66   1.80178e+67  -1.02772e+65   1.91256e+65     2.356e+66
  -5.78686e+58  -6.27769e+58   2.88297e+59   2.62698e+67    1.525e+134 -5.94831e+199   2.31862e+67   9.90929e+66  -3.46755e+65   1.67073e+67  -3.81911e+65    3.7686e+65  -1.88138e+66
   -6.8843e+58   2.57806e+46   2.83601e+59   2.46169e+67  1.20278e+134 -1.01986e+200   2.20389e+67   8.58801e+66  -6.98151e+65   1.67271e+67   5.18476e+65   2.21873e+65  -2.31997e+66
  -2.36072e+59  -7.41663e+58   7.00197e+59   4.79947e+67  5.57469e+134  7.72576e+200   4.17854e+67   1.64508e+67   1.74318e+66   2.98007e+67   1.45898e+66   5.16634e+65   3.31741e+66
  -1.90521e+59  -1.63706e+59   7.03464e+59   4.89382e+67  5.92029e+134  9.66877e+200   4.24608e+67   1.76374e+67   1.94377e+66    2.9357e+67   7.45741e+64   6.47451e+65   4.08342e+66
   2.73041e+58  -1.74143e+59    5.0288e+59   4.12432e+67  3.73916e+134 -7.65378e+197   3.64292e+67    1.3476e+67   4.62012e+64   2.77211e+67  -4.61523e+65   9.69607e+65  -6.34515e+65
  -1.21023e+58  -8.18351e+58   4.92794e+59   4.19637e+67  3.83603e+134  3.79856e+199   3.71126e+67   1.32458e+67   1.99372e+65   2.85185e+67   9.61332e+65    8.3879e+65  -9.19979e+65
  -3.02188e+59  -5.94963e+58   4.06009e+59   3.22412e+67  2.65153e+134  2.49531e+200   2.78271e+67   1.31016e+67   1.16284e+66   1.79768e+67   9.65948e+65  -1.66363e+65     2.356e+66
  -2.67072e+59  -1.19732e+59   3.99207e+59   3.05313e+67  2.35323e+134  1.66543e+200   2.63977e+67   1.37242e+67    7.9932e+65   1.60079e+67  -4.18458e+65  -7.39939e+64   2.82065e+66
  -2.25193e+58  -1.24968e+59   2.98486e+59   2.30487e+67  1.10506e+134 -1.41156e+200   2.05118e+67   9.60784e+66  -9.76221e+65   1.44171e+67    -6.532e+65   7.28706e+65  -1.89727e+66
  -5.78686e+58  -6.27769e+58   2.88297e+59   2.64226e+67  1.54977e+134 -5.79605e+199   2.33061e+67   9.94177e+66  -2.58933e+65   1.67397e+67   7.69655e+65   6.36337e+65  -1.88138e+66
   2.73041e+58   1.74143e+59    5.0288e+59   4.67097e+67  4.64942e+134  4.89211e+200    4.1435e+67   1.46381e+67   1.20837e+66   3.08632e+67   4.61523e+65   4.16719e+65   6.43691e+66
  -1.21023e+58   8.18351e+58   4.92794e+59   5.40068e+67  6.63278e+134  1.40054e+201   4.74706e+67   1.58061e+67   2.75972e+66    3.5441e+67  -9.61332e+65   5.11814e+65   6.09499e+66
   6.33841e+58   6.09161e+58   2.39226e+59   4.66401e+67  4.41912e+134  3.72999e+200    4.1634e+67   1.17619e+67   1.00338e+66   3.38748e+67  -6.73764e+65  -1.00139e+66   9.24665e+65
   9.54503e+58   1.55237e+59   2.81341e+59   3.93796e+67  2.83685e+134 -1.99142e+200   3.55958e+67   1.06149e+67  -5.40201e+65   2.93048e+67   7.64999e+65  -1.09648e+66   2.00776e+66
  -2.25193e+58   1.24968e+59   2.98486e+59   3.01097e+67  1.93129e+134  8.66396e+199   2.67108e+67    1.1109e+67   5.24951e+65   1.84758e+67     6.532e+65   3.68549e+65   5.20449e+66
  -5.78686e+58   6.27769e+58   2.88297e+59   3.33143e+67  2.50492e+134  2.38494e+200   2.93146e+67   1.14069e+67   1.20623e+66   2.07011e+67  -7.69655e+65   4.47737e+65   4.85596e+66
    4.3844e+58   4.31112e+58   1.44167e+59   2.60354e+67  1.27693e+134 -7.57911e+199   2.34552e+67   7.38139e+66  -4.99625e+65   1.91536e+67  -4.75469e+65  -3.24285e+65  -3.14368e+65
    7.1713e+58   1.06979e+59   1.70697e+59   2.28674e+67  9.04272e+133 -1.57923e+200   2.07964e+67   7.10447e+66  -1.17313e+66   1.69361e+67   9.63293e+65  -4.03473e+65   7.75341e+65
  -1.21023e+58   8.18351e+58   4.92794e+59    5.6739e+67  7.79909e+134  2.39169e+201   4.93903e+67    1.6387e+67   4.33017e+66   3.60218e+67   -1.0303e+65   3.99658e+65   6.09499e+66
  -3.33413e+58   4.68528e+46   4.80335e+59    5.1679e+67  6.18585e+134  1.47145e+201   4.53004e+67   1.43414e+67   3.25442e+66   3.40832e+67  -1.00342e+66   -5.8864e+65   5.14333e+66
   5.45253e+58    1.3926e+46   2.35898e+59   5.23485e+67  6.88524e+134  2.33817e+201   4.52972e+67   1.27496e+67   5.37335e+66   3.42255e+67  -4.18524e+65  -1.57201e+65   2.28116e+65
   6.33841e+58   6.09161e+58   2.39226e+59   5.53545e+67  7.81355e+134  2.90425e+201   4.77783e+67   1.36146e+67   6.01242e+66   3.57275e+67   4.22652e+65   8.31097e+65   9.24665e+65
  -5.78686e+58   6.27769e+58   2.88297e+59   3.31615e+67  2.46705e+134  2.30477e+200   2.92058e+67   1.13744e+67    1.1184e+66   2.06686e+67   3.81911e+65   7.07214e+65   4.85596e+66
   -6.8843e+58   2.57806e+46   2.83601e+59   2.95101e+67  1.79508e+134  5.33672e+199   2.62933e+67   9.62829e+66   3.42131e+65   1.95397e+67  -5.18476e+65  -2.21873e+65   4.27629e+66
   3.73761e+58   5.57029e+45   1.43203e+59   2.98527e+67  2.18442e+134  3.52392e+200   2.59373e+67   7.96703e+66   2.27314e+66   1.96125e+67  -3.05571e+65  -4.55452e+64  -6.38929e+65
    4.3844e+58   4.31112e+58   1.44167e+59     3.145e+67  2.47429e+134  4.39616e+200   2.72337e+67   8.53253e+66   2.61273e+66   2.03048e+67   5.35606e+65   8.83541e+65  -3.14368e+65
  -3.33413e+58   4.68528e+46   4.80335e+59    5.1679e+67  6.18585e+134  1.47145e+201   4.53004e+67   1.43414e+67   3.25442e+66   3.40832e+67   1.00342e+66    5.8864e+65   5.14333e+66
  -1.21023e+58  -8.18351e+58   4.92794e+59    5.6739e+67  7.79909e+134  2.39169e+201   4.93903e+67    1.6387e+67   4.33017e+66   3.60218e+67    1.0303e+65  -3.99658e+65   6.09499e+66
   6.33841e+58  -6.09161e+58   2.39226e+59   5.53545e+67  7.81355e+134  2.90425e+201   4.77783e+67   1.36146e+67   6.01242e+66   3.57275e+67  -4.22652e+65  -8.31097e+65   9.24665e+65
   5.45253e+58    1.3926e+46   2.35898e+59   5.23485e+67  6.88524e+134  2.33817e+201   4.52972e+67   1.27496e+67   5.37335e+66   3.42255e+67   4.18524e+65   1.57201e+65   2.28116e+65
   -6.8843e+58   2.57806e+46   2.83601e+59   2.95101e+67  1.79508e+134  5.33672e+199   2.62933e+67   9.62829e+66   3.42131e+65   1.95397e+67   5.18476e+65   2.21873e+65   4.27629e+66
  -5.78686e+58  -6.27769e+58   2.88297e+59   3.31615e+67  2.46705e+134  2.30477e+200   2.92058e+67   1.13744e+67    1.1184e+66   2.06686e+67  -3.81911e+65  -7.07214e+65   4.85596e+66
    4.3844e+58  -4.31112e+58   1.44167e+59     3.145e+67  2.47429e+134  4.39616e+200   2.72337e+67   8.53253e+66   2.61273e+66   2.03048e+67  -5.35606e+65  -8.83541e+65  -3.14368e+65
   3.73761e+58   5.57029e+45   1.43203e+59   2.98527e+67  2.18442e+134  3.52392e+200   2.59373e+67   7.96703e+66   2.27314e+66   1.96125e+67   3.05571e+65   4.55452e+64  -6.38929e+65
  -1.21023e+58  -8.18351e+58   4.92794e+59   5.40068e+67  6.63278e+134  1.40054e+201   4.74706e+67   1.58061e+67   2.75972e+66    3.5441e+67   9.61332e+65  -5.11814e+65   6.09499e+66
   2.73041e+58  -1.74143e+59    5.0288e+59   4.67097e+67  4.64942e+134  4.89211e+200    4.1435e+67   1.46381e+67   1.20837e+66   3.08632e+67  -4.61523e+65  -4.16719e+65   6.43691e+66
   9.54503e+58  -1.55237e+59   2.81341e+59   3.93796e+67  2.83685e+134 -1.99142e+200   3.55958e+67   1.06149e+67  -5.40201e+65   2.93048e+67  -7.64999e+65   1.09648e+66   2.00776e+66
   6.33841e+58  -6.09161e+58   2.39226e+59   4.66401e+67  4.41912e+134  3.72999e+200    4.1634e+67   1.17619e+67   1.00338e+66   3.38748e+67   6.73764e+65   1.00139e+66   9.24665e+65
  -5.78686e+58  -6.27769e+58   2.88297e+59   3.33143e+67  2.50492e+134  2.38494e+200   2.93146e+67   1.14069e+67   1.20623e+66   2.07011e+67   7.69655e+65  -4.47737e+65   4.85596e+66
  -2.25193e+58  -1.24968e+59   2.98486e+59   3.01097e+67  1.93129e+134  8.66396e+199   2.67108e+67    1.1109e+67   5.24951e+65   1.84758e+67    -6.532e+65  -3.68549e+65   5.20449e+66
    7.1713e+58  -1.06979e+59   1.70697e+59   2.28674e+67  9.04272e+133 -1.57923e+200   2.07964e+67   7.10447e+66  -1.17313e+66   1.69361e+67  -9.63293e+65   4.03473e+65   7.75341e+65
    4.3844e+58  -4.31112e+58   1.44167e+59   2.60354e+67  1.27693e+134 -7.57911e+199   2.34552e+67   7.38139e+66  -4.99625e+65   1.91536e+67   4.75469e+65   3.24285e+65  -3.14368e+65
   9.54503e+58   1.55237e+59   2.81341e+59   5.49801e+67   5.5418e+134   8.7646e+200   4.96853e+67   1.39316e+67   2.77645e+66   3.82721e+67   7.64999e+65   5.34436e+66   9.73673e+66
   6.33841e+58   6.09161e+58   2.39226e+59   4.28986e+67  2.99506e+134  2.86821e+199   3.92529e+67   1.09665e+67   2.07953e+65   3.17242e+67  -6.73764e+65   8.88242e+65   7.48547e+66
          -265            -5           -50   6.24068e+67  1.11064e+135  6.08557e+201   5.27633e+67   1.32676e+67   1.32676e+67   3.58716e+67  -8.21949e+51   2.87793e+66   2.99452e+66
          -265           -10           -50   7.33933e+67  1.48584e+135  9.11432e+201   6.24558e+67   1.56033e+67   1.56033e+67   4.21867e+67   4.21205e+51   7.33404e+66   4.50946e+66
    7.1713e+58   1.06979e+59   1.70697e+59    3.4061e+67  1.71693e+134  8.22772e+199   3.14397e+67    9.4842e+66    1.2066e+66   2.33702e+67   9.63293e+65   3.80073e+66   8.61528e+66
    4.3844e+58   4.31112e+58   1.44167e+59   2.60453e+67  8.43529e+133 -6.27068e+199   2.43722e+67   7.38348e+66  -4.97526e+65   1.91593e+67  -4.75469e+65   7.83378e+65   6.56232e+66
          -270            -5           -50   3.76089e+67  4.01183e+134  1.31454e+201   3.18315e+67   7.99559e+66   7.99559e+66   2.16177e+67  -5.34325e+51   2.03675e+66   2.07137e+66
          -270           -10           -50   4.45297e+67  5.37228e+134  1.94348e+201   3.80219e+67   9.46694e+66   9.46694e+66   2.55958e+67   5.08603e+50    5.0541e+66   3.38802e+66
   6.33841e+58   6.09161e+58   2.39226e+59    5.1613e+67  6.08861e+134  1.86954e+201   4.53326e+67   1.28191e+67   5.21699e+66   3.35769e+67   4.22652e+65   2.72073e+66   7.48547e+66
   5.45253e+58    1.3926e+46   2.35898e+59   5.01213e+67  5.77442e+134   1.7395e+201   4.39852e+67   1.22761e+67   4.89985e+66   3.29453e+67  -4.18524e+65  -1.57201e+65   6.95529e+66
          -265             0           -50   6.15387e+67  1.09009e+135  5.96778e+201   5.19319e+67    1.3083e+67    1.3083e+67   3.53727e+67  -1.42789e+51    6.5798e+53     2.576e+66
          -265            -5           -50   6.24068e+67  1.11064e+135  6.08557e+201   5.27633e+67   1.32676e+67   1.32676e+67   3.58716e+67   1.03401e+51   2.87793e+66   2.99452e+66
    4.3844e+58   4.31112e+58   1.44167e+59   3.14599e+67  2.01451e+134  3.14986e+200   2.80762e+67   8.53463e+66   2.61483e+66   2.03104e+67   5.35606e+65    1.9912e+66   6.56232e+66
   3.73761e+58   5.57029e+45   1.43203e+59   3.05847e+67   1.9325e+134  3.01785e+200   2.72429e+67   8.12266e+66   2.42876e+66   2.00333e+67  -3.05571e+65  -4.55452e+64    6.1451e+66
          -270             0           -50   3.73574e+67  4.01044e+134  1.32971e+201   3.15362e+67   7.94213e+66   7.94213e+66   2.14732e+67  -8.00903e+50   2.61714e+53    1.7658e+66
          -270            -5           -50   3.76089e+67  4.01183e+134  1.31454e+201   3.18315e+67   7.99559e+66   7.99559e+66   2.16177e+67    1.4615e+49   2.03675e+66   2.07137e+66
   5.45253e+58    1.3926e+46   2.35898e+59   5.01213e+67  5.77442e+134   1.7395e+201   4.39852e+67   1.22761e+67   4.89985e+66   3.29453e+67   4.18524e+65   1.57201e+65   6.95529e+66
   6.33841e+58  -6.09161e+58   2.39226e+59    5.1613e+67  6.08861e+134  1.86954e+201   4.53326e+67   1.28191e+67   5.21699e+66   3.35769e+67  -4.22652e+65  -2.72073e+66   7.48547e+66
          -265             5           -50   6.24068e+67  1.11064e+135  6.08557e+201   5.27633e+67   1.32676e+67   1.32676e+67   3.58716e+67   4.62565e+51  -2.87793e+66   2.99452e+66
          -265             0           -50   6.15387e+67  1.09009e+135  5.96778e+201   5.19319e+67    1.3083e+67    1.3083e+67   3.53727e+67  -1.57258e+51   6.59114e+53     2.576e+66
   3.73761e+58   5.57029e+45   1.43203e+59   3.05847e+67   1.9325e+134  3.01785e+200   2.72429e+67   8.12266e+66   2.42876e+66   2.00333e+67   3.05571e+65   4.55452e+64    6.1451e+66
    4.3844e+58  -4.31112e+58   1.44167e+59   3.14599e+67  2.01451e+134  3.14986e+200   2.80762e+67   8.53463e+66   2.61483e+66   2.03104e+67  -5.35606e+65   -1.9912e+66   6.56232e+66
          -270             5           -50   3.76089e+67  4.01183e+134  1.31454e+201   3.18315e+67   7.99559e+66   7.99559e+66   2.16177e+67     3.037e+51  -2.03675e+66   2.07137e+66
          -270             0           -50   3.73574e+67  4.01044e+134  1.32971e+201   3.15362e+67   7.94213e+66   7.94213e+66   2.14732e+67  -8.76901e+50   2.63257e+53    1.7658e+66
   6.33841e+58  -6.09161e+58   2.39226e+59   4.28986e+67  2.99506e+134  2.86821e+199   3.92529e+67   1.09665e+67   2.07953e+65   3.17242e+67   6.73764e+65  -8.88242e+65   7.48547e+66
   9.54503e+58  -1.55237e+59   2.81341e+59   5.49801e+67   5.5418e+134   8.7646e+200   4.96853e+67   1.39316e+67   2.77645e+66   3.82721e+67  -7.64999e+65  -5.34436e+66   9.73673e+66
          -265            10           -50   7.33933e+67  1.48584e+135  9.11432e+201   6.24558e+67   1.56033e+67   1.56033e+67   4.21867e+67   1.28305e+52  -7.33404e+66   4.50946e+66
          -265             5           -50   6.24068e+67  1.11064e+135  6.08557e+201   5.27633e+67   1.32676e+67   1.32676e+67   3.58716e+67  -4.78788e+51  -2.87793e+66   2.99452e+66
    4.3844e+58  -4.31112e+58   1.44167e+59   2.60453e+67  8.43529e+133 -6.27068e+199   2.43722e+67   7.38348e+66  -4.97526e+65   1.91593e+67   4.75469e+65  -7.83378e+65   6.56232e+66
    7.1713e+58  -1.06979e+59   1.70697e+59    3.4061e+67  1.71693e+134  8.22772e+199   3.14397e+67    9.4842e+66    1.2066e+66   2.33702e+67  -9.63293e+65  -3.80073e+66   8.61528e+66
          -270            10           -50   4.45297e+67  5.37228e+134  1.94348e+201   3.80219e+67   9.46694e+66   9.46694e+66   2.55958e+67   8.65794e+51   -5.0541e+66   3.38802e+66
          -270             5           -50   3.76089e+67  4.01183e+134  1.31454e+201   3.18315e+67   7.99559e+66   7.99559e+66   2.16177e+67  -1.76549e+51  -2.03675e+66   2.07137e+66
  -4.54995e+59   1.71395e+59   1.37598e+60    8.1195e+67  1.70422e+135  6.54719e+201   6.99172e+67   2.89243e+67   5.54668e+66    4.6724e+67  -3.33197e+66  -3.41103e+66   6.64094e+66
  -5.58754e+59   4.74084e+58   1.32039e+60   4.46479e+67  3.38698e+134 -2.09112e+201   4.06785e+67   1.56721e+67  -2.22317e+66    3.1199e+67  -5.54103e+66  -3.02531e+66   2.48962e+66
  -1.66992e+59   5.58575e+58   1.09066e+60   4.34769e+67  3.06114e+134 -2.51358e+201   3.98011e+67   1.57704e+67  -3.24357e+66     3.095e+67  -5.45072e+66   8.52271e+65  -6.12871e+64
  -6.99267e+58   1.88008e+59   1.06417e+60   7.83261e+67  1.58889e+135  4.83434e+201   6.74247e+67   2.80467e+67   4.16531e+66   4.61141e+67  -3.43758e+66   4.66548e+65  -1.15079e+66
  -5.78422e+59   1.38162e+59   8.50346e+59   5.03689e+67  6.67521e+134  1.72324e+201   4.32378e+67   2.23707e+67   3.41123e+66    2.4587e+67   -5.9079e+65   2.15626e+63    6.5071e+66
  -6.24159e+59   6.09346e+58   8.75934e+59   4.27603e+67  4.50604e+134  4.75757e+200   3.71193e+67   1.52708e+67   1.79366e+66   2.56959e+67  -2.79985e+66   5.83799e+65   2.66327e+66
  -2.36072e+59   7.41663e+58   7.00197e+59   4.05075e+67   3.7815e+134 -1.80402e+200   3.55346e+67   1.51391e+67   1.51417e+65   2.52169e+67  -3.01703e+66  -7.79446e+65   1.12358e+65
  -1.90521e+59   1.63706e+59   7.03464e+59   4.64182e+67  5.63801e+134  6.41807e+200   3.98854e+67   2.12631e+67   1.40803e+66    2.3747e+67  -1.00389e+66  -1.36109e+66  -1.28464e+66
  -5.58754e+59   4.74084e+58   1.32039e+60   6.46248e+67  1.18766e+135  5.59396e+201    5.4669e+67   1.99191e+67   9.25959e+66    3.5446e+67  -4.82174e+66   1.26625e+66   2.48962e+66
  -6.47288e+59   2.04754e+47   1.35564e+60   6.64434e+67  1.11465e+135  4.81746e+201   5.74463e+67   1.42566e+67   9.64623e+66   4.25406e+67  -4.18271e+66   1.66542e+66   4.40983e+66
   -2.5958e+59   1.34445e+47   1.05492e+60   6.38324e+67  1.00534e+135  3.83544e+201   5.54006e+67   1.35541e+67   8.29279e+66   4.19855e+67  -4.37423e+66  -1.68855e+66  -1.52427e+66
  -1.66992e+59   5.58575e+58   1.09066e+60   6.33795e+67  1.12418e+135  4.71351e+201   5.37846e+67   2.00017e+67   8.19651e+66   3.51813e+67  -5.23922e+66  -2.08772e+66  -6.12871e+64
  -6.24159e+59   6.09346e+58   8.75934e+59   4.70108e+67  6.00661e+134  1.70578e+201   4.01167e+67   1.61744e+67   4.23681e+66   2.65995e+67  -1.79714e+66  -6.88379e+65   2.66327e+66
  -6.48672e+59   1.44321e+47   8.74595e+59   3.01483e+67  1.49221e+134  5.54377e+199   2.75627e+67   6.54029e+66   6.51886e+65   2.29561e+67   -1.1581e+66  -6.32613e+64   4.33613e+66
  -2.59404e+59   9.12175e+46   6.99476e+59   2.62897e+67  8.02736e+133   -1.984e+200   2.47158e+67   5.57255e+66   -1.4187e+66   2.21358e+67  -1.10229e+66  -3.40423e+64  -1.59797e+66
  -2.36072e+59   7.41663e+58   7.00197e+59   4.45178e+67  5.15907e+134  9.16563e+200   3.82875e+67   1.59917e+67   2.45659e+66   2.60695e+67  -1.96727e+66   -6.5916e+65   1.12358e+65
  -6.47288e+59   2.04754e+47   1.35564e+60   6.64434e+67  1.11465e+135  4.81746e+201   5.74463e+67   1.42566e+67   9.64623e+66   4.25406e+67   4.18271e+66  -1.66542e+66   4.40983e+66
  -5.58754e+59  -4.74084e+58   1.32039e+60   6.46248e+67  1.18766e+135  5.59396e+201    5.4669e+67   1.99191e+67   9.25959e+66    3.5446e+67   4.82174e+66  -1.26625e+66   2.48962e+66
  -1.66992e+59  -5.58575e+58   1.09066e+60   6.33795e+67  1.12418e+135  4.71351e+201   5.37846e+67   2.00017e+67   8.19651e+66   3.51813e+67   5.23922e+66   2.08772e+66  -6.12871e+64
   -2.5958e+59   1.34445e+47   1.05492e+60   6.38324e+67  1.00534e+135  3.83544e+201   5.54006e+67   1.35541e+67   8.29279e+66   4.19855e+67   4.37423e+66   1.68855e+66  -1.52427e+66
  -6.48672e+59   1.44321e+47   8.74595e+59   3.01483e+67  1.49221e+134  5.54377e+199   2.75627e+67   6.54029e+66   6.51886e+65   2.29561e+67    1.1581e+66   6.32613e+64   4.33613e+66
  -6.24159e+59  -6.09346e+58   8.75934e+59   4.70108e+67  6.00661e+134  1.70578e+201   4.01167e+67   1.61744e+67   4.23681e+66   2.65995e+67   1.79714e+66   6.88379e+65   2.66327e+66
  -2.36072e+59  -7.41663e+58   7.00197e+59   4.45178e+67  5.15907e+134  9.16563e+200   3.82875e+67   1.59917e+67   2.45659e+66   2.60695e+67   1.96727e+66    6.5916e+65   1.12358e+65
  -2.59404e+59   9.12175e+46   6.99476e+59   2.62897e+67  8.02736e+133   -1.984e+200   2.47158e+67   5.57255e+66   -1.4187e+66   2.21358e+67   1.10229e+66   3.40423e+64  -1.59797e+66
  -5.58754e+59  -4.74084e+58   1.32039e+60   4.46479e+67  3.38698e+134 -2.09112e+201   4.06785e+67   1.56721e+67  -2.22317e+66    3.1199e+67   5.54103e+66   3.02531e+66   2.48962e+66
  -4.54995e+59  -1.71395e+59   1.37598e+60    8.1195e+67  1.70422e+135  6.54719e+201   6.99172e+67   2.89243e+67   5.54668e+66    4.6724e+67   3.33197e+66   3.41103e+66   6.64094e+66
  -6.99267e+58  -1.88008e+59   1.06417e+60   7.83261e+67  1.58889e+135  4.83434e+201   6.74247e+67   2.80467e+67   4.16531e+66   4.61141e+67   3.43758e+66  -4.66548e+65  -1.15079e+66
  -1.66992e+59  -5.58575e+58   1.09066e+60   4.34769e+67  3.06114e+134 -2.51358e+201   3.98011e+67   1.57704e+67  -3.24357e+66     3.095e+67   5.45072e+66  -8.52271e+65  -6.12871e+64
  -6.24159e+59  -6.09346e+58   8.75934e+59   4.27603e+67  4.50604e+134  4.75757e+200   3.71193e+67   1.52708e+67   1.79366e+66   2.56959e+67   2.79985e+66  -5.83799e+65   2.66327e+66
  -5.78422e+59  -1.38162e+59   8.50346e+59   5.03689e+67  6.67521e+134  1.72324e+201   4.32378e+67   2.23707e+67   3.41123e+66    2.4587e+67    5.9079e+65  -2.15626e+63    6.5071e+66
  -1.90521e+59  -1.63706e+59   7.03464e+59   4.64182e+67  5.63801e+134  6.41807e+200   3.98854e+67   2.12631e+67   1.40803e+66    2.3747e+67   1.00389e+66   1.36109e+66  -1.28464e+66
  -2.36072e+59  -7.41663e+58   7.00197e+59   4.05075e+67   3.7815e+134 -1.80402e+200   3.55346e+67   1.51391e+67   1.51417e+65   2.52169e+67   3.01703e+66   7.79446e+65   1.12358e+65
  -6.99267e+58   1.88008e+59   1.06417e+60     6.334e+67  8.84387e+134  3.76656e+200   5.59246e+67   2.48607e+67   9.79281e+65      3.75e+67  -3.43758e+66   -2.9228e+64   9.85593e+66
  -1.66992e+59   5.58575e+58   1.09066e+60   7.25682e+67  1.10657e+135  1.39278e+201   6.44947e+67   2.19552e+67   2.94118e+66   4.76718e+67  -5.45072e+66  -6.67181e+65     1.071e+67
  -3.22114e+57   9.64683e+58   7.49414e+59   6.03865e+67  6.59028e+134  2.96821e+200   5.46581e+67   1.36773e+67    1.6273e+66    4.5082e+67  -3.34269e+66  -4.77212e+66   4.38659e+66
   8.21658e+58   2.15116e+59   8.09813e+59   4.97151e+67  4.37802e+134 -6.10013e+200   4.50975e+67   1.57531e+67  -6.41443e+65   3.46034e+67  -2.09832e+66  -4.13417e+66   7.31531e+66
  -1.90521e+59   1.63706e+59   7.03464e+59   6.04274e+67  9.69689e+134  3.14799e+201   5.17859e+67   2.42415e+67   4.38636e+66   3.17996e+67  -1.00389e+66  -6.47451e+65   6.75047e+66
  -2.36072e+59   7.41663e+58   7.00197e+59   4.87681e+67   5.2442e+134   5.9499e+200    4.3057e+67   1.68953e+67    1.9076e+66   2.99651e+67  -3.01703e+66  -5.16634e+65   7.86591e+66
  -1.21023e+58   8.18351e+58   4.92794e+59   3.23415e+67  1.36663e+134 -4.11348e+200   3.01548e+67   7.71492e+66  -1.84629e+66   2.64729e+67  -1.17038e+66   -8.3879e+65   1.54252e+66
   2.73041e+58   1.74143e+59    5.0288e+59   4.25576e+67  3.93571e+134  1.09851e+200   3.76507e+67   1.42315e+67   3.25628e+65   2.80005e+67   7.39871e+64  -9.69607e+65   4.20986e+66
  -1.66992e+59   5.58575e+58   1.09066e+60   9.24708e+67  2.32702e+135  1.65362e+202   7.88912e+67   2.61864e+67   1.43813e+67   5.19031e+67  -5.23922e+66  -3.60717e+66     1.071e+67
   -2.5958e+59   1.34445e+47   1.05492e+60   7.37961e+67  1.34407e+135  6.48949e+201   6.40452e+67   1.56723e+67   1.04111e+67   4.77127e+67  -4.37423e+66  -1.68855e+66   6.45103e+66
  -4.06817e+58   7.29021e+46   7.16003e+59   6.13329e+67  7.75363e+134   2.0132e+201   5.46476e+67   1.23457e+67   3.92415e+66    4.5063e+67  -1.76979e+66  -1.57847e+66   7.92315e+65
  -3.22114e+57   9.64683e+58   7.49414e+59   6.61724e+67  9.60975e+134  3.12112e+201   5.84621e+67   1.49073e+67   4.95303e+66   4.63121e+67  -1.07846e+66  -3.49709e+66   4.38659e+66
  -2.36072e+59   7.41663e+58   7.00197e+59   5.27784e+67  6.85647e+134  1.93373e+201   4.58248e+67   1.77479e+67   4.21277e+66   3.08177e+67  -1.96727e+66  -3.96349e+65   7.86591e+66
  -2.59404e+59   9.12175e+46   6.99476e+59   3.77739e+67  2.29312e+134  1.62877e+200   3.46057e+67   8.01409e+66   1.02284e+66    2.8737e+67  -1.10229e+66  -3.40423e+64   6.11254e+66
  -3.33413e+58   4.68528e+46   4.80335e+59   3.39043e+67   1.6223e+134 -1.25088e+200   3.14208e+67   6.51441e+66  -5.24454e+65   2.79143e+67  -1.00342e+66   -5.8864e+65   4.53818e+65
  -1.21023e+58   8.18351e+58   4.92794e+59   3.50736e+67  2.11299e+134 -7.04737e+199   3.19196e+67   8.29577e+66  -2.75848e+65   2.70537e+67  -3.12083e+65  -9.50946e+65   1.54252e+66
   -2.5958e+59   1.34445e+47   1.05492e+60   7.37961e+67  1.34407e+135  6.48949e+201   6.40452e+67   1.56723e+67   1.04111e+67   4.77127e+67   4.37423e+66   1.68855e+66   6.45103e+66
  -1.66992e+59  -5.58575e+58   1.09066e+60   9.24708e+67  2.32702e+135  1.65362e+202   7.88912e+67   2.61864e+67   1.43813e+67   5.19031e+67   5.23922e+66   3.60717e+66     1.071e+67
  -3.22114e+57  -9.64683e+58   7.49414e+59   6.61724e+67  9.60975e+134  3.12112e+201   5.84621e+67   1.49073e+67   4.95303e+66   4.63121e+67   1.07846e+66   3.49709e+66   4.38659e+66
  -4.06817e+58   7.29021e+46   7.16003e+59   6.13329e+67  7.75363e+134   2.0132e+201   5.46476e+67   1.23457e+67   3.92415e+66    4.5063e+67   1.76979e+66   1.57847e+66   7.92315e+65
  -2.59404e+59   9.12175e+46   6.99476e+59   3.77739e+67  2.29312e+134  1.62877e+200   3.46057e+67   8.01409e+66   1.02284e+66    2.8737e+67   1.10229e+66   3.40423e+64   6.11254e+66
  -2.36072e+59  -7.41663e+58   7.00197e+59   5.27784e+67  6.85647e+134  1.93373e+201   4.58248e+67   1.77479e+67   4.21277e+66   3.08177e+67   1.96727e+66   3.96349e+65   7.86591e+66
  -1.21023e+58  -8.18351e+58   4.92794e+59   3.50736e+67  2.11299e+134 -7.04737e+199   3.19196e+67   8.29577e+66  -2.75848e+65   2.70537e+67   3.12083e+65   9.50946e+65   1.54252e+66
  -3.33413e+58   4.68528e+46   4.80335e+59   3.39043e+67   1.6223e+134 -1.25088e+200   3.14208e+67   6.51441e+66  -5.24454e+65   2.79143e+67   1.00342e+66    5.8864e+65   4.53818e+65
  -1.66992e+59  -5.58575e+58   1.09066e+60   7.25682e+67  1.10657e+135  1.39278e+201   6.44947e+67   2.19552e+67   2.94118e+66   4.76718e+67   5.45072e+66   6.67181e+65     1.071e+67
  -6.99267e+58  -1.88008e+59   1.06417e+60     6.334e+67  8.84387e+134  3.76656e+200   5.59246e+67   2.48607e+67   9.79281e+65      3.75e+67   3.43758e+66    2.9228e+64   9.85593e+66
   8.21658e+58  -2.15116e+59   8.09813e+59   4.97151e+67  4.37802e+134 -6.10013e+200   4.50975e+67   1.57531e+67  -6.41443e+65   3.46034e+67   2.09832e+66   4.13417e+66   7.31531e+66
  -3.22114e+57  -9.64683e+58   7.49414e+59   6.03865e+67  6.59028e+134  2.96821e+200   5.46581e+67   1.36773e+67    1.6273e+66    4.5082e+67   3.34269e+66   4.77212e+66   4.38659e+66
  -2.36072e+59  -7.41663e+58   7.00197e+59   4.87681e+67   5.2442e+134   5.9499e+200    4.3057e+67   1.68953e+67    1.9076e+66   2.99651e+67   3.01703e+66   5.16634e+65   7.86591e+66
  -1.90521e+59  -1.63706e+59   7.03464e+59   6.04274e+67  9.69689e+134  3.14799e+201   5.17859e+67   2.42415e+67   4.38636e+66   3.17996e+67   1.00389e+66   6.47451e+65   6.75047e+66
   2.73041e+58  -1.74143e+59    5.0288e+59   4.25576e+67  3.93571e+134  1.09851e+200   3.76507e+67   1.42315e+67   3.25628e+65   2.80005e+67  -7.39871e+64   9.69607e+65   4.20986e+66
  -1.21023e+58  -8.18351e+58   4.92794e+59   3.23415e+67  1.36663e+134 -4.11348e+200   3.01548e+67   7.71492e+66  -1.84629e+66   2.64729e+67   1.17038e+66    8.3879e+65   1.54252e+66
   8.21658e+58   2.15116e+59   8.09813e+59   8.76309e+67  1.70962e+135  8.11136e+201    7.7263e+67    2.3814e+67   7.41942e+66   5.63975e+67  -2.09832e+66  -2.12924e+66   1.48195e+67
  -3.22114e+57   9.64683e+58   7.49414e+59   7.44307e+67  1.10033e+135  3.12359e+201   6.66304e+67    1.6663e+67   4.61307e+66   5.31546e+67  -3.34269e+66   -1.7392e+66   9.65748e+66
    4.8982e+58   7.28823e+58    3.5433e+59   6.62031e+67  7.75562e+134  1.29623e+201   6.00607e+67   1.27139e+67    2.0838e+66   5.14055e+67  -6.83692e+65  -1.52092e+66   2.97169e+66
   7.54197e+58   1.99786e+59   4.10109e+59   6.59401e+67  7.12198e+134  1.08718e+201   6.02984e+67   1.21261e+67   2.02788e+66   5.17861e+67   8.55631e+65  -1.91096e+66   6.40223e+66
   2.73041e+58   1.74143e+59    5.0288e+59   4.80241e+67  4.21188e+134  5.21751e+200    4.3418e+67   1.53936e+67    1.4878e+66   3.11426e+67   7.39871e+64   4.16719e+65   1.12813e+67
  -1.21023e+58   8.18351e+58   4.92794e+59   4.43846e+67  2.99467e+134  1.34047e+200   4.08721e+67   1.02753e+67   7.14061e+65   3.33953e+67  -1.17038e+66   5.11814e+65   8.55749e+66
   6.33841e+58   6.09161e+58   2.39226e+59   3.77857e+67  1.74068e+134 -2.16549e+200   3.54075e+67   6.67235e+66  -8.79058e+65   3.19924e+67  -9.49609e+65  -1.00139e+66    1.8717e+66
   9.54503e+58   1.55237e+59   2.81341e+59   2.79618e+67  7.36871e+132 -3.16772e+200   2.78298e+67   4.05199e+66  -2.96759e+66   2.68774e+67   5.89714e+65  -1.09648e+66   2.86401e+66
  -3.22114e+57   9.64683e+58   7.49414e+59   8.02166e+67  1.45226e+135  6.92747e+201   7.05864e+67   1.78931e+67   7.93881e+66   5.43847e+67  -1.07846e+66  -4.64166e+65   9.65748e+66
  -4.06817e+58   7.29021e+46   7.16003e+59   7.04739e+67  1.03608e+135  3.73669e+201   6.26937e+67   1.42891e+67   5.86753e+66   5.03173e+67  -1.76979e+66  -1.57847e+66   7.50774e+66
   3.60729e+58    2.5299e+46   3.42044e+59    7.3728e+67  1.27866e+135  6.20513e+201   6.44761e+67   1.39309e+67   8.78795e+66   5.10091e+67  -6.09879e+65  -5.80417e+65   1.38856e+66
    4.8982e+58   7.28823e+58    3.5433e+59   8.02956e+67  1.55955e+135  8.60919e+201    6.9913e+67   1.57099e+67   1.01842e+67   5.44015e+67  -4.45485e+64   5.33885e+65   2.97169e+66
  -1.21023e+58   8.18351e+58   4.92794e+59   4.71168e+67  3.97781e+134  6.68164e+200   4.26873e+67   1.08561e+67    2.2845e+66   3.39762e+67  -3.12083e+65   3.99658e+65   8.55749e+66
  -3.33413e+58   4.68528e+46   4.80335e+59   4.05028e+67  2.35726e+134  1.51254e+200     3.748e+67   7.91725e+66   8.78377e+65   3.17071e+67  -1.00342e+66   -5.8864e+65   6.98277e+66
   5.45253e+58    1.3926e+46   2.35898e+59   4.30611e+67   3.7288e+134  8.04141e+200   3.84887e+67   7.41119e+66   3.39887e+66    3.2251e+67  -4.18524e+65  -1.57201e+65   8.63586e+65
   6.33841e+58   6.09161e+58   2.39226e+59      4.65e+67  4.59301e+134  1.17099e+201   4.12668e+67   8.52501e+66   4.12998e+66    3.3845e+67   1.46807e+65   8.31097e+65    1.8717e+66
  -4.06817e+58   7.29021e+46   7.16003e+59   7.04739e+67  1.03608e+135  3.73669e+201   6.26937e+67   1.42891e+67   5.86753e+66   5.03173e+67   1.76979e+66   1.57847e+66   7.50774e+66
  -3.22114e+57  -9.64683e+58   7.49414e+59   8.02166e+67  1.45226e+135  6.92747e+201   7.05864e+67   1.78931e+67   7.93881e+66   5.43847e+67   1.07846e+66   4.64166e+65   9.65748e+66
    4.8982e+58  -7.28823e+58    3.5433e+59   8.02956e+67  1.55955e+135  8.60919e+201    6.9913e+67   1.57099e+67   1.01842e+67   5.44015e+67   4.45485e+64  -5.33885e+65   2.97169e+66
   3.60729e+58    2.5299e+46   3.42044e+59    7.3728e+67  1.27866e+135  6.20513e+201   6.44761e+67   1.39309e+67   8.78795e+66   5.10091e+67   6.09879e+65   5.80417e+65   1.38856e+66
  -3.33413e+58   4.68528e+46   4.80335e+59   4.05028e+67  2.35726e+134  1.51254e+200     3.748e+67   7.91725e+66   8.78377e+65   3.17071e+67   1.00342e+66    5.8864e+65   6.98277e+66
  -1.21023e+58  -8.18351e+58   4.92794e+59   4.71168e+67  3.97781e+134  6.68164e+200   4.26873e+67   1.08561e+67    2.2845e+66   3.39762e+67   3.12083e+65  -3.99658e+65   8.55749e+66
   6.33841e+58  -6.09161e+58   2.39226e+59      4.65e+67  4.59301e+134  1.17099e+201   4.12668e+67   8.52501e+66   4.12998e+66    3.3845e+67  -1.46807e+65  -8.31097e+65    1.8717e+66
   5.45253e+58    1.3926e+46   2.35898e+59   4.30611e+67   3.7288e+134  8.04141e+200   3.84887e+67   7.41119e+66   3.39887e+66    3.2251e+67   4.18524e+65   1.57201e+65   8.63586e+65
  -3.22114e+57  -9.64683e+58   7.49414e+59   7.44307e+67  1.10033e+135  3.12359e+201   6.66304e+67    1.6663e+67   4.61307e+66   5.31546e+67   3.34269e+66    1.7392e+66   9.65748e+66
   8.21658e+58  -2.15116e+59   8.09813e+59   8.76309e+67  1.70962e+135  8.11136e+201    7.7263e+67    2.3814e+67   7.41942e+66   5.63975e+67   2.09832e+66   2.12924e+66   1.48195e+67
   7.54197e+58  -1.99786e+59   4.10109e+59   6.59401e+67  7.12198e+134  1.08718e+201   6.02984e+67   1.21261e+67   2.02788e+66   5.17861e+67  -8.55631e+65   1.91096e+66   6.40223e+66
    4.8982e+58  -7.28823e+58    3.5433e+59   6.62031e+67  7.75562e+134  1.29623e+201   6.00607e+67   1.27139e+67    2.0838e+66   5.14055e+67   6.83692e+65   1.52092e+66   2.97169e+66
  -1.21023e+58  -8.18351e+58   4.92794e+59   4.43846e+67  2.99467e+134  1.34047e+200   4.08721e+67   1.02753e+67   7.14061e+65   3.33953e+67   1.17038e+66  -5.11814e+65   8.55749e+66
   2.73041e+58  -1.74143e+59    5.0288e+59   4.80241e+67  4.21188e+134  5.21751e+200    4.3418e+67   1.53936e+67    1.4878e+66   3.11426e+67  -7.39871e+64  -4.16719e+65   1.12813e+67
   9.54503e+58  -1.55237e+59   2.81341e+59   2.79618e+67  7.36871e+132 -3.16772e+200   2.78298e+67   4.05199e+66  -2.96759e+66   2.68774e+67  -5.89714e+65   1.09648e+66   2.86401e+66
   6.33841e+58  -6.09161e+58   2.39226e+59   3.77857e+67  1.74068e+134 -2.16549e+200   3.54075e+67   6.67235e+66  -8.79058e+65   3.19924e+67   9.49609e+65   1.00139e+66    1.8717e+66
   7.54197e+58   1.99786e+59   4.10109e+59   6.86542e+67  7.09639e+134  1.00811e+201   6.32753e+67   1.27031e+67   2.60491e+66   5.33462e+67   8.55631e+65   6.80348e+66   9.64665e+66
    4.8982e+58   7.28823e+58    3.5433e+59   5.55716e+67  4.02438e+134 -1.09506e+200   5.18243e+67   1.04536e+67  -1.76449e+65   4.52944e+67  -6.83692e+65   8.08037e+65   7.75209e+66
          -260            -5           -50   9.24339e+67  2.45716e+135  2.01797e+202   7.80183e+67   1.96513e+67   1.96513e+67   5.31313e+67  -1.05024e+52   3.44326e+66   2.31411e+66
          -260           -10           -50   1.06985e+68  3.21294e+135   2.9498e+202   9.07349e+67   2.27448e+67   2.27448e+67   6.14952e+67   1.23409e+52    9.4387e+66   3.56313e+66
   9.54503e+58   1.55237e+59   2.81341e+59   4.35624e+67   1.3809e+134 -1.03131e+200   4.19475e+67   7.36864e+66   3.49063e+65   3.58447e+67   5.89714e+65   5.34436e+66    1.0593e+67
   6.33841e+58   6.09161e+58   2.39226e+59   3.40442e+67  4.27693e+133 -2.20372e+200   3.34101e+67   5.87692e+66  -1.67449e+66   2.98418e+67  -9.49609e+65   8.88242e+65    8.4325e+66
          -265            -5           -50   6.24068e+67  1.11064e+135  6.08557e+201   5.27633e+67   1.32676e+67   1.32676e+67   3.58716e+67  -8.11426e+51   2.87793e+66   2.99452e+66
          -265           -10           -50   7.33933e+67  1.48584e+135  9.11432e+201   6.24558e+67   1.56033e+67   1.56033e+67   4.21867e+67    8.3481e+51   7.33404e+66   4.50946e+66
    4.8982e+58   7.28823e+58    3.5433e+59   6.96641e+67  1.07042e+135  4.55803e+201   6.15033e+67   1.34496e+67   7.92395e+66   4.82905e+67  -4.45485e+64   2.86284e+66   7.75209e+66
   3.60729e+58    2.5299e+46   3.42044e+59   6.54025e+67   9.2601e+134   3.6116e+201    5.7892e+67   1.21609e+67   7.01796e+66   4.62236e+67  -6.09879e+65  -5.80417e+65     6.719e+66
          -260             0           -50    8.9229e+67  2.30286e+135  1.84017e+202    7.5226e+67   1.89699e+67   1.89699e+67   5.12891e+67  -1.89502e+51   1.19259e+54   1.70423e+66
          -260            -5           -50   9.24339e+67  2.45716e+135  2.01797e+202   7.80183e+67   1.96513e+67   1.96513e+67   5.31313e+67   3.50176e+51   3.44326e+66   2.31411e+66
   6.33841e+58   6.09161e+58   2.39226e+59   4.27585e+67  2.97915e+134  5.28639e+200   3.91201e+67   7.72958e+66   3.33455e+66   3.16944e+67   1.46807e+65   2.72073e+66    8.4325e+66
   5.45253e+58    1.3926e+46   2.35898e+59   4.08339e+67  2.67943e+134  4.55407e+200   3.74094e+67   6.93769e+66   2.92537e+66   3.09708e+67  -4.18524e+65  -1.57201e+65   7.59076e+66
          -265             0           -50   6.15387e+67  1.09009e+135  5.96778e+201   5.19319e+67    1.3083e+67    1.3083e+67   3.53727e+67  -1.32193e+51   6.57559e+53     2.576e+66
          -265            -5           -50   6.24068e+67  1.11064e+135  6.08557e+201   5.27633e+67   1.32676e+67   1.32676e+67   3.58716e+67   2.82947e+51   2.87793e+66   2.99452e+66
   3.60729e+58    2.5299e+46   3.42044e+59   6.54025e+67   9.2601e+134   3.6116e+201    5.7892e+67   1.21609e+67   7.01796e+66   4.62236e+67   6.09879e+65   5.80417e+65     6.719e+66
    4.8982e+58  -7.28823e+58    3.5433e+59   6.96641e+67  1.07042e+135  4.55803e+201   6.15033e+67   1.34496e+67   7.92395e+66   4.82905e+67   4.45485e+64  -2.86284e+66   7.75209e+66
          -260             5           -50   9.24339e+67  2.45716e+135  2.01797e+202   7.80183e+67   1.96513e+67   1.96513e+67   5.31313e+67   4.72357e+51  -3.44326e+66   2.31411e+66
          -260             0           -50    8.9229e+67  2.30286e+135  1.84017e+202    7.5226e+67   1.89699e+67   1.89699e+67   5.12891e+67  -2.25747e+51    1.1964e+54   1.70423e+66
   5.45253e+58    1.3926e+46   2.35898e+59   4.08339e+67  2.67943e+134  4.55407e+200   3.74094e+67   6.93769e+66   2.92537e+66   3.09708e+67   4.18524e+65   1.57201e+65   7.59076e+66
   6.33841e+58  -6.09161e+58   2.39226e+59   4.27585e+67  2.97915e+134  5.28639e+200   3.91201e+67   7.72958e+66   3.33455e+66   3.16944e+67  -1.46807e+65  -2.72073e+66    8.4325e+66
          -265             5           -50   6.24068e+67  1.11064e+135  6.08557e+201   5.27633e+67   1.32676e+67   1.32676e+67   3.58716e+67   3.85252e+51  -2.87793e+66   2.99452e+66
          -265             0           -50   6.15387e+67  1.09009e+135  5.96778e+201   5.19319e+67    1.3083e+67    1.3083e+67   3.53727e+67   -1.4889e+51    6.5812e+53     2.576e+66
    4.8982e+58  -7.28823e+58    3.5433e+59   5.55716e+67  4.02438e+134 -1.09506e+200   5.18243e+67   1.04536e+67  -1.76449e+65   4.52944e+67   6.83692e+65  -8.08037e+65   7.75209e+66
   7.54197e+58  -1.99786e+59   4.10109e+59   6.86542e+67  7.09639e+134  1.00811e+201   6.32753e+67   1.27031e+67   2.60491e+66   5.33462e+67  -8.55631e+65  -6.80348e+66   9.64665e+66
          -260            10           -50   1.06985e+68  3.21294e+135   2.9498e+202   9.07349e+67   2.27448e+67   2.27448e+67   6.14952e+67   1.43695e+52   -9.4387e+66   3.56313e+66
          -260             5           -50   9.24339e+67  2.45716e+135  2.01797e+202   7.80183e+67   1.96513e+67   1.96513e+67   5.31313e+67  -8.05726e+51  -3.44326e+66   2.31411e+66
   6.33841e+58  -6.09161e+58   2.39226e+59   3.40442e+67  4.27693e+133 -2.20372e+200   3.34101e+67   5.87692e+66  -1.67449e+66   2.98418e+67   9.49609e+65  -8.88242e+65    8.4325e+66
   9.54503e+58  -1.55237e+59   2.81341e+59   4.35624e+67   1.3809e+134 -1.03131e+200   4.19475e+67   7.36864e+66   3.49063e+65   3.58447e+67  -5.89714e+65  -5.34436e+66    1.0593e+67
          -265            10           -50   7.33933e+67  1.48584e+135  9.11432e+201   6.24558e+67   1.56033e+67   1.56033e+67   4.21867e+67     1.154e+52  -7.33404e+66   4.50946e+66
          -265             5           -50   6.24068e+67  1.11064e+135  6.08557e+201   5.27633e+67   1.32676e+67   1.32676e+67   3.58716e+67  -6.34876e+51  -2.87793e+66   2.99452e+66
   2.89235e+58   1.75054e+59   1.69436e+60    1.6067e+67 -2.27862e+135  1.44676e+202   5.03663e+67   4.91404e+67  -1.26213e+67  -2.04521e+67  -2.60843e+67   1.51651e+67   1.06887e+66
  -5.26853e+59   5.32848e+57   2.09334e+60   1.07813e+68  1.18267e+135 -7.32155e+202   1.02181e+68    2.5935e+67    6.8837e+66   7.49939e+67  -2.82452e+67   1.52591e+67   2.06503e+67
  -1.91004e+59   8.13238e+58   1.54223e+60   9.27072e+67  4.80722e+134 -3.74893e+202   9.00773e+67   1.74405e+67   3.48418e+66   7.17825e+67  -2.31598e+67  -2.27114e+67   5.46716e+66
   3.24679e+59   2.53041e+59   1.94696e+60  -7.75145e+66 -2.83277e+135  4.99631e+202   5.37853e+67   3.56376e+67  -1.78732e+67  -2.55159e+67  -2.12905e+67  -2.28054e+67   2.77339e+67
  -4.54995e+59   1.71395e+59   1.37598e+60   1.75236e+68  9.31543e+135  1.38579e+203   1.46261e+68   8.29795e+67   2.55397e+67    6.6717e+67   -4.7291e+66  -3.41103e+66  -3.15065e+66
  -5.58754e+59   4.74084e+58   1.32039e+60   3.59076e+67 -2.31722e+134 -6.91058e+200    3.9001e+67   1.06481e+67  -4.08134e+66   2.93408e+67  -6.89003e+66  -3.02531e+66   1.80087e+67
  -1.66992e+59   5.58575e+58   1.09066e+60   1.91918e+67 -2.05452e+134 -6.38193e+200   2.39536e+67   1.81127e+66  -8.40655e+66   2.57871e+67  -3.38261e+66   8.52271e+65   2.82561e+66
  -6.99267e+58   1.88008e+59   1.06417e+60   1.49807e+68  6.20895e+135  7.11755e+202    1.2741e+68   6.91343e+67   1.93621e+67   6.13109e+67  -1.51334e+66   4.66548e+65   2.35143e+67
  -5.26853e+59   5.32848e+57   2.09334e+60   1.50699e+68  5.75591e+135   6.1357e+202   1.30209e+68   3.50526e+67   3.15349e+67   8.41115e+67  -1.45835e+67  -1.76388e+67   2.06503e+67
  -7.93457e+59   2.82622e+47   1.79598e+60   5.81815e+67  1.23177e+134 -8.56454e+201   5.71132e+67  -1.44196e+66   1.18658e+67   4.77577e+67  -1.25955e+67  -1.40485e+67  -1.23573e+66
  -3.26965e+59   1.86893e+47   1.42145e+60    5.8909e+67  4.60553e+134 -1.20373e+201   5.48609e+67   6.15684e+66   4.83982e+66   4.79123e+67  -6.42336e+66   -5.7061e+66  -4.72249e+66
  -1.91004e+59   8.13238e+58   1.54223e+60   1.16288e+68  3.27186e+135  2.53686e+202   1.01248e+68   2.24538e+67   1.70385e+67   7.67958e+67  -5.22023e+66  -9.29643e+66   5.46716e+66
  -5.58754e+59   4.74084e+58   1.32039e+60   5.58845e+67  4.95147e+134 -2.81733e+200   5.12633e+67   1.48952e+67   7.40142e+66   3.35879e+67  -6.17074e+66   1.26625e+66   1.80087e+67
  -6.47288e+59   2.04754e+47   1.35564e+60   2.79512e+67 -2.58056e+134 -1.01842e+201   3.22386e+67  -7.86889e+66   1.46284e+66   3.43572e+67  -4.18271e+66   1.66542e+66   2.48635e+66
   -2.5958e+59   1.34445e+47   1.05492e+60   4.62994e+67   3.0053e+134 -1.54158e+200   4.29314e+67   3.47606e+66    4.5653e+66    3.8258e+67  -4.37423e+66  -1.68855e+66  -1.00042e+66
  -1.66992e+59   5.58575e+58   1.09066e+60   3.90944e+67   2.6838e+134  2.35238e+200   3.54964e+67   6.04253e+66   3.03353e+66   3.00183e+67   -3.1711e+66  -2.08772e+66   2.82561e+66
  -7.93457e+59   2.82622e+47   1.79598e+60   5.81815e+67  1.23177e+134 -8.56454e+201   5.71132e+67  -1.44196e+66   1.18658e+67   4.77577e+67   1.25955e+67   1.40485e+67  -1.23573e+66
  -5.26853e+59  -5.32848e+57   2.09334e+60   1.50699e+68  5.75591e+135   6.1357e+202   1.30209e+68   3.50526e+67   3.15349e+67   8.41115e+67   1.45835e+67   1.76388e+67   2.06503e+67
  -1.91004e+59  -8.13238e+58   1.54223e+60   1.16288e+68  3.27186e+135  2.53686e+202   1.01248e+68   2.24538e+67   1.70385e+67   7.67958e+67   5.22023e+66   9.29643e+66   5.46716e+66
  -3.26965e+59   1.86893e+47   1.42145e+60    5.8909e+67  4.60553e+134 -1.20373e+201   5.48609e+67   6.15684e+66   4.83982e+66   4.79123e+67   6.42336e+66    5.7061e+66  -4.72249e+66
  -6.47288e+59   2.04754e+47   1.35564e+60   2.79512e+67 -2.58056e+134 -1.01842e+201   3.22386e+67  -7.86889e+66   1.46284e+66   3.43572e+67   4.18271e+66  -1.66542e+66   2.48635e+66
  -5.58754e+59  -4.74084e+58   1.32039e+60   5.58845e+67  4.95147e+134 -2.81733e+200   5.12633e+67   1.48952e+67   7.40142e+66   3.35879e+67   6.17074e+66  -1.26625e+66   1.80087e+67
  -1.66992e+59  -5.58575e+58   1.09066e+60   3.90944e+67   2.6838e+134  2.35238e+200   3.54964e+67   6.04253e+66   3.03353e+66   3.00183e+67    3.1711e+66   2.08772e+66   2.82561e+66
   -2.5958e+59   1.34445e+47   1.05492e+60   4.62994e+67   3.0053e+134 -1.54158e+200   4.29314e+67   3.47606e+66    4.5653e+66    3.8258e+67   4.37423e+66   1.68855e+66  -1.00042e+66
  -5.26853e+59  -5.32848e+57   2.09334e+60   1.07813e+68  1.18267e+135 -7.32155e+202   1.02181e+68    2.5935e+67    6.8837e+66   7.49939e+67   2.82452e+67  -1.52591e+67   2.06503e+67
   2.89235e+58  -1.75054e+59   1.69436e+60    1.6067e+67 -2.27862e+135  1.44676e+202   5.03663e+67   4.91404e+67  -1.26213e+67  -2.04521e+67   2.60843e+67  -1.51651e+67   1.06887e+66
   3.24679e+59  -2.53041e+59   1.94696e+60  -7.75145e+66 -2.83277e+135  4.99631e+202   5.37853e+67   3.56376e+67  -1.78732e+67  -2.55159e+67   2.12905e+67   2.28054e+67   2.77339e+67
  -1.91004e+59  -8.13238e+58   1.54223e+60   9.27072e+67  4.80722e+134 -3.74893e+202   9.00773e+67   1.74405e+67   3.48418e+66   7.17825e+67   2.31598e+67   2.27114e+67   5.46716e+66
  -5.58754e+59  -4.74084e+58   1.32039e+60   3.59076e+67 -2.31722e+134 -6.91058e+200    3.9001e+67   1.06481e+67  -4.08134e+66   2.93408e+67   6.89003e+66   3.02531e+66   1.80087e+67
  -4.54995e+59  -1.71395e+59   1.37598e+60   1.75236e+68  9.31543e+135  1.38579e+203   1.46261e+68   8.29795e+67   2.55397e+67    6.6717e+67    4.7291e+66   3.41103e+66  -3.15065e+66
  -6.99267e+58  -1.88008e+59   1.06417e+60   1.49807e+68  6.20895e+135  7.11755e+202    1.2741e+68   6.91343e+67   1.93621e+67   6.13109e+67   1.51334e+66  -4.66548e+65   2.35143e+67
  -1.66992e+59  -5.58575e+58   1.09066e+60   1.91918e+67 -2.05452e+134 -6.38193e+200   2.39536e+67   1.81127e+66  -8.40655e+66   2.57871e+67   3.38261e+66  -8.52271e+65   2.82561e+66
   3.24679e+59   2.53041e+59   1.94696e+60   2.68338e+68  1.76262e+136  3.26512e+203   2.33193e+68   9.43337e+67    4.0823e+67   1.33181e+68  -2.12905e+67  -1.92755e+67   5.83117e+67
  -1.91004e+59   8.13238e+58   1.54223e+60   8.03649e+67 -1.30738e+134 -2.56748e+202   8.11742e+67   1.48166e+67   8.60212e+65   6.46881e+67  -2.31598e+67  -1.94806e+67   1.55471e+67
   -6.8513e+58   8.89351e+58   1.03844e+60   7.07289e+67  4.05298e+134 -7.73437e+200   6.78032e+67   8.86754e+66  -7.78161e+65   6.26395e+67  -2.32674e+66   -5.2155e+66   7.86773e+66
  -2.67969e+58   2.56311e+59   1.14122e+60   1.38105e+68  2.63256e+135  1.26742e+202    1.2822e+68   1.90652e+67   1.35459e+67   1.05494e+68  -2.46298e+64  -5.01039e+66   3.22623e+67
  -6.99267e+58   1.88008e+59   1.06417e+60   1.34821e+68  4.20048e+135  3.68214e+202   1.18221e+68   6.59483e+67   1.61761e+67   5.26968e+67  -1.51334e+66   -2.9228e+64   3.45211e+67
  -1.66992e+59   5.58575e+58   1.09066e+60    4.8283e+67   3.0928e+133 -7.73012e+200   4.79617e+67   7.99603e+66  -2.22179e+66   4.25088e+67  -3.38261e+66  -6.67181e+65   1.35969e+67
  -3.22114e+57   9.64683e+58   7.49414e+59   4.10371e+67 -8.05983e+133 -7.72978e+200   4.20076e+67   2.55511e+66  -2.48637e+66   4.09683e+67  -4.38993e+66  -4.77212e+66   5.91751e+66
   8.21658e+58   2.15116e+59   8.09813e+59   6.97826e+66 -4.80581e+134  3.07104e+201    2.3006e+67  -8.81212e+66  -9.72722e+66   2.55176e+67  -2.08782e+66  -4.13417e+66   8.47164e+66
  -1.91004e+59   8.13238e+58   1.54223e+60   1.03946e+68  2.36696e+135  1.47947e+202   9.18572e+67   1.98298e+67   1.44146e+67   6.97013e+67  -5.22023e+66  -6.06568e+66   1.55471e+67
  -3.26965e+59   1.86893e+47   1.42145e+60   8.44193e+67  1.34662e+135  4.40056e+201   7.60263e+67   1.15803e+67   1.02633e+67   6.25757e+67  -6.42336e+66   -5.7061e+66   8.08032e+66
  -1.31465e+59   1.04073e+47   9.49138e+59   7.63298e+67  9.71725e+134  2.98782e+201   6.96744e+67   7.64961e+66   7.82429e+66   6.08559e+67  -2.97413e+66  -4.21894e+66   1.77803e+66
   -6.8513e+58   8.89351e+58   1.03844e+60   9.11916e+67   1.6725e+135  8.26587e+201   8.15071e+67   1.32179e+67   1.09839e+67   6.69898e+67  -3.33003e+66  -4.57853e+66   7.86773e+66
  -1.66992e+59   5.58575e+58   1.09066e+60   6.81857e+67   9.0714e+134  3.24601e+201   6.11731e+67   1.22273e+67   9.21829e+66   4.67401e+67   -3.1711e+66  -3.60717e+66   1.35969e+67
   -2.5958e+59   1.34445e+47   1.05492e+60   5.62631e+67  5.06801e+134  5.64933e+200   5.15629e+67   5.59432e+66   6.68357e+66   4.39852e+67  -4.37423e+66  -1.68855e+66   6.97489e+66
  -4.06817e+58   7.29021e+46   7.16003e+59    3.9565e+67 -4.11448e+133  -1.1742e+200   4.00816e+67  -1.66526e+65  -7.03654e+65   4.04352e+67  -1.76979e+66  -1.57847e+66   6.72596e+65
  -3.22114e+57   9.64683e+58   7.49414e+59   4.68229e+67   1.4656e+134 -4.43107e+199   4.52308e+67   3.78518e+66   8.39365e+65   4.21984e+67  -2.12569e+66  -3.49709e+66   5.91751e+66
  -3.26965e+59   1.86893e+47   1.42145e+60   8.44193e+67  1.34662e+135  4.40056e+201   7.60263e+67   1.15803e+67   1.02633e+67   6.25757e+67   6.42336e+66    5.7061e+66   8.08032e+66
  -1.91004e+59  -8.13238e+58   1.54223e+60   1.03946e+68  2.36696e+135  1.47947e+202   9.18572e+67   1.98298e+67   1.44146e+67   6.97013e+67   5.22023e+66   6.06568e+66   1.55471e+67
   -6.8513e+58  -8.89351e+58   1.03844e+60   9.11916e+67   1.6725e+135  8.26587e+201   8.15071e+67   1.32179e+67   1.09839e+67   6.69898e+67   3.33003e+66   4.57853e+66   7.86773e+66
  -1.31465e+59   1.04073e+47   9.49138e+59   7.63298e+67  9.71725e+134  2.98782e+201   6.96744e+67   7.64961e+66   7.82429e+66   6.08559e+67   2.97413e+66   4.21894e+66   1.77803e+66
   -2.5958e+59   1.34445e+47   1.05492e+60   5.62631e+67  5.06801e+134  5.64933e+200   5.15629e+67   5.59432e+66   6.68357e+66   4.39852e+67   4.37423e+66   1.68855e+66   6.97489e+66
  -1.66992e+59  -5.58575e+58   1.09066e+60   6.81857e+67   9.0714e+134  3.24601e+201   6.11731e+67   1.22273e+67   9.21829e+66   4.67401e+67    3.1711e+66   3.60717e+66   1.35969e+67
  -3.22114e+57  -9.64683e+58   7.49414e+59   4.68229e+67   1.4656e+134 -4.43107e+199   4.52308e+67   3.78518e+66   8.39365e+65   4.21984e+67   2.12569e+66   3.49709e+66   5.91751e+66
  -4.06817e+58   7.29021e+46   7.16003e+59    3.9565e+67 -4.11448e+133  -1.1742e+200   4.00816e+67  -1.66526e+65  -7.03654e+65   4.04352e+67   1.76979e+66   1.57847e+66   6.72596e+65
  -1.91004e+59  -8.13238e+58   1.54223e+60   8.03649e+67 -1.30738e+134 -2.56748e+202   8.11742e+67   1.48166e+67   8.60212e+65   6.46881e+67   2.31598e+67   1.94806e+67   1.55471e+67
   3.24679e+59  -2.53041e+59   1.94696e+60   2.68338e+68  1.76262e+136  3.26512e+203   2.33193e+68   9.43337e+67    4.0823e+67   1.33181e+68   2.12905e+67   1.92755e+67   5.83117e+67
  -2.67969e+58  -2.56311e+59   1.14122e+60   1.38105e+68  2.63256e+135  1.26742e+202    1.2822e+68   1.90652e+67   1.35459e+67   1.05494e+68   2.46298e+64   5.01039e+66   3.22623e+67
   -6.8513e+58  -8.89351e+58   1.03844e+60   7.07289e+67  4.05298e+134 -7.73437e+200   6.78032e+67   8.86754e+66  -7.78161e+65   6.26395e+67   2.32674e+66    5.2155e+66   7.86773e+66
  -1.66992e+59  -5.58575e+58   1.09066e+60    4.8283e+67   3.0928e+133 -7.73012e+200   4.79617e+67   7.99603e+66  -2.22179e+66   4.25088e+67   3.38261e+66   6.67181e+65   1.35969e+67
  -6.99267e+58  -1.88008e+59   1.06417e+60   1.34821e+68  4.20048e+135  3.68214e+202   1.18221e+68   6.59483e+67   1.61761e+67   5.26968e+67   1.51334e+66    2.9228e+64   3.45211e+67
   8.21658e+58  -2.15116e+59   8.09813e+59   6.97826e+66 -4.80581e+134  3.07104e+201    2.3006e+67  -8.81212e+66  -9.72722e+66   2.55176e+67   2.08782e+66   4.13417e+66   8.47164e+66
  -3.22114e+57  -9.64683e+58   7.49414e+59   4.10371e+67 -8.05983e+133 -7.72978e+200   4.20076e+67   2.55511e+66  -2.48637e+66   4.09683e+67   4.38993e+66   4.77212e+66   5.91751e+66
  -2.67969e+58   2.56311e+59   1.14122e+60   8.64203e+67  6.02122e+134  9.12007e+200   8.28635e+67   8.07714e+66   2.55782e+66   7.57854e+67  -2.46298e+64  -3.85811e+66   1.44785e+67
   -6.8513e+58   8.89351e+58   1.03844e+60   8.99007e+67  1.06613e+135  2.24416e+201   8.37616e+67   1.29434e+67   3.29774e+66   7.36595e+67  -2.32674e+66   -4.6897e+66   1.20609e+67
  -3.47772e+58    8.5417e+58   4.61152e+59   8.96749e+67  1.21378e+135  3.80904e+201   8.26306e+67   1.11505e+67   4.91292e+66   7.36115e+67   -9.6345e+65  -3.25681e+66    3.4529e+66
  -1.84951e+57   2.35191e+59   5.33606e+59     9.928e+67  1.69856e+135  7.30361e+201   9.03214e+67   1.38058e+67   6.95495e+66   7.85193e+67   1.17025e+65  -2.42523e+66   4.65589e+66
   8.21658e+58   2.15116e+59   8.09813e+59   4.48941e+67  -3.7725e+134  4.23744e+200   4.89156e+67  -7.51264e+65  -1.66636e+66   4.73118e+67  -2.08782e+66  -2.12924e+66   1.59758e+67
  -3.22114e+57   9.64683e+58   7.49414e+59   5.50813e+67  1.51512e+134 -7.17819e+200   5.36883e+67   5.54088e+66   4.99403e+65    4.9041e+67  -4.38993e+66   -1.7392e+66   1.11884e+67
    4.8982e+58   7.28823e+58    3.5433e+59   4.81099e+67  1.27254e+133  -2.0296e+200   4.79775e+67   2.31383e+66  -1.76278e+66   4.75589e+67  -6.56832e+65  -1.52092e+66   2.58042e+66
   7.54197e+58   1.99786e+59   4.10109e+59   5.10083e+67  7.07492e+133 -1.85708e+200     5.031e+67   3.54325e+66   -1.1466e+66   4.86116e+67   4.23644e+65  -1.91096e+66   6.15322e+66
   -6.8513e+58   8.89351e+58   1.03844e+60   1.10363e+68  2.61136e+135  1.73027e+202   9.78199e+67   1.72938e+67   1.50598e+67   7.80099e+67  -3.33003e+66  -4.05273e+66   1.20609e+67
  -1.31465e+59   1.04073e+47   9.49138e+59   8.43007e+67  1.25005e+135  4.80297e+201   7.65281e+67    9.3442e+66   9.51887e+66   6.54376e+67  -2.97413e+66  -4.21894e+66   6.82684e+66
  -4.28324e+58   3.94831e+46   4.46266e+59   8.83172e+67  1.58012e+135  8.01311e+201   7.88657e+67   1.13205e+67   1.07052e+67   6.62915e+67  -3.80557e+65  -7.03259e+65   7.36478e+65
  -3.47772e+58    8.5417e+58   4.61152e+59   1.06464e+68  2.46218e+135  1.63627e+202    9.4193e+67   1.47197e+67   1.45631e+67   7.71808e+67   2.11634e+65  -5.37049e+65    3.4529e+66
  -3.22114e+57   9.64683e+58   7.49414e+59   6.08671e+67  4.28662e+134  6.16645e+200   5.72376e+67   6.77095e+66   3.82514e+66    5.0271e+67  -2.12569e+66  -4.64166e+65   1.11884e+67
  -4.06817e+58   7.29021e+46   7.16003e+59   4.87061e+67  7.98218e+133 -7.32791e+199   4.78797e+67   1.77685e+66   1.23972e+66   4.56895e+67  -1.76979e+66  -1.57847e+66   7.38802e+66
   3.60729e+58    2.5299e+46   3.42044e+59   5.79577e+67  5.14978e+134  1.23283e+201   5.33303e+67    4.8661e+66    5.4352e+66   4.76564e+67  -6.09879e+65  -5.80417e+65   1.29766e+66
    4.8982e+58   7.28823e+58    3.5433e+59   6.22024e+67  6.15546e+134  1.65749e+201   5.70403e+67   5.30987e+66   6.33762e+66   5.05549e+67  -1.76887e+64   5.33885e+65   2.58042e+66
  -1.31465e+59   1.04073e+47   9.49138e+59   8.43007e+67  1.25005e+135  4.80297e+201   7.65281e+67    9.3442e+66   9.51887e+66   6.54376e+67   2.97413e+66   4.21894e+66   6.82684e+66
   -6.8513e+58  -8.89351e+58   1.03844e+60   1.10363e+68  2.61136e+135  1.73027e+202   9.78199e+67   1.72938e+67   1.50598e+67   7.80099e+67   3.33003e+66   4.05273e+66   1.20609e+67
  -3.47772e+58   -8.5417e+58   4.61152e+59   1.06464e+68  2.46218e+135  1.63627e+202    9.4193e+67   1.47197e+67   1.45631e+67   7.71808e+67  -2.11634e+65   5.37049e+65    3.4529e+66
  -4.28324e+58   3.94831e+46   4.46266e+59   8.83172e+67  1.58012e+135  8.01311e+201   7.88657e+67   1.13205e+67   1.07052e+67   6.62915e+67   3.80557e+65   7.03259e+65   7.36478e+65
  -4.06817e+58   7.29021e+46   7.16003e+59   4.87061e+67  7.98218e+133 -7.32791e+199   4.78797e+67   1.77685e+66   1.23972e+66   4.56895e+67   1.76979e+66   1.57847e+66   7.38802e+66
  -3.22114e+57  -9.64683e+58   7.49414e+59   6.08671e+67  4.28662e+134  6.16645e+200   5.72376e+67   6.77095e+66   3.82514e+66    5.0271e+67   2.12569e+66   4.64166e+65   1.11884e+67
    4.8982e+58  -7.28823e+58    3.5433e+59   6.22024e+67  6.15546e+134  1.65749e+201   5.70403e+67   5.30987e+66   6.33762e+66   5.05549e+67   1.76887e+64  -5.33885e+65   2.58042e+66
   3.60729e+58    2.5299e+46   3.42044e+59   5.79577e+67  5.14978e+134  1.23283e+201   5.33303e+67    4.8661e+66    5.4352e+66   4.76564e+67   6.09879e+65   5.80417e+65   1.29766e+66
   -6.8513e+58  -8.89351e+58   1.03844e+60   8.99007e+67  1.06613e+135  2.24416e+201   8.37616e+67   1.29434e+67   3.29774e+66   7.36595e+67   2.32674e+66    4.6897e+66   1.20609e+67
  -2.67969e+58  -2.56311e+59   1.14122e+60   8.64203e+67  6.02122e+134  9.12007e+200   8.28635e+67   8.07714e+66   2.55782e+66   7.57854e+67   2.46298e+64   3.85811e+66   1.44785e+67
  -1.84951e+57  -2.35191e+59   5.33606e+59     9.928e+67  1.69856e+135  7.30361e+201   9.03214e+67   1.38058e+67   6.95495e+66   7.85193e+67  -1.17025e+65   2.42523e+66   4.65589e+66
  -3.47772e+58   -8.5417e+58   4.61152e+59   8.96749e+67  1.21378e+135  3.80904e+201   8.26306e+67   1.11505e+67   4.91292e+66   7.36115e+67    9.6345e+65   3.25681e+66    3.4529e+66
  -3.22114e+57  -9.64683e+58   7.49414e+59   5.50813e+67  1.51512e+134 -7.17819e+200   5.36883e+67   5.54088e+66   4.99403e+65    4.9041e+67   4.38993e+66    1.7392e+66   1.11884e+67
   8.21658e+58  -2.15116e+59   8.09813e+59   4.48941e+67  -3.7725e+134  4.23744e+200   4.89156e+67  -7.51264e+65  -1.66636e+66   4.73118e+67   2.08782e+66   2.12924e+66   1.59758e+67
   7.54197e+58  -1.99786e+59   4.10109e+59   5.10083e+67  7.07492e+133 -1.85708e+200     5.031e+67   3.54325e+66   -1.1466e+66   4.86116e+67  -4.23644e+65   1.91096e+66   6.15322e+66
    4.8982e+58  -7.28823e+58    3.5433e+59   4.81099e+67  1.27254e+133  -2.0296e+200   4.79775e+67   2.31383e+66  -1.76278e+66   4.75589e+67   6.56832e+65   1.52092e+66   2.58042e+66
  -1.84951e+57   2.35191e+59   5.33606e+59    7.9973e+67  7.81733e+134  1.20611e+201   7.49263e+67    9.7011e+66    2.8503e+66   6.74216e+67   1.17025e+65   7.68834e+66   5.74713e+66
  -3.47772e+58    8.5417e+58   4.61152e+59   5.93789e+67  1.58714e+134 -4.44649e+200    5.8027e+67   4.70959e+66  -1.52797e+66   5.61973e+67   -9.6345e+65   6.12425e+65   3.40369e+66
          -255            -5           -50     1.203e+68   4.1722e+135   4.4746e+202   1.01489e+68   2.55757e+67   2.55757e+67   6.91491e+67  -1.53918e+52   4.03545e+66  -1.64302e+66
          -255           -10           -50   1.39202e+68  5.48818e+135  6.64223e+202   1.17851e+68    2.9594e+67    2.9594e+67   8.00135e+67    1.4273e+52   1.11114e+67  -8.73785e+64
   7.54197e+58   1.99786e+59   4.10109e+59   5.37224e+67  4.10159e+133 -2.12989e+200   5.33393e+67   4.12028e+66  -5.69572e+65   5.01717e+67   4.23644e+65   6.80348e+66   9.39765e+66
    4.8982e+58   7.28823e+58    3.5433e+59   3.74784e+67 -2.20007e+134   1.8331e+200   4.03068e+67   5.35791e+64  -4.02304e+66   4.14478e+67  -6.56832e+65   8.08037e+65   7.36082e+66
          -260            -5           -50   9.24339e+67  2.45716e+135  2.01797e+202   7.80183e+67   1.96513e+67   1.96513e+67   5.31313e+67  -1.28612e+52   3.44326e+66   2.31411e+66
          -260           -10           -50   1.06985e+68  3.21294e+135   2.9498e+202   9.07349e+67   2.27448e+67   2.27448e+67   6.14952e+67   1.16803e+52    9.4387e+66   3.56313e+66
  -3.47772e+58    8.5417e+58   4.61152e+59   7.61675e+67  1.02474e+135  3.83494e+201    6.9114e+67   8.27883e+66    8.1222e+66   5.97665e+67   2.11634e+65   3.33219e+66   3.40369e+66
  -4.28324e+58   3.94831e+46   4.46266e+59   7.35506e+67  9.63077e+134  3.50337e+201   6.66829e+67   8.18112e+66   7.56584e+66   5.78036e+67  -3.80557e+65  -7.03259e+65   2.90029e+66
          -255             0           -50   1.16417e+68  3.92088e+135  4.08899e+202   9.81432e+67   2.47501e+67   2.47501e+67    6.6917e+67  -2.61682e+51   1.86502e+54  -2.02358e+66
          -255            -5           -50     1.203e+68   4.1722e+135   4.4746e+202   1.01489e+68   2.55757e+67   2.55757e+67   6.91491e+67   3.63329e+51   4.03545e+66  -1.64302e+66
    4.8982e+58   7.28823e+58    3.5433e+59   5.15709e+67  2.66807e+134  3.05961e+200   4.89157e+67   3.04962e+66   4.07737e+66   4.44439e+67  -1.76887e+64   2.86284e+66   7.36082e+66
   3.60729e+58    2.5299e+46   3.42044e+59   4.96322e+67  2.56571e+134  3.13179e+200   4.69764e+67   3.09611e+66   3.66521e+66   4.28709e+67  -6.09879e+65  -5.80417e+65    6.6281e+66
          -260             0           -50    8.9229e+67  2.30286e+135  1.84017e+202    7.5226e+67   1.89699e+67   1.89699e+67   5.12891e+67  -2.58978e+51   1.19464e+54   1.70423e+66
          -260            -5           -50   9.24339e+67  2.45716e+135  2.01797e+202   7.80183e+67   1.96513e+67   1.96513e+67   5.31313e+67   3.56606e+51   3.44326e+66   2.31411e+66
  -4.28324e+58   3.94831e+46   4.46266e+59   7.35506e+67  9.63077e+134  3.50337e+201   6.66829e+67   8.18112e+66   7.56584e+66   5.78036e+67   3.80557e+65   7.03259e+65   2.90029e+66
  -3.47772e+58   -8.5417e+58   4.61152e+59   7.61675e+67  1.02474e+135  3.83494e+201    6.9114e+67   8.27883e+66    8.1222e+66   5.97665e+67  -2.11634e+65  -3.33219e+66   3.40369e+66
          -255             5           -50     1.203e+68   4.1722e+135   4.4746e+202   1.01489e+68   2.55757e+67   2.55757e+67   6.91491e+67   6.85152e+51  -4.03545e+66  -1.64302e+66
          -255             0           -50   1.16417e+68  3.92088e+135  4.08899e+202   9.81432e+67   2.47501e+67   2.47501e+67    6.6917e+67  -2.72278e+51   1.86541e+54  -2.02358e+66
   3.60729e+58    2.5299e+46   3.42044e+59   4.96322e+67  2.56571e+134  3.13179e+200   4.69764e+67   3.09611e+66   3.66521e+66   4.28709e+67   6.09879e+65   5.80417e+65    6.6281e+66
    4.8982e+58  -7.28823e+58    3.5433e+59   5.15709e+67  2.66807e+134  3.05961e+200   4.89157e+67   3.04962e+66   4.07737e+66   4.44439e+67   1.76887e+64  -2.86284e+66   7.36082e+66
          -260             5           -50   9.24339e+67  2.45716e+135  2.01797e+202   7.80183e+67   1.96513e+67   1.96513e+67   5.31313e+67   6.80475e+51  -3.44326e+66   2.31411e+66
          -260             0           -50    8.9229e+67  2.30286e+135  1.84017e+202    7.5226e+67   1.89699e+67   1.89699e+67   5.12891e+67  -2.64239e+51   1.19633e+54   1.70423e+66
  -3.47772e+58   -8.5417e+58   4.61152e+59   5.93789e+67  1.58714e+134 -4.44649e+200    5.8027e+67   4.70959e+66  -1.52797e+66   5.61973e+67    9.6345e+65  -6.12425e+65   3.40369e+66
  -1.84951e+57  -2.35191e+59   5.33606e+59    7.9973e+67  7.81733e+134  1.20611e+201   7.49263e+67    9.7011e+66    2.8503e+66   6.74216e+67  -1.17025e+65  -7.68834e+66   5.74713e+66
          -255            10           -50   1.39202e+68  5.48818e+135  6.64223e+202   1.17851e+68    2.9594e+67    2.9594e+67   8.00135e+67   2.10485e+52  -1.11114e+67  -8.73785e+64
          -255             5           -50     1.203e+68   4.1722e+135   4.4746e+202   1.01489e+68   2.55757e+67   2.55757e+67   6.91491e+67  -1.03416e+52  -4.03545e+66  -1.64302e+66
    4.8982e+58  -7.28823e+58    3.5433e+59   3.74784e+67 -2.20007e+134   1.8331e+200   4.03068e+67   5.35791e+64  -4.02304e+66   4.14478e+67   6.56832e+65  -8.08037e+65   7.36082e+66
   7.54197e+58  -1.99786e+59   4.10109e+59   5.37224e+67  4.10159e+133 -2.12989e+200   5.33393e+67   4.12028e+66  -5.69572e+65   5.01717e+67  -4.23644e+65  -6.80348e+66   9.39765e+66
          -260            10           -50   1.06985e+68  3.21294e+135   2.9498e+202   9.07349e+67   2.27448e+67   2.27448e+67   6.14952e+67   2.01687e+52   -9.4387e+66   3.56313e+66
          -260             5           -50   9.24339e+67  2.45716e+135  2.01797e+202   7.80183e+67   1.96513e+67   1.96513e+67   5.31313e+67    -9.263e+51  -3.44326e+66   2.31411e+66
   2.13134e+60   1.31026e+60   6.37566e+60   1.36799e+69  4.29871e+137  3.80258e+205   1.20063e+69   4.89485e+68   2.15266e+68   6.63235e+68  -9.00931e+67  -1.59167e+68   3.30852e+68
  -9.10839e+59   5.10528e+59   2.14675e+60  -2.52257e+68 -2.82442e+136   1.7944e+204   3.03113e+68  -8.99116e+67  -1.29195e+68  -3.31506e+67  -1.19857e+68  -1.78515e+68  -2.98432e+67
  -2.25752e+59   6.01701e+58   1.93001e+60  -5.43199e+67 -5.76646e+133  1.58074e+202   5.48481e+67  -1.48316e+67  -4.84188e+67   8.93052e+66  -2.66974e+66  -2.55247e+66  -1.40461e+67
  -1.90396e+59   4.50383e+59    2.4344e+60   7.91994e+68   1.3364e+137  6.16553e+204   7.02578e+68   1.19708e+68   1.31506e+68    5.4078e+68   7.65287e+66    1.6795e+67   1.32717e+68
   2.89235e+58   1.75054e+59   1.69436e+60   4.38284e+68  4.17845e+135 -1.69823e+204   4.33491e+68   2.91832e+68   7.71413e+67   6.93105e+67   2.73747e+67   1.51651e+67   2.07191e+68
  -5.26853e+59   5.32848e+57   2.09334e+60   -6.7957e+65 -2.55904e+135  4.26482e+202   5.05915e+67  -3.64266e+67  -1.61816e+67   5.19286e+67  -2.38946e+66   1.52591e+67  -1.33438e+67
  -1.91004e+59   8.13238e+58   1.54223e+60   8.99066e+67  2.13242e+134 -4.78921e+202   8.87127e+67   1.58307e+67   2.88876e+66   7.11871e+67  -2.53623e+67  -2.27114e+67   2.45337e+66
   3.24679e+59   2.53041e+59   1.94696e+60  -2.45059e+68  1.89021e+136 -4.41619e+203    2.0286e+68  -1.00768e+68  -6.83244e+67  -7.59671e+67  -1.50397e+67  -2.28054e+67    9.0558e+66
  -9.10839e+59   5.10528e+59   2.14675e+60  -1.76812e+68  6.29892e+135  3.51983e+201   1.57999e+68  -7.38721e+67  -8.58289e+67  -1.71111e+67    2.8985e+67   3.23013e+67  -2.98432e+67
  -8.02524e+59   3.57746e+47    2.3801e+60   5.60712e+67 -2.78851e+135 -2.78936e+202   7.70226e+67    1.1064e+67  -3.63183e+67   8.13254e+67   5.11728e+66   1.10245e+67   1.36067e+67
  -5.06415e+59   2.44278e+47   1.64556e+60   1.29108e+68  2.98435e+135  1.72801e+201   1.16981e+68   1.04922e+67   2.17628e+67    9.6853e+67  -1.32597e+67  -1.34385e+67   -3.4015e+66
  -2.25752e+59   6.01701e+58   1.93001e+60   3.17781e+67 -3.34597e+134 -2.72097e+201   3.66667e+67   3.47268e+66   1.07061e+66   2.72348e+67  -1.42591e+67   7.83828e+66  -1.40461e+67
  -5.26853e+59   5.32848e+57   2.09334e+60   4.22067e+67 -1.99762e+135 -9.58178e+201   6.14738e+67  -2.73091e+67   8.46961e+66   6.10462e+67   1.12722e+67  -1.76388e+67  -1.33438e+67
  -7.93457e+59   2.82622e+47   1.79598e+60   9.39475e+67  2.12148e+135  9.41466e+201   8.18819e+67   1.91164e+67   1.94696e+67   5.53615e+67  -1.25955e+67  -1.40485e+67   5.55709e+66
  -3.26965e+59   1.86893e+47   1.42145e+60   2.96747e+67 -6.91607e+134 -1.42222e+201   3.96509e+67  -1.06471e+67  -1.37534e+66   4.16972e+67  -6.42336e+66   -5.7061e+66  -1.14511e+67
  -1.91004e+59   8.13238e+58   1.54223e+60   1.13487e+68  3.03649e+135  2.03566e+202   9.92114e+67   2.08439e+67   1.64431e+67   7.62004e+67  -7.42274e+66  -9.29643e+66   2.45337e+66
  -8.02524e+59   3.57746e+47    2.3801e+60   5.60712e+67 -2.78851e+135 -2.78936e+202   7.70226e+67    1.1064e+67  -3.63183e+67   8.13254e+67  -5.11728e+66  -1.10245e+67   1.36067e+67
  -9.10839e+59  -5.10528e+59   2.14675e+60  -1.76812e+68  6.29892e+135  3.51983e+201   1.57999e+68  -7.38721e+67  -8.58289e+67  -1.71111e+67   -2.8985e+67  -3.23013e+67  -2.98432e+67
  -2.25752e+59  -6.01701e+58   1.93001e+60   3.17781e+67 -3.34597e+134 -2.72097e+201   3.66667e+67   3.47268e+66   1.07061e+66   2.72348e+67   1.42591e+67  -7.83828e+66  -1.40461e+67
  -5.06415e+59   2.44278e+47   1.64556e+60   1.29108e+68  2.98435e+135  1.72801e+201   1.16981e+68   1.04922e+67   2.17628e+67    9.6853e+67   1.32597e+67   1.34385e+67   -3.4015e+66
  -7.93457e+59   2.82622e+47   1.79598e+60   9.39475e+67  2.12148e+135  9.41466e+201   8.18819e+67   1.91164e+67   1.94696e+67   5.53615e+67   1.25955e+67   1.40485e+67   5.55709e+66
  -5.26853e+59  -5.32848e+57   2.09334e+60   4.22067e+67 -1.99762e+135 -9.58178e+201   6.14738e+67  -2.73091e+67   8.46961e+66   6.10462e+67  -1.12722e+67   1.76388e+67  -1.33438e+67
  -1.91004e+59  -8.13238e+58   1.54223e+60   1.13487e+68  3.03649e+135  2.03566e+202   9.92114e+67   2.08439e+67   1.64431e+67   7.62004e+67   7.42274e+66   9.29643e+66   2.45337e+66
  -3.26965e+59   1.86893e+47   1.42145e+60   2.96747e+67 -6.91607e+134 -1.42222e+201   3.96509e+67  -1.06471e+67  -1.37534e+66   4.16972e+67   6.42336e+66    5.7061e+66  -1.14511e+67
  -9.10839e+59  -5.10528e+59   2.14675e+60  -2.52257e+68 -2.82442e+136   1.7944e+204   3.03113e+68  -8.99116e+67  -1.29195e+68  -3.31506e+67   1.19857e+68   1.78515e+68  -2.98432e+67
   2.13134e+60  -1.31026e+60   6.37566e+60   1.36799e+69  4.29871e+137  3.80258e+205   1.20063e+69   4.89485e+68   2.15266e+68   6.63235e+68   9.00931e+67   1.59167e+68   3.30852e+68
  -1.90396e+59  -4.50383e+59    2.4344e+60   7.91994e+68   1.3364e+137  6.16553e+204   7.02578e+68   1.19708e+68   1.31506e+68    5.4078e+68  -7.65287e+66   -1.6795e+67   1.32717e+68
  -2.25752e+59  -6.01701e+58   1.93001e+60  -5.43199e+67 -5.76646e+133  1.58074e+202   5.48481e+67  -1.48316e+67  -4.84188e+67   8.93052e+66   2.66974e+66   2.55247e+66  -1.40461e+67
  -5.26853e+59  -5.32848e+57   2.09334e+60   -6.7957e+65 -2.55904e+135  4.26482e+202   5.05915e+67  -3.64266e+67  -1.61816e+67   5.19286e+67   2.38946e+66  -1.52591e+67  -1.33438e+67
   2.89235e+58  -1.75054e+59   1.69436e+60   4.38284e+68  4.17845e+135 -1.69823e+204   4.33491e+68   2.91832e+68   7.71413e+67   6.93105e+67  -2.73747e+67  -1.51651e+67   2.07191e+68
   3.24679e+59  -2.53041e+59   1.94696e+60  -2.45059e+68  1.89021e+136 -4.41619e+203    2.0286e+68  -1.00768e+68  -6.83244e+67  -7.59671e+67   1.50397e+67   2.28054e+67    9.0558e+66
  -1.91004e+59  -8.13238e+58   1.54223e+60   8.99066e+67  2.13242e+134 -4.78921e+202   8.87127e+67   1.58307e+67   2.88876e+66   7.11871e+67   2.53623e+67   2.27114e+67   2.45337e+66
  -1.90396e+59   4.50383e+59    2.4344e+60   6.52842e+67 -7.09911e+135  1.05972e+203   1.06589e+68  -3.47892e+67  -2.29911e+67   1.23065e+68   7.65287e+66  -1.70817e+67   2.09261e+67
  -2.25752e+59   6.01701e+58   1.93001e+60   8.13522e+67  -1.9021e+135 -2.49565e+202   9.23054e+67   1.40121e+67  -1.95751e+67   8.69153e+67  -2.66974e+66   -2.7614e+67   1.93556e+67
  -2.47666e+59   1.40281e+59    1.1932e+60   1.01838e+68  8.55442e+134  1.61606e+201   9.75478e+67   4.72281e+66   5.84484e+66   9.12705e+67   -2.3822e+66  -7.83138e+66   8.34694e+66
  -1.45896e+59   3.07559e+59   1.27885e+60   2.26739e+68  1.20797e+136  1.86569e+203    1.9832e+68   3.69508e+67   3.23985e+67    1.5739e+68   -2.3868e+66   2.70095e+66   4.39997e+66
   3.24679e+59   2.53041e+59   1.94696e+60   3.10299e+67  -6.0406e+135  6.85344e+202   8.36867e+67  -4.20716e+67  -9.62831e+66   8.27298e+67  -1.50397e+67  -1.92755e+67   3.96336e+67
  -1.91004e+59   8.13238e+58   1.54223e+60   7.75642e+67 -3.12904e+134 -3.36721e+202   7.95557e+67   1.32067e+67    2.6479e+65   6.40927e+67  -2.53623e+67  -1.94806e+67   1.25333e+67
   -6.8513e+58   8.89351e+58   1.03844e+60    4.1026e+67 -8.33226e+134  3.49908e+201   5.01633e+67  -8.20577e+66  -7.09295e+66   5.63247e+67   4.54965e+65   -5.2155e+66   1.52467e+66
  -2.67969e+58   2.56311e+59   1.14122e+60    1.3546e+68  2.87198e+135  1.64048e+202   1.24409e+68   1.75452e+67   1.29837e+67   1.04932e+68   4.50363e+65  -5.01039e+66   2.31075e+67
  -2.25752e+59   6.01701e+58   1.93001e+60    1.6745e+68     6.64e+135  6.90381e+202   1.46286e+68   3.23163e+67   2.99143e+67    1.0522e+68  -1.42591e+67  -1.72233e+67   1.93556e+67
  -5.06415e+59   2.44278e+47   1.64556e+60   7.04844e+67  8.77487e+133 -1.21179e+202   6.98591e+67  -1.97105e+66   9.29949e+66   6.31559e+67  -1.32597e+67  -1.34385e+67  -5.86451e+65
  -2.69892e+59   1.35129e+47   1.13575e+60   6.02877e+67 -5.66314e+133 -6.93032e+199   6.07555e+67  -2.62582e+65  -4.37856e+65   6.09881e+67  -1.05004e+66  -2.71406e+66  -2.35781e+66
  -2.47666e+59   1.40281e+59    1.1932e+60   1.08881e+68  1.44251e+135  4.43166e+201   1.02042e+68   6.22006e+66   9.89298e+66   9.27678e+67   1.37576e+66  -6.49884e+66   8.34694e+66
  -1.91004e+59   8.13238e+58   1.54223e+60   1.01145e+68   2.2169e+135  1.18797e+202   8.95177e+67     1.822e+67   1.38191e+67   6.91059e+67  -7.42274e+66  -6.06568e+66   1.25333e+67
  -3.26965e+59   1.86893e+47   1.42145e+60    5.5185e+67 -1.63047e+134 -3.25544e+201    5.6643e+67  -5.22367e+66   4.04811e+66   5.63606e+67  -6.42336e+66   -5.7061e+66   1.35168e+66
  -1.31465e+59   1.04073e+47   9.49138e+59   6.39013e+67    3.069e+134 -3.82828e+200   6.14531e+67   5.05676e+65   5.18201e+66   5.82137e+67  -2.97413e+66  -4.21894e+66  -4.19676e+65
   -6.8513e+58   8.89351e+58   1.03844e+60   6.14887e+67  7.77842e+132 -1.03285e+201   6.14254e+67  -3.85544e+66   4.66908e+66    6.0675e+67   -5.4833e+65  -4.57853e+66   1.52467e+66
  -5.06415e+59   2.44278e+47   1.64556e+60   7.04844e+67  8.77487e+133 -1.21179e+202   6.98591e+67  -1.97105e+66   9.29949e+66   6.31559e+67   1.32597e+67   1.34385e+67  -5.86451e+65
  -2.25752e+59  -6.01701e+58   1.93001e+60    1.6745e+68     6.64e+135  6.90381e+202   1.46286e+68   3.23163e+67   2.99143e+67    1.0522e+68   1.42591e+67   1.72233e+67   1.93556e+67
  -2.47666e+59  -1.40281e+59    1.1932e+60   1.08881e+68  1.44251e+135  4.43166e+201   1.02042e+68   6.22006e+66   9.89298e+66   9.27678e+67  -1.37576e+66   6.49884e+66   8.34694e+66
  -2.69892e+59   1.35129e+47   1.13575e+60   6.02877e+67 -5.66314e+133 -6.93032e+199   6.07555e+67  -2.62582e+65  -4.37856e+65   6.09881e+67   1.05004e+66   2.71406e+66  -2.35781e+66
  -3.26965e+59   1.86893e+47   1.42145e+60    5.5185e+67 -1.63047e+134 -3.25544e+201    5.6643e+67  -5.22367e+66   4.04811e+66   5.63606e+67   6.42336e+66    5.7061e+66   1.35168e+66
  -1.91004e+59  -8.13238e+58   1.54223e+60   1.01145e+68   2.2169e+135  1.18797e+202   8.95177e+67     1.822e+67   1.38191e+67   6.91059e+67   7.42274e+66   6.06568e+66   1.25333e+67
   -6.8513e+58  -8.89351e+58   1.03844e+60   6.14887e+67  7.77842e+132 -1.03285e+201   6.14254e+67  -3.85544e+66   4.66908e+66    6.0675e+67    5.4833e+65   4.57853e+66   1.52467e+66
  -1.31465e+59   1.04073e+47   9.49138e+59   6.39013e+67    3.069e+134 -3.82828e+200   6.14531e+67   5.05676e+65   5.18201e+66   5.82137e+67   2.97413e+66   4.21894e+66  -4.19676e+65
  -2.25752e+59  -6.01701e+58   1.93001e+60   8.13522e+67  -1.9021e+135 -2.49565e+202   9.23054e+67   1.40121e+67  -1.95751e+67   8.69153e+67   2.66974e+66    2.7614e+67   1.93556e+67
  -1.90396e+59  -4.50383e+59    2.4344e+60   6.52842e+67 -7.09911e+135  1.05972e+203   1.06589e+68  -3.47892e+67  -2.29911e+67   1.23065e+68  -7.65287e+66   1.70817e+67   2.09261e+67
  -1.45896e+59  -3.07559e+59   1.27885e+60   2.26739e+68  1.20797e+136  1.86569e+203    1.9832e+68   3.69508e+67   3.23985e+67    1.5739e+68    2.3868e+66  -2.70095e+66   4.39997e+66
  -2.47666e+59  -1.40281e+59    1.1932e+60   1.01838e+68  8.55442e+134  1.61606e+201   9.75478e+67   4.72281e+66   5.84484e+66   9.12705e+67    2.3822e+66   7.83138e+66   8.34694e+66
  -1.91004e+59  -8.13238e+58   1.54223e+60   7.75642e+67 -3.12904e+134 -3.36721e+202   7.95557e+67   1.32067e+67    2.6479e+65   6.40927e+67   2.53623e+67   1.94806e+67   1.25333e+67
   3.24679e+59  -2.53041e+59   1.94696e+60   3.10299e+67  -6.0406e+135  6.85344e+202   8.36867e+67  -4.20716e+67  -9.62831e+66   8.27298e+67   1.50397e+67   1.92755e+67   3.96336e+67
  -2.67969e+58  -2.56311e+59   1.14122e+60    1.3546e+68  2.87198e+135  1.64048e+202   1.24409e+68   1.75452e+67   1.29837e+67   1.04932e+68  -4.50363e+65   5.01039e+66   2.31075e+67
   -6.8513e+58  -8.89351e+58   1.03844e+60    4.1026e+67 -8.33226e+134  3.49908e+201   5.01633e+67  -8.20577e+66  -7.09295e+66   5.63247e+67  -4.54965e+65    5.2155e+66   1.52467e+66
  -1.45896e+59   3.07559e+59   1.27885e+60   9.40324e+67  1.00784e+135   2.2683e+201   8.85113e+67   8.73764e+66   4.18534e+66   8.11094e+67   -2.3868e+66   -2.1215e+66   8.16735e+66
  -2.47666e+59   1.40281e+59    1.1932e+60   7.56083e+67 -8.01945e+133 -4.00159e+200   7.61368e+67  -8.53616e+65   2.68414e+65   7.61936e+67   -2.3822e+66  -2.19861e+66   4.98678e+66
  -1.98456e+59   1.01166e+59   5.56939e+59   8.00708e+67  2.20317e+134  1.53731e+200    7.8683e+67    1.5572e+66   1.37137e+66   7.71423e+67   -7.4092e+64  -1.69914e+66    2.2005e+66
  -1.81139e+59   2.66811e+59   6.32019e+59   7.87564e+67  2.64801e+133 -1.09193e+200   7.85881e+67  -1.97302e+65   1.09191e+66   7.78618e+67   6.75776e+65  -1.62203e+66   6.31449e+66
  -2.67969e+58   2.56311e+59   1.14122e+60    8.3776e+67  6.13023e+134  7.96423e+200   8.00337e+67   6.55714e+66   1.99563e+66   7.52232e+67   4.50363e+65  -3.85811e+66   5.32371e+66
   -6.8513e+58   8.89351e+58   1.03844e+60   6.01978e+67 -5.23741e+134  9.90243e+200   6.44012e+67  -4.12987e+66  -3.01704e+66   6.73447e+67   4.54965e+65   -4.6897e+66   5.71783e+66
  -3.47772e+58    8.5417e+58   4.61152e+59   6.88263e+67 -4.46694e+133 -5.30656e+199     6.915e+67  -8.33376e+65   4.80531e+65   6.91791e+67  -8.11614e+65  -3.25681e+66   2.93154e+66
  -1.84951e+57   2.35191e+59   5.33606e+59   7.26659e+67 -3.40963e+133 -1.47073e+200   7.29002e+67  -1.49212e+66   1.29683e+66   7.28612e+67  -6.17461e+64  -2.42523e+66   3.47085e+66
  -2.47666e+59   1.40281e+59    1.1932e+60    8.2651e+67  3.60629e+134 -5.09084e+199   8.04398e+67    6.4364e+65   4.31655e+66   7.76908e+67   1.37576e+66  -8.66075e+65   4.98678e+66
  -2.69892e+59   1.35129e+47   1.13575e+60   8.05144e+67   5.4322e+134  9.12464e+200   7.70671e+67   4.03758e+66   3.86231e+66   7.26145e+67  -1.05004e+66  -2.71406e+66   6.12795e+66
  -2.12984e+59   5.19451e+46   5.48408e+59   8.24424e+67  6.94095e+134  7.73771e+200   7.81195e+67   1.44983e+66   7.96817e+66   7.30244e+67  -6.86333e+65  -4.03021e+65   2.13703e+66
  -1.98456e+59   1.01166e+59   5.56939e+59   9.68917e+67  1.35523e+135   4.5104e+201   8.96258e+67    5.1333e+66   1.10401e+67   8.07184e+67   5.76934e+64   1.44496e+66    2.2005e+66
   -6.8513e+58   8.89351e+58   1.03844e+60   8.06605e+67  5.95288e+134 -1.47441e+200   7.68819e+67    2.2047e+65   8.74499e+66   7.16951e+67   -5.4833e+65  -4.05273e+66   5.71783e+66
  -1.31465e+59   1.04073e+47   9.49138e+59   7.18722e+67  5.37041e+134  3.24308e+200   6.80336e+67   2.20026e+66    6.8766e+66   6.27953e+67  -2.97413e+66  -4.21894e+66   4.62913e+66
  -4.28324e+58   3.94831e+46   4.46266e+59   6.45138e+67  1.86637e+134 -8.25941e+200   6.30508e+67  -2.36175e+66   5.64465e+66   6.12309e+67  -3.80557e+65  -7.03259e+65   6.38206e+65
  -3.47772e+58    8.5417e+58   4.61152e+59    8.5615e+67  9.54724e+134  1.91771e+201   7.98448e+67   2.73587e+66   1.01307e+67   7.27484e+67    3.6347e+65  -5.37049e+65   2.93154e+66
  -2.69892e+59   1.35129e+47   1.13575e+60   8.05144e+67   5.4322e+134  9.12464e+200   7.70671e+67   4.03758e+66   3.86231e+66   7.26145e+67   1.05004e+66   2.71406e+66   6.12795e+66
  -2.47666e+59  -1.40281e+59    1.1932e+60    8.2651e+67  3.60629e+134 -5.09084e+199   8.04398e+67    6.4364e+65   4.31655e+66   7.76908e+67  -1.37576e+66   8.66075e+65   4.98678e+66
  -1.98456e+59  -1.01166e+59   5.56939e+59   9.68917e+67  1.35523e+135   4.5104e+201   8.96258e+67    5.1333e+66   1.10401e+67   8.07184e+67  -5.76934e+64  -1.44496e+66    2.2005e+66
  -2.12984e+59   5.19451e+46   5.48408e+59   8.24424e+67  6.94095e+134  7.73771e+200   7.81195e+67   1.44983e+66   7.96817e+66   7.30244e+67   6.86333e+65   4.03021e+65   2.13703e+66
  -1.31465e+59   1.04073e+47   9.49138e+59   7.18722e+67  5.37041e+134  3.24308e+200   6.80336e+67   2.20026e+66    6.8766e+66   6.27953e+67   2.97413e+66   4.21894e+66   4.62913e+66
   -6.8513e+58  -8.89351e+58   1.03844e+60   8.06605e+67  5.95288e+134 -1.47441e+200   7.68819e+67    2.2047e+65   8.74499e+66   7.16951e+67    5.4833e+65   4.05273e+66   5.71783e+66
  -3.47772e+58   -8.5417e+58   4.61152e+59    8.5615e+67  9.54724e+134  1.91771e+201   7.98448e+67   2.73587e+66   1.01307e+67   7.27484e+67   -3.6347e+65   5.37049e+65   2.93154e+66
  -4.28324e+58   3.94831e+46   4.46266e+59   6.45138e+67  1.86637e+134 -8.25941e+200   6.30508e+67  -2.36175e+66   5.64465e+66   6.12309e+67   3.80557e+65   7.03259e+65   6.38206e+65
  -2.47666e+59  -1.40281e+59    1.1932e+60   7.56083e+67 -8.01945e+133 -4.00159e+200   7.61368e+67  -8.53616e+65   2.68414e+65   7.61936e+67    2.3822e+66   2.19861e+66   4.98678e+66
  -1.45896e+59  -3.07559e+59   1.27885e+60   9.40324e+67  1.00784e+135   2.2683e+201   8.85113e+67   8.73764e+66   4.18534e+66   8.11094e+67    2.3868e+66    2.1215e+66   8.16735e+66
  -1.81139e+59  -2.66811e+59   6.32019e+59   7.87564e+67  2.64801e+133 -1.09193e+200   7.85881e+67  -1.97302e+65   1.09191e+66   7.78618e+67  -6.75776e+65   1.62203e+66   6.31449e+66
  -1.98456e+59  -1.01166e+59   5.56939e+59   8.00708e+67  2.20317e+134  1.53731e+200    7.8683e+67    1.5572e+66   1.37137e+66   7.71423e+67    7.4092e+64   1.69914e+66    2.2005e+66
   -6.8513e+58  -8.89351e+58   1.03844e+60   6.01978e+67 -5.23741e+134  9.90243e+200   6.44012e+67  -4.12987e+66  -3.01704e+66   6.73447e+67  -4.54965e+65    4.6897e+66   5.71783e+66
  -2.67969e+58  -2.56311e+59   1.14122e+60    8.3776e+67  6.13023e+134  7.96423e+200   8.00337e+67   6.55714e+66   1.99563e+66   7.52232e+67  -4.50363e+65   3.85811e+66   5.32371e+66
  -1.84951e+57  -2.35191e+59   5.33606e+59   7.26659e+67 -3.40963e+133 -1.47073e+200   7.29002e+67  -1.49212e+66   1.29683e+66   7.28612e+67   6.17461e+64   2.42523e+66   3.47085e+66
  -3.47772e+58   -8.5417e+58   4.61152e+59   6.88263e+67 -4.46694e+133 -5.30656e+199     6.915e+67  -8.33376e+65   4.80531e+65   6.91791e+67   8.11614e+65   3.25681e+66   2.93154e+66
  -1.81139e+59   2.66811e+59   6.32019e+59   7.48914e+67 -1.54692e+134 -2.37398e+199   7.59172e+67  -1.01898e+66   2.70235e+65   7.56402e+67   6.75776e+65   9.05813e+66   -3.9083e+66
  -1.98456e+59   1.01166e+59   5.56939e+59   5.93775e+67 -3.99461e+134  6.37614e+200    6.2651e+67  -2.84217e+66    -3.028e+66   6.52477e+67   -7.4092e+64   1.23234e+66  -4.85053e+66
          -250            -5           -50   1.45288e+68  6.00238e+135  7.62558e+202   1.22908e+68   3.08881e+67   3.08881e+67   8.35122e+67  -1.13752e+52   4.77947e+66  -9.37589e+66
          -250           -10           -50   1.64875e+68  7.64033e+135  1.08303e+203   1.39797e+68   3.50521e+67   3.50521e+67   9.47705e+67    1.0932e+52   1.26053e+67  -8.55777e+66
  -1.84951e+57   2.35191e+59   5.33606e+59   5.33589e+67 -5.83308e+134  1.35529e+201   5.85703e+67  -5.59677e+66  -2.80782e+66   6.17635e+67  -6.17461e+64   7.68834e+66   4.56209e+66
  -3.47772e+58    8.5417e+58   4.61152e+59   3.85302e+67 -6.51073e+134  2.25966e+201   4.62131e+67  -7.27427e+66  -5.96036e+66   5.17649e+67  -8.11614e+65   6.12425e+65   2.88234e+66
          -255            -5           -50     1.203e+68   4.1722e+135   4.4746e+202   1.01489e+68   2.55757e+67   2.55757e+67   6.91491e+67  -1.11776e+52   4.03545e+66  -1.64302e+66
          -255           -10           -50   1.39202e+68  5.48818e+135  6.64223e+202   1.17851e+68    2.9594e+67    2.9594e+67   8.00135e+67   1.20545e+52   1.11114e+67  -8.73785e+64
  -1.98456e+59   1.01166e+59   5.56939e+59   7.61984e+67   4.6974e+134  1.62458e+200   7.30511e+67   7.33929e+65   6.64072e+66   6.88238e+67   5.76934e+64   4.37645e+66  -4.85053e+66
  -2.12984e+59   5.19451e+46   5.48408e+59   7.22846e+67  3.10399e+134 -4.70679e+200   7.01047e+67  -7.09692e+65   5.80865e+66   6.71857e+67  -6.86333e+65  -4.03021e+65  -5.23663e+66
          -250             0           -50   1.43063e+68  5.82605e+135  7.29918e+202      1.21e+68    3.0415e+67    3.0415e+67    8.2233e+67  -2.22148e+51    2.4528e+54  -1.00622e+67
          -250            -5           -50   1.45288e+68  6.00238e+135  7.62558e+202   1.22908e+68   3.08881e+67   3.08881e+67   8.35122e+67   4.15359e+51   4.77947e+66  -9.37589e+66
  -3.47772e+58    8.5417e+58   4.61152e+59   5.53189e+67 -3.40559e+133 -7.46309e+200   5.56259e+67  -3.70502e+66   3.68982e+66   5.53341e+67    3.6347e+65   3.33219e+66   2.88234e+66
  -4.28324e+58   3.94831e+46   4.46266e+59   4.97473e+67  -1.8028e+134 -7.49986e+200   5.15274e+67   -5.5011e+66    2.5053e+66   5.27431e+67  -3.80557e+65  -7.03259e+65   2.80202e+66
          -255             0           -50   1.16417e+68  3.92088e+135  4.08899e+202   9.81432e+67   2.47501e+67   2.47501e+67    6.6917e+67  -1.74503e+51   1.86399e+54  -2.02358e+66
          -255            -5           -50     1.203e+68   4.1722e+135   4.4746e+202   1.01489e+68   2.55757e+67   2.55757e+67   6.91491e+67   2.47871e+51   4.03545e+66  -1.64302e+66
  -2.12984e+59   5.19451e+46   5.48408e+59   7.22846e+67  3.10399e+134 -4.70679e+200   7.01047e+67  -7.09692e+65   5.80865e+66   6.71857e+67   6.86333e+65   4.03021e+65  -5.23663e+66
  -1.98456e+59  -1.01166e+59   5.56939e+59   7.61984e+67   4.6974e+134  1.62458e+200   7.30511e+67   7.33929e+65   6.64072e+66   6.88238e+67  -5.76934e+64  -4.37645e+66  -4.85053e+66
          -250             5           -50   1.45288e+68  6.00238e+135  7.62558e+202   1.22908e+68   3.08881e+67   3.08881e+67   8.35122e+67   4.82442e+51  -4.77947e+66  -9.37589e+66
          -250             0           -50   1.43063e+68  5.82605e+135  7.29918e+202      1.21e+68    3.0415e+67    3.0415e+67    8.2233e+67  -2.83093e+51   2.45565e+54  -1.00622e+67
  -4.28324e+58   3.94831e+46   4.46266e+59   4.97473e+67  -1.8028e+134 -7.49986e+200   5.15274e+67   -5.5011e+66    2.5053e+66   5.27431e+67   3.80557e+65   7.03259e+65   2.80202e+66
  -3.47772e+58   -8.5417e+58   4.61152e+59   5.53189e+67 -3.40559e+133 -7.46309e+200   5.56259e+67  -3.70502e+66   3.68982e+66   5.53341e+67   -3.6347e+65  -3.33219e+66   2.88234e+66
          -255             5           -50     1.203e+68   4.1722e+135   4.4746e+202   1.01489e+68   2.55757e+67   2.55757e+67   6.91491e+67   4.75865e+51  -4.03545e+66  -1.64302e+66
          -255             0           -50   1.16417e+68  3.92088e+135  4.08899e+202   9.81432e+67   2.47501e+67   2.47501e+67    6.6917e+67  -1.58719e+51   1.86399e+54  -2.02358e+66
  -1.98456e+59  -1.01166e+59   5.56939e+59   5.93775e+67 -3.99461e+134  6.37614e+200    6.2651e+67  -2.84217e+66    -3.028e+66   6.52477e+67    7.4092e+64  -1.23234e+66  -4.85053e+66
  -1.81139e+59  -2.66811e+59   6.32019e+59   7.48914e+67 -1.54692e+134 -2.37398e+199   7.59172e+67  -1.01898e+66   2.70235e+65   7.56402e+67  -6.75776e+65  -9.05813e+66   -3.9083e+66
          -250            10           -50   1.64875e+68  7.64033e+135  1.08303e+203   1.39797e+68   3.50521e+67   3.50521e+67   9.47705e+67   1.70762e+52  -1.26053e+67  -8.55777e+66
          -250             5           -50   1.45288e+68  6.00238e+135  7.62558e+202   1.22908e+68   3.08881e+67   3.08881e+67   8.35122e+67   -8.9897e+51  -4.77947e+66  -9.37589e+66
  -3.47772e+58   -8.5417e+58   4.61152e+59   3.85302e+67 -6.51073e+134  2.25966e+201   4.62131e+67  -7.27427e+66  -5.96036e+66   5.17649e+67   8.11614e+65  -6.12425e+65   2.88234e+66
  -1.84951e+57  -2.35191e+59   5.33606e+59   5.33589e+67 -5.83308e+134  1.35529e+201   5.85703e+67  -5.59677e+66  -2.80782e+66   6.17635e+67   6.17461e+64  -7.68834e+66   4.56209e+66
          -255            10           -50   1.39202e+68  5.48818e+135  6.64223e+202   1.17851e+68    2.9594e+67    2.9594e+67   8.00135e+67   1.37498e+52  -1.11114e+67  -8.73785e+64
          -255             5           -50     1.203e+68   4.1722e+135   4.4746e+202   1.01489e+68   2.55757e+67   2.55757e+67   6.91491e+67  -7.64365e+51  -4.03545e+66  -1.64302e+66
  -2.89235e+58  -1.75054e+59   1.69436e+60   6.70196e+68  1.09005e+137   5.1244e+204    5.8323e+68   3.41136e+68   1.26446e+68   2.02614e+68   2.73747e+67  -2.53978e+67  -1.65754e+68
   5.26853e+59  -5.32848e+57   2.09334e+60  -8.24602e+67 -2.39054e+134  8.13881e+202   8.38972e+67  -5.38131e+67   -3.3568e+67   4.92084e+66  -2.38946e+66  -2.69131e+67   2.97563e+67
    1.2101e+60  -1.76009e+59   2.33095e+60   3.21296e+67 -4.77891e+134 -6.87708e+201   3.88613e+67   9.02289e+66  -6.17579e+66   2.92825e+67   1.73569e+67  -8.07312e+66  -1.17942e+67
   1.14393e+60  -3.13661e+59   2.33075e+60   9.43423e+67  9.27421e+134 -7.94262e+201   8.92919e+67   7.10293e+66   7.05054e+66   8.01888e+67   1.24822e+67  -6.55781e+66  -7.66809e+66
  -2.13134e+60  -1.31026e+60   6.37566e+60  -3.67061e+68 -7.27024e+136  5.50017e+204   4.55452e+68   1.20617e+68  -1.53602e+68  -3.34076e+68  -9.00931e+67   2.31266e+68  -5.99499e+67
   9.10839e+59  -5.10528e+59   2.14675e+60  -1.73791e+67 -6.15219e+136 -1.01873e+203   2.48644e+68  -3.99769e+67  -7.92601e+67   1.01858e+68  -1.19857e+68   1.95112e+68   1.05191e+67
    1.1869e+60   -6.0957e+59   3.26385e+60   2.88477e+68  2.21915e+136  4.20804e+203   2.47038e+68    6.3522e+67   5.80727e+67   1.66882e+68     2.493e+67   1.43162e+67  -3.10313e+67
   1.28103e+60  -6.44041e+59   3.66591e+60  -7.51648e+68  1.55231e+137 -9.33725e+204   6.40112e+68  -1.72753e+68  -1.63056e+68  -4.15839e+68   2.00553e+67   5.04703e+67   9.81357e+67
   5.26853e+59  -5.32848e+57   2.09334e+60  -3.95739e+67 -1.40241e+135  1.73222e+202    5.4484e+67  -4.46955e+67  -8.91684e+66   1.40384e+67   1.12722e+67   5.98479e+66   2.97563e+67
   7.93457e+59   -9.0508e+46   1.79598e+60   1.19636e+68  3.71535e+135  2.79522e+202   1.02943e+68   2.45777e+67   2.49308e+67    7.0127e+67  -1.25955e+67   1.40485e+67  -3.64319e+66
   1.30046e+60  -1.30144e+47   2.26898e+60   5.50835e+67 -1.26425e+134 -1.95281e+201   5.62193e+67   3.60027e+66  -4.92016e+66   5.64033e+67  -4.26893e+66     2.928e+66  -2.73278e+66
    1.2101e+60  -1.76009e+59   2.33095e+60   2.21232e+67 -6.47267e+134 -5.93106e+201   3.37151e+67   6.89557e+66  -1.19274e+67   2.71551e+67   1.62142e+67  -5.13567e+66  -1.17942e+67
   9.10839e+59  -5.10528e+59   2.14675e+60   5.80656e+67 -7.39217e+135  2.54938e+201   1.03749e+68  -2.39375e+67  -3.58942e+67   1.17897e+68    2.8985e+67  -1.57036e+67   1.05191e+67
   8.02524e+59   -1.0738e+47    2.3801e+60  -1.71828e+67 -2.12572e+135  8.70085e+201   4.92033e+67  -4.50971e+66  -5.18919e+67   3.92188e+67   5.11728e+66  -1.10245e+67  -1.63291e+64
    1.3863e+60  -1.53156e+47   2.83383e+60  -6.30463e+67 -1.70102e+135  5.09921e+202   7.53383e+67  -2.15139e+67  -7.10007e+67   2.94683e+67  -9.42022e+66   2.03159e+67    8.9408e+65
    1.1869e+60   -6.0957e+59   3.26385e+60   1.38451e+68 -1.75292e+135 -1.28103e+203   1.44643e+68   3.16267e+67  -2.81626e+67   1.34987e+68    1.1063e+67   1.56368e+67  -3.10313e+67
   7.93457e+59   -9.0508e+46   1.79598e+60   1.19636e+68  3.71535e+135  2.79522e+202   1.02943e+68   2.45777e+67   2.49308e+67    7.0127e+67   1.25955e+67  -1.40485e+67  -3.64319e+66
   5.26853e+59   5.32848e+57   2.09334e+60  -3.95739e+67 -1.40241e+135  1.73222e+202    5.4484e+67  -4.46955e+67  -8.91684e+66   1.40384e+67  -1.12722e+67  -5.98479e+66   2.97563e+67
    1.2101e+60   1.76009e+59   2.33095e+60   2.21232e+67 -6.47267e+134 -5.93106e+201   3.37151e+67   6.89557e+66  -1.19274e+67   2.71551e+67  -1.62142e+67   5.13567e+66  -1.17942e+67
   1.30046e+60  -1.30144e+47   2.26898e+60   5.50835e+67 -1.26425e+134 -1.95281e+201   5.62193e+67   3.60027e+66  -4.92016e+66   5.64033e+67   4.26893e+66    -2.928e+66  -2.73278e+66
   8.02524e+59   -1.0738e+47    2.3801e+60  -1.71828e+67 -2.12572e+135  8.70085e+201   4.92033e+67  -4.50971e+66  -5.18919e+67   3.92188e+67  -5.11728e+66   1.10245e+67  -1.63291e+64
   9.10839e+59   5.10528e+59   2.14675e+60   5.80656e+67 -7.39217e+135  2.54938e+201   1.03749e+68  -2.39375e+67  -3.58942e+67   1.17897e+68   -2.8985e+67   1.57036e+67   1.05191e+67
    1.1869e+60    6.0957e+59   3.26385e+60   1.38451e+68 -1.75292e+135 -1.28103e+203   1.44643e+68   3.16267e+67  -2.81626e+67   1.34987e+68   -1.1063e+67  -1.56368e+67  -3.10313e+67
    1.3863e+60  -1.53156e+47   2.83383e+60  -6.30463e+67 -1.70102e+135  5.09921e+202   7.53383e+67  -2.15139e+67  -7.10007e+67   2.94683e+67   9.42022e+66  -2.03159e+67    8.9408e+65
   5.26853e+59   5.32848e+57   2.09334e+60  -8.24602e+67 -2.39054e+134  8.13881e+202   8.38972e+67  -5.38131e+67   -3.3568e+67   4.92084e+66   2.38946e+66   2.69131e+67   2.97563e+67
  -2.89235e+58   1.75054e+59   1.69436e+60   6.70196e+68  1.09005e+137   5.1244e+204    5.8323e+68   3.41136e+68   1.26446e+68   2.02614e+68  -2.73747e+67   2.53978e+67  -1.65754e+68
   1.14393e+60   3.13661e+59   2.33075e+60   9.43423e+67  9.27421e+134 -7.94262e+201   8.92919e+67   7.10293e+66   7.05054e+66   8.01888e+67  -1.24822e+67   6.55781e+66  -7.66809e+66
    1.2101e+60   1.76009e+59   2.33095e+60   3.21296e+67 -4.77891e+134 -6.87708e+201   3.88613e+67   9.02289e+66  -6.17579e+66   2.92825e+67  -1.73569e+67   8.07312e+66  -1.17942e+67
   9.10839e+59   5.10528e+59   2.14675e+60  -1.73791e+67 -6.15219e+136 -1.01873e+203   2.48644e+68  -3.99769e+67  -7.92601e+67   1.01858e+68   1.19857e+68  -1.95112e+68   1.05191e+67
  -2.13134e+60   1.31026e+60   6.37566e+60  -3.67061e+68 -7.27024e+136  5.50017e+204   4.55452e+68   1.20617e+68  -1.53602e+68  -3.34076e+68   9.00931e+67  -2.31266e+68  -5.99499e+67
   1.28103e+60   6.44041e+59   3.66591e+60  -7.51648e+68  1.55231e+137 -9.33725e+204   6.40112e+68  -1.72753e+68  -1.63056e+68  -4.15839e+68  -2.00553e+67  -5.04703e+67   9.81357e+67
    1.1869e+60    6.0957e+59   3.26385e+60   2.88477e+68  2.21915e+136  4.20804e+203   2.47038e+68    6.3522e+67   5.80727e+67   1.66882e+68    -2.493e+67  -1.43162e+67  -3.10313e+67
   1.14393e+60  -3.13661e+59   2.33075e+60   1.23189e+67 -1.70952e+135  5.66675e+201   4.31425e+67  -1.03351e+67  -1.03875e+67   3.30415e+67   1.24822e+67    3.7103e+66  -3.10258e+67
    1.2101e+60  -1.76009e+59   2.33095e+60   5.66054e+67  1.10222e+134 -1.42394e+202   5.56233e+67   1.42264e+67  -9.72257e+65   4.33513e+67   1.73569e+67   1.62871e+66  -1.21086e+67
   1.88669e+60  -1.41335e+59   2.66239e+60   4.25914e+67  3.64623e+133  3.99388e+198   4.21612e+67   2.00794e+66   2.11569e+65   4.03719e+67  -4.48021e+64   1.18146e+66  -7.22292e+66
   1.82237e+60  -2.34927e+59   2.65273e+60   5.17901e+67  4.04336e+134  5.56675e+200   4.77271e+67   8.18986e+66   2.16719e+66    4.1433e+67   4.20636e+65   3.26305e+66  -5.63141e+66
   1.28103e+60  -6.44041e+59   3.66591e+60  -1.00986e+68  4.05356e+134   4.7975e+201   9.89583e+67  -3.44235e+67  -2.47265e+67  -4.18357e+67   2.00553e+67   3.48641e+67  -3.60926e+67
    1.1869e+60   -6.0957e+59   3.26385e+60   5.65449e+67 -1.23506e+135 -5.20644e+202   6.65762e+67   1.42136e+67   8.76429e+66   3.35671e+67     2.493e+67   3.81227e+67  -7.48902e+66
   1.96127e+60  -2.04708e+59   3.49187e+60   1.30441e+67 -5.50398e+134  2.11418e+201    2.6843e+67  -4.27378e+66  -7.00103e+66   2.43189e+67  -2.15795e+66   1.71667e+67  -2.60336e+66
   1.85223e+60  -3.08151e+59   3.45037e+60  -9.10014e+67   2.3716e+135 -1.73979e+202   7.68742e+67  -2.21674e+67  -2.91209e+67  -3.97131e+67  -1.69252e+66   1.39081e+67  -1.06981e+67
    1.2101e+60  -1.76009e+59   2.33095e+60   4.65991e+67 -2.90137e+134 -1.52509e+202   4.96147e+67   1.20991e+67  -6.72392e+66   4.12239e+67   1.62142e+67   4.56616e+66  -1.21086e+67
   1.30046e+60  -1.30144e+47   2.26898e+60   3.11027e+67 -5.04006e+134  -1.3978e+200   3.83586e+67  -1.49799e+66  -1.00184e+67   4.26191e+67  -4.26893e+66     2.928e+66    1.1818e+66
   1.89032e+60   -1.7121e+47   2.65005e+60   4.44125e+67 -1.46003e+134 -1.70386e+200   4.60269e+67    2.8762e+66  -3.91246e+66   4.54488e+67  -1.71383e+65   5.83138e+65  -9.34258e+66
   1.88669e+60  -1.41335e+59   2.66239e+60   3.01366e+67 -3.46854e+134  1.42208e+200    3.5427e+67  -6.39932e+65   -6.9475e+66    3.7724e+67    2.8226e+66    2.2213e+66  -7.22292e+66
    1.1869e+60   -6.0957e+59   3.26385e+60  -9.34809e+67 -5.23504e+134  2.74034e+202   9.62403e+67  -1.76817e+67  -7.74711e+67   1.67182e+66    1.1063e+67   3.94433e+67  -7.48902e+66
    1.3863e+60  -1.53156e+47   2.83383e+60  -2.38871e+67 -3.61824e+135  4.36497e+202   6.47212e+67  -1.31888e+67  -6.26755e+67   5.19771e+67  -9.42022e+66   2.03159e+67   4.09524e+65
   1.95981e+60  -2.03041e+47   3.43766e+60   8.59934e+67  6.81486e+134 -9.08286e+200   8.19352e+67   1.17162e+67   -1.0604e+66   7.53376e+67   6.91621e+64   2.56103e+66  -1.01149e+67
   1.96127e+60  -2.04708e+59   3.49187e+60  -1.33727e+67  -8.6703e+134  8.38468e+201   3.23398e+67  -9.88995e+66  -2.21855e+67   1.87027e+67   3.06315e+66   2.16884e+67  -2.60336e+66
   1.30046e+60  -1.30144e+47   2.26898e+60   3.11027e+67 -5.04006e+134  -1.3978e+200   3.83586e+67  -1.49799e+66  -1.00184e+67   4.26191e+67   4.26893e+66    -2.928e+66    1.1818e+66
    1.2101e+60   1.76009e+59   2.33095e+60   4.65991e+67 -2.90137e+134 -1.52509e+202   4.96147e+67   1.20991e+67  -6.72392e+66   4.12239e+67  -1.62142e+67  -4.56616e+66  -1.21086e+67
   1.88669e+60   1.41335e+59   2.66239e+60   3.01366e+67 -3.46854e+134  1.42208e+200    3.5427e+67  -6.39932e+65   -6.9475e+66    3.7724e+67   -2.8226e+66   -2.2213e+66  -7.22292e+66
   1.89032e+60   -1.7121e+47   2.65005e+60   4.44125e+67 -1.46003e+134 -1.70386e+200   4.60269e+67    2.8762e+66  -3.91246e+66   4.54488e+67   1.71383e+65  -5.83138e+65  -9.34258e+66
    1.3863e+60  -1.53156e+47   2.83383e+60  -2.38871e+67 -3.61824e+135  4.36497e+202   6.47212e+67  -1.31888e+67  -6.26755e+67   5.19771e+67   9.42022e+66  -2.03159e+67   4.09524e+65
    1.1869e+60    6.0957e+59   3.26385e+60  -9.34809e+67 -5.23504e+134  2.74034e+202   9.62403e+67  -1.76817e+67  -7.74711e+67   1.67182e+66   -1.1063e+67  -3.94433e+67  -7.48902e+66
   1.96127e+60   2.04708e+59   3.49187e+60  -1.33727e+67  -8.6703e+134  8.38468e+201   3.23398e+67  -9.88995e+66  -2.21855e+67   1.87027e+67  -3.06315e+66  -2.16884e+67  -2.60336e+66
   1.95981e+60  -2.03041e+47   3.43766e+60   8.59934e+67  6.81486e+134 -9.08286e+200   8.19352e+67   1.17162e+67   -1.0604e+66   7.53376e+67  -6.91621e+64  -2.56103e+66  -1.01149e+67
    1.2101e+60   1.76009e+59   2.33095e+60   5.66054e+67  1.10222e+134 -1.42394e+202   5.56233e+67   1.42264e+67  -9.72257e+65   4.33513e+67  -1.73569e+67  -1.62871e+66  -1.21086e+67
   1.14393e+60   3.13661e+59   2.33075e+60   1.23189e+67 -1.70952e+135  5.66675e+201   4.31425e+67  -1.03351e+67  -1.03875e+67   3.30415e+67  -1.24822e+67   -3.7103e+66  -3.10258e+67
   1.82237e+60   2.34927e+59   2.65273e+60   5.17901e+67  4.04336e+134  5.56675e+200   4.77271e+67   8.18986e+66   2.16719e+66    4.1433e+67  -4.20636e+65  -3.26305e+66  -5.63141e+66
   1.88669e+60   1.41335e+59   2.66239e+60   4.25914e+67  3.64623e+133  3.99388e+198   4.21612e+67   2.00794e+66   2.11569e+65   4.03719e+67   4.48021e+64  -1.18146e+66  -7.22292e+66
    1.1869e+60    6.0957e+59   3.26385e+60   5.65449e+67 -1.23506e+135 -5.20644e+202   6.65762e+67   1.42136e+67   8.76429e+66   3.35671e+67    -2.493e+67  -3.81227e+67  -7.48902e+66
   1.28103e+60   6.44041e+59   3.66591e+60  -1.00986e+68  4.05356e+134   4.7975e+201   9.89583e+67  -3.44235e+67  -2.47265e+67  -4.18357e+67  -2.00553e+67  -3.48641e+67  -3.60926e+67
   1.85223e+60   3.08151e+59   3.45037e+60  -9.10014e+67   2.3716e+135 -1.73979e+202   7.68742e+67  -2.21674e+67  -2.91209e+67  -3.97131e+67   1.69252e+66  -1.39081e+67  -1.06981e+67
   1.96127e+60   2.04708e+59   3.49187e+60   1.30441e+67 -5.50398e+134  2.11418e+201    2.6843e+67  -4.27378e+66  -7.00103e+66   2.43189e+67   2.15795e+66  -1.71667e+67  -2.60336e+66
   1.82237e+60  -2.34927e+59   2.65273e+60   3.61328e+67  5.57036e+133 -2.14385e+200   3.53536e+67   4.86115e+66  -1.16152e+66   3.24332e+67   4.20636e+65   3.49203e+66  -6.80217e+66
   1.88669e+60  -1.41335e+59   2.66239e+60   3.35435e+67 -1.31627e+134  1.08725e+200   3.54513e+67   8.43729e+64    -1.712e+66   3.51711e+67  -4.48021e+64   2.92194e+66  -8.10541e+66
   2.54461e+60  -6.98204e+58   2.95915e+60   3.27695e+67  -1.9693e+134  1.20187e+200   3.56478e+67  -1.50072e+66   -7.3639e+65   3.50066e+67  -9.95843e+65   1.27771e+66  -1.08211e+67
   2.47604e+60  -1.51345e+59   2.91468e+60   2.28664e+67 -3.23363e+134  6.36258e+200   2.90901e+67   -3.9046e+66  -2.84178e+66   2.96127e+67   1.03753e+66    1.8478e+66  -1.14101e+67
   1.85223e+60  -3.08151e+59   3.45037e+60   5.90064e+67  5.89184e+134  1.08103e+201   5.37826e+67   9.72404e+66   2.77049e+66   4.65118e+67  -1.69252e+66    1.1704e+66   -3.8295e+66
   1.96127e+60  -2.04708e+59   3.49187e+60    4.5969e+67   5.3781e+133 -1.45069e+200   4.53803e+67   2.72601e+66  -1.23862e+63   4.32442e+67  -2.15795e+66   2.16825e+66  -7.39515e+66
   2.63422e+60  -1.17312e+59   3.84611e+60   3.65372e+67 -2.99883e+134  5.40509e+200   4.04333e+67    -6.997e+65  -4.00212e+66    4.1239e+67  -8.46592e+65   2.41619e+66  -1.01109e+67
   2.56881e+60  -2.41876e+59   3.80986e+60   3.70822e+67  -2.7075e+134  3.34593e+200    4.0569e+67  -8.82339e+65  -3.88626e+66   4.18508e+67   1.18678e+66   1.41834e+66   -8.4374e+66
   1.88669e+60  -1.41335e+59   2.66239e+60   2.10887e+67 -4.38509e+134  9.22263e+200   2.97194e+67   -2.5635e+66  -8.87107e+66   3.25233e+67    2.8226e+66   3.96178e+66  -8.10541e+66
   1.89032e+60   -1.7121e+47   2.65005e+60   2.46502e+67 -3.39187e+134  5.92595e+200   3.07704e+67  -1.32525e+66  -8.11391e+66   3.40893e+67  -1.71383e+65   5.83138e+65  -5.27216e+66
   2.56634e+60  -2.16522e+47   2.95537e+60   3.74375e+67 -9.18192e+133 -2.25371e+200   3.86443e+67  -7.32353e+65   1.36195e+66   3.68079e+67  -1.02675e+66   1.78692e+65  -1.06259e+67
   2.54461e+60  -6.98204e+58   2.95915e+60   3.58228e+67 -1.26143e+134 -2.85932e+200   3.75422e+67  -8.51588e+65   1.01867e+66   3.56557e+67   1.21694e+66   3.55734e+66  -1.08211e+67
   1.96127e+60  -2.04708e+59   3.49187e+60   1.95522e+67 -7.45097e+134  1.95514e+201   3.35766e+67  -2.89016e+66  -1.51857e+67   3.76281e+67   3.06315e+66   6.68997e+66  -7.39515e+66
   1.95981e+60  -2.03041e+47   3.43766e+60   3.76801e+67 -5.10942e+134 -5.89235e+200   4.39401e+67   1.44489e+66  -1.13317e+67   4.75669e+67   6.91621e+64   2.56103e+66  -4.20933e+66
   2.65833e+60   -2.5814e+47    3.8563e+60   5.46103e+67   8.4773e+133 -4.70987e+199   5.38286e+67   2.91857e+66   5.25495e+65   5.11663e+67  -1.13877e+66  -4.81433e+65  -9.56306e+66
   2.63422e+60  -1.17312e+59   3.84611e+60   3.84292e+67 -2.49641e+134  2.05681e+200   4.15505e+67   -2.9746e+65  -2.91458e+66   4.16413e+67   1.10492e+66   3.64751e+66  -1.01109e+67
   1.89032e+60   -1.7121e+47   2.65005e+60   2.46502e+67 -3.39187e+134  5.92595e+200   3.07704e+67  -1.32525e+66  -8.11391e+66   3.40893e+67   1.71383e+65  -5.83138e+65  -5.27216e+66
   1.88669e+60   1.41335e+59   2.66239e+60   2.10887e+67 -4.38509e+134  9.22263e+200   2.97194e+67   -2.5635e+66  -8.87107e+66   3.25233e+67   -2.8226e+66  -3.96178e+66  -8.10541e+66
   2.54461e+60   6.98204e+58   2.95915e+60   3.58228e+67 -1.26143e+134 -2.85932e+200   3.75422e+67  -8.51588e+65   1.01867e+66   3.56557e+67  -1.21694e+66  -3.55734e+66  -1.08211e+67
   2.56634e+60  -2.16522e+47   2.95537e+60   3.74375e+67 -9.18192e+133 -2.25371e+200   3.86443e+67  -7.32353e+65   1.36195e+66   3.68079e+67   1.02675e+66  -1.78692e+65  -1.06259e+67
   1.95981e+60  -2.03041e+47   3.43766e+60   3.76801e+67 -5.10942e+134 -5.89235e+200   4.39401e+67   1.44489e+66  -1.13317e+67   4.75669e+67  -6.91621e+64  -2.56103e+66  -4.20933e+66
   1.96127e+60   2.04708e+59   3.49187e+60   1.95522e+67 -7.45097e+134  1.95514e+201   3.35766e+67  -2.89016e+66  -1.51857e+67   3.76281e+67  -3.06315e+66  -6.68997e+66  -7.39515e+66
   2.63422e+60   1.17312e+59   3.84611e+60   3.84292e+67 -2.49641e+134  2.05681e+200   4.15505e+67   -2.9746e+65  -2.91458e+66   4.16413e+67  -1.10492e+66  -3.64751e+66  -1.01109e+67
   2.65833e+60   -2.5814e+47    3.8563e+60   5.46103e+67   8.4773e+133 -4.70987e+199   5.38286e+67   2.91857e+66   5.25495e+65   5.11663e+67   1.13877e+66   4.81433e+65  -9.56306e+66
   1.88669e+60   1.41335e+59   2.66239e+60   3.35435e+67 -1.31627e+134  1.08725e+200   3.54513e+67   8.43729e+64    -1.712e+66   3.51711e+67   4.48021e+64  -2.92194e+66  -8.10541e+66
   1.82237e+60   2.34927e+59   2.65273e+60   3.61328e+67  5.57036e+133 -2.14385e+200   3.53536e+67   4.86115e+66  -1.16152e+66   3.24332e+67  -4.20636e+65  -3.49203e+66  -6.80217e+66
   2.47604e+60   1.51345e+59   2.91468e+60   2.28664e+67 -3.23363e+134  6.36258e+200   2.90901e+67   -3.9046e+66  -2.84178e+66   2.96127e+67  -1.03753e+66   -1.8478e+66  -1.14101e+67
   2.54461e+60   6.98204e+58   2.95915e+60   3.27695e+67  -1.9693e+134  1.20187e+200   3.56478e+67  -1.50072e+66   -7.3639e+65   3.50066e+67   9.95843e+65  -1.27771e+66  -1.08211e+67
   1.96127e+60   2.04708e+59   3.49187e+60    4.5969e+67   5.3781e+133 -1.45069e+200   4.53803e+67   2.72601e+66  -1.23862e+63   4.32442e+67   2.15795e+66  -2.16825e+66  -7.39515e+66
   1.85223e+60   3.08151e+59   3.45037e+60   5.90064e+67  5.89184e+134  1.08103e+201   5.37826e+67   9.72404e+66   2.77049e+66   4.65118e+67   1.69252e+66   -1.1704e+66   -3.8295e+66
   2.56881e+60   2.41876e+59   3.80986e+60   3.70822e+67  -2.7075e+134  3.34593e+200    4.0569e+67  -8.82339e+65  -3.88626e+66   4.18508e+67  -1.18678e+66  -1.41834e+66   -8.4374e+66
   2.63422e+60   1.17312e+59   3.84611e+60   3.65372e+67 -2.99883e+134  5.40509e+200   4.04333e+67    -6.997e+65  -4.00212e+66    4.1239e+67   8.46592e+65  -2.41619e+66  -1.01109e+67
   2.47604e+60  -1.51345e+59   2.91468e+60   3.88242e+67 -4.02532e+133 -9.91828e+199   3.93392e+67  -5.11983e+65   5.50846e+65   3.87854e+67   1.03753e+66   2.63234e+66  -5.78557e+66
   2.54461e+60  -6.98204e+58   2.95915e+60   2.17806e+67 -2.11194e+134  4.01306e+200   2.61838e+67  -3.83693e+66   -3.0726e+66   2.86902e+67  -9.95843e+65   1.78185e+66  -4.53663e+66
   3.33554e+60   1.23651e+58   3.21378e+60   1.50695e+67 -7.15076e+134  2.28819e+201   3.06947e+67  -9.39546e+66  -2.79839e+66   2.72634e+67  -1.87159e+66   5.01774e+66  -1.94998e+67
   3.24875e+60  -5.11576e+58    3.2378e+60   3.13199e+67 -6.50958e+134 -1.45118e+201   4.03967e+67   -6.5265e+66   6.56403e+65     3.719e+67   3.51667e+66   5.86823e+66  -1.95336e+67
   2.56881e+60  -2.41876e+59   3.80986e+60    1.0351e+68   2.0001e+135  1.06044e+202   9.33495e+67     1.324e+67   1.02361e+67   8.00335e+67   1.18678e+66  -3.19373e+65  -3.57602e+66
   2.63422e+60  -1.17312e+59   3.84611e+60   9.31756e+67  1.50977e+135  6.58132e+201   8.46871e+67   1.13415e+67    8.0391e+66   7.37949e+67  -8.46592e+65   2.18503e+66  -2.47075e+66
   3.46889e+60  -3.48089e+58   4.41746e+60   6.79396e+67 -3.61972e+134  4.43265e+200   7.05533e+67   1.84464e+66  -2.33482e+66   6.84298e+67  -1.57867e+66   4.20579e+66  -1.74339e+67
    3.3883e+60  -2.12383e+59   4.42398e+60   7.74804e+67 -9.64792e+133 -1.29838e+201   7.81005e+67   3.28715e+66  -3.06478e+65   7.44997e+67   3.80959e+66   1.70139e+66  -1.73241e+67
   2.54461e+60  -6.98204e+58   2.95915e+60   2.48339e+67 -1.66541e+134  1.14633e+200   2.79869e+67   -3.1878e+66  -1.31754e+66   2.93393e+67   1.21694e+66   4.06147e+66  -4.53663e+66
   2.56634e+60  -2.16522e+47   2.95537e+60   1.30754e+67 -2.11808e+134  5.35627e+200   1.95646e+67   -5.9117e+66   -3.8174e+66   2.28045e+67  -1.02675e+66   1.78692e+65  -3.37968e+66
   3.39574e+60  -2.71237e+47   3.16729e+60   2.73579e+67 -2.80053e+134 -2.83786e+201   3.20703e+67  -5.46763e+66    6.9846e+66   2.58409e+67  -2.84383e+66   2.19617e+66  -1.63754e+67
   3.33554e+60   1.23651e+58   3.21378e+60   3.48664e+67 -3.55257e+134 -4.33794e+201   3.96349e+67  -5.18668e+66    8.5809e+66   3.14722e+67  -6.15134e+65   6.07895e+66  -1.94998e+67
   2.63422e+60  -1.17312e+59   3.84611e+60   9.50676e+67  1.63671e+135  7.65051e+201   8.60298e+67   1.17438e+67   9.12664e+66   7.41972e+67   1.10492e+66   3.41634e+66  -2.47075e+66
   2.65833e+60   -2.5814e+47    3.8563e+60   7.24452e+67  7.00379e+134    1.677e+201   6.74384e+67   6.71024e+66   4.31716e+66   6.14178e+67  -1.13877e+66  -4.81433e+65  -2.08349e+66
   3.51516e+60  -3.29816e+47    4.3433e+60   8.68105e+67  1.30455e+135  3.39907e+201   7.89399e+67   7.17191e+66   1.51668e+67   6.44719e+67  -2.18615e+66   3.50351e+66  -1.50792e+67
   3.46889e+60  -3.48089e+58   4.41746e+60   1.05183e+68  2.02897e+135   7.8728e+201   9.50497e+67   9.76248e+66   1.90727e+67   7.63477e+67   4.25388e+64   7.40128e+66  -1.74339e+67
   2.56634e+60  -2.16522e+47   2.95537e+60   1.30754e+67 -2.11808e+134  5.35627e+200   1.95646e+67   -5.9117e+66   -3.8174e+66   2.28045e+67   1.02675e+66  -1.78692e+65  -3.37968e+66
   2.54461e+60   6.98204e+58   2.95915e+60   2.48339e+67 -1.66541e+134  1.14633e+200   2.79869e+67   -3.1878e+66  -1.31754e+66   2.93393e+67  -1.21694e+66  -4.06147e+66  -4.53663e+66
   3.33554e+60  -1.23651e+58   3.21378e+60   3.48664e+67 -3.55257e+134 -4.33794e+201   3.96349e+67  -5.18668e+66    8.5809e+66   3.14722e+67   6.15134e+65  -6.07895e+66  -1.94998e+67
   3.39574e+60  -2.71237e+47   3.16729e+60   2.73579e+67 -2.80053e+134 -2.83786e+201   3.20703e+67  -5.46763e+66    6.9846e+66   2.58409e+67   2.84383e+66  -2.19617e+66  -1.63754e+67
   2.65833e+60   -2.5814e+47    3.8563e+60   7.24452e+67  7.00379e+134    1.677e+201   6.74384e+67   6.71024e+66   4.31716e+66   6.14178e+67   1.13877e+66   4.81433e+65  -2.08349e+66
   2.63422e+60   1.17312e+59   3.84611e+60   9.50676e+67  1.63671e+135  7.65051e+201   8.60298e+67   1.17438e+67   9.12664e+66   7.41972e+67  -1.10492e+66  -3.41634e+66  -2.47075e+66
   3.46889e+60   3.48089e+58   4.41746e+60   1.05183e+68  2.02897e+135   7.8728e+201   9.50497e+67   9.76248e+66   1.90727e+67   7.63477e+67  -4.25388e+64  -7.40128e+66  -1.74339e+67
   3.51516e+60  -3.29816e+47    4.3433e+60   8.68105e+67  1.30455e+135  3.39907e+201   7.89399e+67   7.17191e+66   1.51668e+67   6.44719e+67   2.18615e+66  -3.50351e+66  -1.50792e+67
   2.54461e+60   6.98204e+58   2.95915e+60   2.17806e+67 -2.11194e+134  4.01306e+200   2.61838e+67  -3.83693e+66   -3.0726e+66   2.86902e+67   9.95843e+65  -1.78185e+66  -4.53663e+66
   2.47604e+60   1.51345e+59   2.91468e+60   3.88242e+67 -4.02532e+133 -9.91828e+199   3.93392e+67  -5.11983e+65   5.50846e+65   3.87854e+67  -1.03753e+66  -2.63234e+66  -5.78557e+66
   3.24875e+60   5.11576e+58    3.2378e+60   3.13199e+67 -6.50958e+134 -1.45118e+201   4.03967e+67   -6.5265e+66   6.56403e+65     3.719e+67  -3.51667e+66  -5.86823e+66  -1.95336e+67
   3.33554e+60  -1.23651e+58   3.21378e+60   1.50695e+67 -7.15076e+134  2.28819e+201   3.06947e+67  -9.39546e+66  -2.79839e+66   2.72634e+67   1.87159e+66  -5.01774e+66  -1.94998e+67
   2.63422e+60   1.17312e+59   3.84611e+60   9.31756e+67  1.50977e+135  6.58132e+201   8.46871e+67   1.13415e+67    8.0391e+66   7.37949e+67   8.46592e+65  -2.18503e+66  -2.47075e+66
   2.56881e+60   2.41876e+59   3.80986e+60    1.0351e+68   2.0001e+135  1.06044e+202   9.33495e+67     1.324e+67   1.02361e+67   8.00335e+67  -1.18678e+66   3.19373e+65  -3.57602e+66
    3.3883e+60   2.12383e+59   4.42398e+60   7.74804e+67 -9.64792e+133 -1.29838e+201   7.81005e+67   3.28715e+66  -3.06478e+65   7.44997e+67  -3.80959e+66  -1.70139e+66  -1.73241e+67
   3.46889e+60   3.48089e+58   4.41746e+60   6.79396e+67 -3.61972e+134  4.43265e+200   7.05533e+67   1.84464e+66  -2.33482e+66   6.84298e+67   1.57867e+66  -4.20579e+66  -1.74339e+67
   3.24875e+60  -5.11576e+58    3.2378e+60   1.43748e+67 -4.19616e+134  6.29708e+200    2.5025e+67   -1.0129e+67  -2.94608e+66   2.74499e+67   3.51667e+66   4.92193e+66  -7.34544e+66
   3.33554e+60   1.23651e+58   3.21378e+60   -2.3287e+67   2.7711e+133  1.13631e+201   2.26842e+67    -1.755e+67  -1.09529e+67   5.21593e+66  -1.87159e+66   2.45853e+66   2.50923e+66
   4.59234e+60   4.03808e+58   3.32138e+60   6.94579e+65 -1.67374e+135  9.30512e+201   4.09173e+67   -8.6921e+66  -9.27701e+65   1.03144e+67  -2.50377e+67    9.5721e+66  -2.93951e+67
   4.27945e+60   2.89998e+58   3.49597e+60   2.66845e+67 -4.37087e+135 -3.09367e+201   7.12947e+67  -7.98012e+66   4.59773e+66   3.00669e+67  -1.34752e+67   1.20355e+67  -6.24984e+67
    3.3883e+60  -2.12383e+59   4.42398e+60   2.89162e+68  2.02268e+136   4.1253e+203    2.5177e+68   4.82904e+67   4.46968e+67   1.96175e+68   3.80959e+66   1.04053e+67  -7.11136e+66
   3.46889e+60  -3.48089e+58   4.41746e+60   1.23128e+68  2.22653e+135  9.79298e+201   1.13728e+68   1.35776e+67   9.39816e+66   1.00152e+68  -1.57867e+66   1.41161e+67   6.29507e+65
   4.68589e+60   2.57462e+59   5.20037e+60   1.13017e+68 -1.99976e+135 -1.73655e+202   1.21543e+68   1.51875e+67  -1.73049e+65   9.80028e+67   -2.2631e+67   4.44782e+67  -3.12749e+67
   4.42395e+60   1.34185e+57   5.84955e+60    2.6738e+68  1.02744e+136  1.04452e+203   2.47421e+68   4.31913e+67   3.26441e+67   1.91544e+68  -1.10685e+67   4.07674e+67  -6.22643e+67
   3.33554e+60   1.23651e+58   3.21378e+60  -3.49015e+66  -1.4647e+134  9.45539e+199   1.25957e+67  -1.33412e+67    4.2636e+65   9.42471e+66  -6.15134e+65   3.51975e+66   2.50923e+66
   3.39574e+60  -2.71237e+47   3.16729e+60  -1.23573e+67 -4.32817e+133   8.4139e+199   1.39995e+67   -1.3911e+67  -1.45878e+66    3.0125e+66  -2.84383e+66   2.19617e+66   2.08875e+66
   4.61596e+60  -3.33344e+47   3.22698e+60   4.07507e+66 -2.65873e+134 -8.59943e+200   1.68071e+67  -7.11279e+66   4.68186e+66   6.50599e+66  -1.11602e+66   4.45971e+66  -1.39865e+67
   4.59234e+60   4.03808e+58   3.32138e+60   1.41977e+67 -1.05327e+135 -4.07349e+201   3.54238e+67  -5.82137e+66   6.83391e+66   1.31851e+67  -1.13718e+67   5.78329e+66  -2.93951e+67
   3.46889e+60  -3.48089e+58   4.41746e+60   1.60371e+68  6.01428e+135  6.51086e+202   1.40373e+68   2.14955e+67   3.08056e+67    1.0807e+68   4.25388e+64   1.73116e+67   6.29507e+65
   3.51516e+60  -3.29816e+47    4.3433e+60   6.40997e+67  6.59067e+134  9.62659e+200   5.87342e+67   2.34362e+66   1.03385e+67   5.14176e+67  -2.18615e+66   3.50351e+66   4.36387e+65
   4.70041e+60  -4.27294e+47   4.74325e+60   1.49468e+68  6.18218e+135  6.84909e+202   1.27116e+68   2.37976e+67   5.61038e+67   6.95668e+67  -6.85703e+65   2.15962e+67  -1.56388e+67
   4.68589e+60   2.57462e+59   5.20037e+60   2.46995e+68   1.6247e+136  3.03627e+203   2.11565e+68    4.3671e+67   7.68379e+67   1.26486e+68  -1.09415e+67   3.54043e+67  -3.12749e+67
   3.39574e+60  -2.71237e+47   3.16729e+60  -1.23573e+67 -4.32817e+133   8.4139e+199   1.39995e+67   -1.3911e+67  -1.45878e+66    3.0125e+66   2.84383e+66  -2.19617e+66   2.08875e+66
   3.33554e+60  -1.23651e+58   3.21378e+60  -3.49015e+66  -1.4647e+134  9.45539e+199   1.25957e+67  -1.33412e+67    4.2636e+65   9.42471e+66   6.15134e+65  -3.51975e+66   2.50923e+66
   4.59234e+60  -4.03808e+58   3.32138e+60   1.41977e+67 -1.05327e+135 -4.07349e+201   3.54238e+67  -5.82137e+66   6.83391e+66   1.31851e+67   1.13718e+67  -5.78329e+66  -2.93951e+67
   4.61596e+60  -3.33344e+47   3.22698e+60   4.07507e+66 -2.65873e+134 -8.59943e+200   1.68071e+67  -7.11279e+66   4.68186e+66   6.50599e+66   1.11602e+66  -4.45971e+66  -1.39865e+67
   3.51516e+60  -3.29816e+47    4.3433e+60   6.40997e+67  6.59067e+134  9.62659e+200   5.87342e+67   2.34362e+66   1.03385e+67   5.14176e+67   2.18615e+66  -3.50351e+66   4.36387e+65
   3.46889e+60   3.48089e+58   4.41746e+60   1.60371e+68  6.01428e+135  6.51086e+202   1.40373e+68   2.14955e+67   3.08056e+67    1.0807e+68  -4.25388e+64  -1.73116e+67   6.29507e+65
   4.68589e+60  -2.57462e+59   5.20037e+60   2.46995e+68   1.6247e+136  3.03627e+203   2.11565e+68    4.3671e+67   7.68379e+67   1.26486e+68   1.09415e+67  -3.54043e+67  -3.12749e+67
   4.70041e+60  -4.27294e+47   4.74325e+60   1.49468e+68  6.18218e+135  6.84909e+202   1.27116e+68   2.37976e+67   5.61038e+67   6.95668e+67   6.85703e+65  -2.15962e+67  -1.56388e+67
   3.33554e+60  -1.23651e+58   3.21378e+60   -2.3287e+67   2.7711e+133  1.13631e+201   2.26842e+67    -1.755e+67  -1.09529e+67   5.21593e+66   1.87159e+66  -2.45853e+66   2.50923e+66
   3.24875e+60   5.11576e+58    3.2378e+60   1.43748e+67 -4.19616e+134  6.29708e+200    2.5025e+67   -1.0129e+67  -2.94608e+66   2.74499e+67  -3.51667e+66  -4.92193e+66  -7.34544e+66
   4.27945e+60  -2.89998e+58   3.49597e+60   2.66845e+67 -4.37087e+135 -3.09367e+201   7.12947e+67  -7.98012e+66   4.59773e+66   3.00669e+67   1.34752e+67  -1.20355e+67  -6.24984e+67
   4.59234e+60  -4.03808e+58   3.32138e+60   6.94579e+65 -1.67374e+135  9.30512e+201   4.09173e+67   -8.6921e+66  -9.27701e+65   1.03144e+67   2.50377e+67   -9.5721e+66  -2.93951e+67
   3.46889e+60   3.48089e+58   4.41746e+60   1.23128e+68  2.22653e+135  9.79298e+201   1.13728e+68   1.35776e+67   9.39816e+66   1.00152e+68   1.57867e+66  -1.41161e+67   6.29507e+65
    3.3883e+60   2.12383e+59   4.42398e+60   2.89162e+68  2.02268e+136   4.1253e+203    2.5177e+68   4.82904e+67   4.46968e+67   1.96175e+68  -3.80959e+66  -1.04053e+67  -7.11136e+66
   4.42395e+60  -1.34185e+57   5.84955e+60    2.6738e+68  1.02744e+136  1.04452e+203   2.47421e+68   4.31913e+67   3.26441e+67   1.91544e+68   1.10685e+67  -4.07674e+67  -6.22643e+67
   4.68589e+60  -2.57462e+59   5.20037e+60   1.13017e+68 -1.99976e+135 -1.73655e+202   1.21543e+68   1.51875e+67  -1.73049e+65   9.80028e+67    2.2631e+67  -4.44782e+67  -3.12749e+67
   4.27945e+60   2.89998e+58   3.49597e+60  -1.20829e+68  4.45726e+135 -4.62315e+202    1.0071e+68  -3.93413e+67  -2.67635e+67  -5.47245e+67  -1.34752e+67   5.36657e+66  -1.67973e+66
   4.59234e+60   4.03808e+58   3.32138e+60   4.67384e+67 -2.55824e+134 -2.27273e+202   4.93995e+67   1.09675e+66   8.86115e+66   3.67805e+67  -2.50377e+67  -2.20777e+66  -1.97622e+65
   6.46715e+60  -1.80944e+59   3.60548e+60  -1.37365e+68  1.13885e+135  1.03215e+203   1.33155e+68  -1.19875e+68  -1.51303e+67  -2.35959e+66   8.47694e+66   -3.0148e+67   3.56406e+66
   6.59748e+60  -3.20016e+58   3.18867e+60  -5.18502e+68    2.823e+136  1.70376e+204   4.90524e+68  -2.83073e+68  -9.61593e+67  -1.39269e+68   3.58882e+67  -2.25736e+67  -2.23625e+68
   4.42395e+60   1.34185e+57   5.84955e+60   1.04085e+69  2.92178e+137  2.47574e+205   8.89486e+68   2.07629e+68   1.97082e+68   6.36136e+68  -1.10685e+67  -6.35765e+65    7.7914e+67
   4.68589e+60   2.57462e+59   5.20037e+60  -3.78776e+67 -2.23743e+135  4.07507e+202   6.05982e+67  -1.68925e+67   -3.2253e+67    1.1268e+67   -2.2631e+67   7.63868e+66   4.07183e+67
   7.42675e+60  -2.30037e+59   5.40484e+60  -3.09494e+68 -1.77304e+136   7.0574e+204   3.36923e+68   -1.5647e+68  -1.06547e+68  -4.64773e+67   4.95615e+67   2.05405e+68     4.448e+67
   8.42671e+60  -6.61299e+59   1.02401e+61   5.55662e+68 -5.76777e+136 -9.26454e+204   6.05341e+68  -5.47078e+67   7.73837e+67   5.32986e+68   7.69728e+67   1.97131e+68  -1.44031e+68
   4.59234e+60   4.03808e+58   3.32138e+60   6.02415e+67  7.17064e+134 -2.68288e+201   5.39627e+67   3.96749e+66   1.66228e+67   3.96513e+67  -1.13718e+67  -5.99658e+66  -1.97622e+65
   4.61596e+60  -3.33344e+47   3.22698e+60   9.87899e+66 -8.31074e+133 -4.52904e+200   1.34425e+67  -5.87888e+66   5.91577e+66    9.8421e+66  -1.11602e+66   4.45971e+66   5.24955e+66
   6.24334e+60  -4.09488e+47   3.30891e+60   -2.5316e+68  1.83135e+136 -3.79282e+203   2.13954e+68  -1.36162e+68  -7.09184e+67  -4.60795e+67   1.05733e+67   1.40108e+67  -2.40197e+67
   6.46715e+60  -1.80944e+59   3.60548e+60  -2.23422e+68   1.2922e+136 -1.78029e+203   1.92342e+68  -1.38171e+68  -6.45963e+67  -2.06552e+67   1.28926e+67    3.5545e+66   3.56406e+66
   4.68589e+60   2.57462e+59   5.20037e+60   9.61004e+67  9.78986e+134  -5.7089e+202   9.08642e+67    1.1591e+67   4.47579e+67   3.97515e+67  -1.09415e+67  -1.43526e+66   4.07183e+67
   4.70041e+60  -4.27294e+47   4.74325e+60   2.28126e+68  1.36936e+136  1.87386e+203   1.95826e+68   4.05201e+67   7.28263e+67    1.1478e+68  -6.85703e+65   2.15962e+67   4.24302e+67
   7.11478e+60  -5.11833e+47   5.44472e+60  -1.04349e+68 -2.34903e+135  2.00102e+203   1.15056e+68  -1.04525e+68  -4.39203e+67   4.40958e+67   1.47389e+67  -1.88364e+66    1.3161e+67
   7.42675e+60  -2.30037e+59   5.40484e+60     -2.57e+68  1.60368e+136  -1.7817e+203   2.23634e+68  -1.45309e+68  -7.63736e+67  -3.53172e+67   1.70582e+67  -2.49151e+67     4.448e+67
   4.61596e+60  -3.33344e+47   3.22698e+60   9.87899e+66 -8.31074e+133 -4.52904e+200   1.34425e+67  -5.87888e+66   5.91577e+66    9.8421e+66   1.11602e+66  -4.45971e+66   5.24955e+66
   4.59234e+60  -4.03808e+58   3.32138e+60   6.02415e+67  7.17064e+134 -2.68288e+201   5.39627e+67   3.96749e+66   1.66228e+67   3.96513e+67   1.13718e+67   5.99658e+66  -1.97622e+65
   6.46715e+60   1.80944e+59   3.60548e+60  -2.23422e+68   1.2922e+136 -1.78029e+203   1.92342e+68  -1.38171e+68  -6.45963e+67  -2.06552e+67  -1.28926e+67   -3.5545e+66   3.56406e+66
   6.24334e+60  -4.09488e+47   3.30891e+60   -2.5316e+68  1.83135e+136 -3.79282e+203   2.13954e+68  -1.36162e+68  -7.09184e+67  -4.60795e+67  -1.05733e+67  -1.40108e+67  -2.40197e+67
   4.70041e+60  -4.27294e+47   4.74325e+60   2.28126e+68  1.36936e+136  1.87386e+203   1.95826e+68   4.05201e+67   7.28263e+67    1.1478e+68   6.85703e+65  -2.15962e+67   4.24302e+67
   4.68589e+60  -2.57462e+59   5.20037e+60   9.61004e+67  9.78986e+134  -5.7089e+202   9.08642e+67    1.1591e+67   4.47579e+67   3.97515e+67   1.09415e+67   1.43526e+66   4.07183e+67
   7.42675e+60   2.30037e+59   5.40484e+60     -2.57e+68  1.60368e+136  -1.7817e+203   2.23634e+68  -1.45309e+68  -7.63736e+67  -3.53172e+67  -1.70582e+67   2.49151e+67     4.448e+67
   7.11478e+60  -5.11833e+47   5.44472e+60  -1.04349e+68 -2.34903e+135  2.00102e+203   1.15056e+68  -1.04525e+68  -4.39203e+67   4.40958e+67  -1.47389e+67   1.88364e+66    1.3161e+67
   4.59234e+60  -4.03808e+58   3.32138e+60   4.67384e+67 -2.55824e+134 -2.27273e+202   4.93995e+67   1.09675e+66   8.86115e+66   3.67805e+67   2.50377e+67   2.20777e+66  -1.97622e+65
   4.27945e+60  -2.89998e+58   3.49597e+60  -1.20829e+68  4.45726e+135 -4.62315e+202    1.0071e+68  -3.93413e+67  -2.67635e+67  -5.47245e+67   1.34752e+67  -5.36657e+66  -1.67973e+66
   6.59748e+60   3.20016e+58   3.18867e+60  -5.18502e+68    2.823e+136  1.70376e+204   4.90524e+68  -2.83073e+68  -9.61593e+67  -1.39269e+68  -3.58882e+67   2.25736e+67  -2.23625e+68
   6.46715e+60   1.80944e+59   3.60548e+60  -1.37365e+68  1.13885e+135  1.03215e+203   1.33155e+68  -1.19875e+68  -1.51303e+67  -2.35959e+66  -8.47694e+66    3.0148e+67   3.56406e+66
   4.68589e+60  -2.57462e+59   5.20037e+60  -3.78776e+67 -2.23743e+135  4.07507e+202   6.05982e+67  -1.68925e+67   -3.2253e+67    1.1268e+67    2.2631e+67  -7.63868e+66   4.07183e+67
   4.42395e+60  -1.34185e+57   5.84955e+60   1.04085e+69  2.92178e+137  2.47574e+205   8.89486e+68   2.07629e+68   1.97082e+68   6.36136e+68   1.10685e+67   6.35765e+65    7.7914e+67
   8.42671e+60   6.61299e+59   1.02401e+61   5.55662e+68 -5.76777e+136 -9.26454e+204   6.05341e+68  -5.47078e+67   7.73837e+67   5.32986e+68  -7.69728e+67  -1.97131e+68  -1.44031e+68
   7.42675e+60   2.30037e+59   5.40484e+60  -3.09494e+68 -1.77304e+136   7.0574e+204   3.36923e+68   -1.5647e+68  -1.06547e+68  -4.64773e+67  -4.95615e+67  -2.05405e+68     4.448e+67
   4.54995e+59  -1.71395e+59   1.37598e+60   1.36631e+68  5.19422e+135  5.23121e+202   1.16077e+68   7.47722e+67   1.73324e+67   4.45268e+67   -4.7291e+66   3.75675e+66      1.29e+67
   5.58754e+59  -4.74084e+58   1.32039e+60   4.60162e+67  2.47457e+134 -2.27197e+201   4.32439e+67   1.27972e+67  -1.93228e+66   3.51512e+67  -6.89003e+66   1.86183e+66  -7.66759e+66
    1.1694e+60  -6.35862e+58   1.58887e+60   3.75405e+67  9.16952e+133 -6.11535e+199   3.62987e+67   4.13553e+66   5.56385e+64   3.33493e+67  -4.98646e+65   -3.0827e+66  -6.20933e+66
   1.04643e+60  -1.47464e+59    1.5398e+60  -4.58043e+66  -2.8063e+134  2.10531e+201   1.73669e+67  -1.01867e+67   -8.8992e+66   1.45054e+67   2.04189e+66  -1.18778e+66  -9.42625e+66
  -2.89235e+58  -1.75054e+59   1.69436e+60   2.47979e+68  1.59055e+136  2.60957e+203   2.13514e+68   9.84446e+67   3.66829e+67   1.12852e+68  -2.60843e+67  -2.53978e+67   4.03688e+67
   5.26853e+59  -5.32848e+57   2.09334e+60    2.6032e+67 -1.68454e+135 -3.72858e+202   4.86025e+67    8.5486e+66  -1.05027e+67   2.79861e+67  -2.82452e+67  -2.69131e+67  -4.23771e+66
    1.2101e+60  -1.76009e+59   2.33095e+60   1.54602e+67 -3.36795e+134  2.26449e+200   2.39961e+67  -5.58711e+65  -9.71967e+66   2.57386e+67   2.18502e+66  -8.07312e+66  -2.77945e+66
   1.14393e+60  -3.13661e+59   2.33075e+60   1.04671e+68  1.56578e+135  3.40477e+201   9.69036e+67   1.30401e+67   9.24648e+66   8.23848e+67   4.72556e+66  -6.55781e+66   1.80425e+67
   5.58754e+59  -4.74084e+58   1.32039e+60    6.5993e+67  1.10779e+135  4.02104e+201    5.6985e+67   1.70443e+67   9.55048e+66   3.93983e+67  -6.17074e+66  -2.42972e+66  -7.66759e+66
   6.47288e+59  -7.19484e+46   1.35564e+60   1.52087e+67 -3.58645e+134  3.12362e+199   2.42889e+67  -1.05779e+67  -1.24619e+66   2.70328e+67  -4.18271e+66  -1.66542e+66   5.64973e+66
   1.20721e+60   -1.0428e+47   1.60752e+60   2.47933e+67 -1.48707e+134 -1.22742e+199     2.763e+67  -3.54005e+66   -7.3713e+65   2.90705e+67  -1.78616e+66   -8.8101e+65  -4.79688e+66
    1.1694e+60  -6.35862e+58   1.58887e+60   4.28338e+67  2.50788e+134  7.18398e+199   3.97988e+67   5.26088e+66   3.09825e+66   3.44747e+67   3.52518e+66  -1.64532e+66  -6.20933e+66
   5.26853e+59  -5.32848e+57   2.09334e+60   6.89183e+67  1.16393e+135  1.23575e+201   5.98815e+67   1.76662e+67   1.41484e+67   3.71037e+67  -1.45835e+67   5.98479e+66  -4.23771e+66
   7.93457e+59   -9.0508e+46   1.79598e+60   8.38695e+67  1.03836e+135 -7.64456e+201   7.74322e+67   4.01926e+66   1.73271e+67   6.25232e+67  -1.25955e+67   1.40485e+67   3.14963e+66
   1.30046e+60  -1.30144e+47   2.26898e+60    5.3149e+67 -2.52501e+134 -1.31823e+201   5.54735e+67   2.48832e+66  -5.33143e+66   5.59921e+67  -4.26893e+66     2.928e+66  -7.29698e+66
    1.2101e+60  -1.76009e+59   2.33095e+60   5.45388e+66 -4.22349e+134  1.17567e+201   2.12625e+67  -2.68604e+66  -1.54713e+67   2.36112e+67   1.04241e+66  -5.13567e+66  -2.77945e+66
   6.47288e+59  -7.19484e+46   1.35564e+60   1.52087e+67 -3.58645e+134  3.12362e+199   2.42889e+67  -1.05779e+67  -1.24619e+66   2.70328e+67   4.18271e+66   1.66542e+66   5.64973e+66
   5.58754e+59   4.74084e+58   1.32039e+60    6.5993e+67  1.10779e+135  4.02104e+201    5.6985e+67   1.70443e+67   9.55048e+66   3.93983e+67   6.17074e+66   2.42972e+66  -7.66759e+66
    1.1694e+60   6.35862e+58   1.58887e+60   4.28338e+67  2.50788e+134  7.18398e+199   3.97988e+67   5.26088e+66   3.09825e+66   3.44747e+67  -3.52518e+66   1.64532e+66  -6.20933e+66
   1.20721e+60   -1.0428e+47   1.60752e+60   2.47933e+67 -1.48707e+134 -1.22742e+199     2.763e+67  -3.54005e+66   -7.3713e+65   2.90705e+67   1.78616e+66    8.8101e+65  -4.79688e+66
   7.93457e+59   -9.0508e+46   1.79598e+60   8.38695e+67  1.03836e+135 -7.64456e+201   7.74322e+67   4.01926e+66   1.73271e+67   6.25232e+67   1.25955e+67  -1.40485e+67   3.14963e+66
   5.26853e+59   5.32848e+57   2.09334e+60   6.89183e+67  1.16393e+135  1.23575e+201   5.98815e+67   1.76662e+67   1.41484e+67   3.71037e+67   1.45835e+67  -5.98479e+66  -4.23771e+66
    1.2101e+60   1.76009e+59   2.33095e+60   5.45388e+66 -4.22349e+134  1.17567e+201   2.12625e+67  -2.68604e+66  -1.54713e+67   2.36112e+67  -1.04241e+66   5.13567e+66  -2.77945e+66
   1.30046e+60  -1.30144e+47   2.26898e+60    5.3149e+67 -2.52501e+134 -1.31823e+201   5.54735e+67   2.48832e+66  -5.33143e+66   5.59921e+67   4.26893e+66    -2.928e+66  -7.29698e+66
   5.58754e+59   4.74084e+58   1.32039e+60   4.60162e+67  2.47457e+134 -2.27197e+201   4.32439e+67   1.27972e+67  -1.93228e+66   3.51512e+67   6.89003e+66  -1.86183e+66  -7.66759e+66
   4.54995e+59   1.71395e+59   1.37598e+60   1.36631e+68  5.19422e+135  5.23121e+202   1.16077e+68   7.47722e+67   1.73324e+67   4.45268e+67    4.7291e+66  -3.75675e+66      1.29e+67
   1.04643e+60   1.47464e+59    1.5398e+60  -4.58043e+66  -2.8063e+134  2.10531e+201   1.73669e+67  -1.01867e+67   -8.8992e+66   1.45054e+67  -2.04189e+66   1.18778e+66  -9.42625e+66
    1.1694e+60   6.35862e+58   1.58887e+60   3.75405e+67  9.16952e+133 -6.11535e+199   3.62987e+67   4.13553e+66   5.56385e+64   3.33493e+67   4.98646e+65    3.0827e+66  -6.20933e+66
   5.26853e+59   5.32848e+57   2.09334e+60    2.6032e+67 -1.68454e+135 -3.72858e+202   4.86025e+67    8.5486e+66  -1.05027e+67   2.79861e+67   2.82452e+67   2.69131e+67  -4.23771e+66
  -2.89235e+58   1.75054e+59   1.69436e+60   2.47979e+68  1.59055e+136  2.60957e+203   2.13514e+68   9.84446e+67   3.66829e+67   1.12852e+68   2.60843e+67   2.53978e+67   4.03688e+67
   1.14393e+60   3.13661e+59   2.33075e+60   1.04671e+68  1.56578e+135  3.40477e+201   9.69036e+67   1.30401e+67   9.24648e+66   8.23848e+67  -4.72556e+66   6.55781e+66   1.80425e+67
    1.2101e+60   1.76009e+59   2.33095e+60   1.54602e+67 -3.36795e+134  2.26449e+200   2.39961e+67  -5.58711e+65  -9.71967e+66   2.57386e+67  -2.18502e+66   8.07312e+66  -2.77945e+66
   1.04643e+60  -1.47464e+59    1.5398e+60   1.98268e+67 -2.49835e+134  4.95541e+200   2.53562e+67   -4.9977e+66  -3.71026e+66   2.85348e+67   2.04189e+66  -1.60213e+66   -3.6279e+66
    1.1694e+60  -6.35862e+58   1.58887e+60   3.07325e+67  7.12521e+132  -1.1462e+200   3.06164e+67   2.68816e+66  -1.39172e+66   2.94361e+67  -4.98646e+65  -2.41192e+66  -4.60757e+66
   1.81396e+60  -6.55659e+58   1.83126e+60   2.68457e+67 -1.31495e+134  6.95794e+199   2.91922e+67  -1.16558e+66  -5.98479e+65   2.86098e+67   1.05828e+66  -1.70329e+66  -8.81489e+66
   1.76059e+60  -1.32303e+59   1.79718e+60   3.36156e+67  1.79037e+133 -1.46551e+200   3.33482e+67   1.30851e+66   8.40786e+65   3.14663e+67   2.32701e+66  -8.93503e+65  -6.67934e+66
   1.14393e+60  -3.13661e+59   2.33075e+60   2.26479e+67 -4.71946e+134  5.88168e+200   3.13827e+67  -4.39795e+66  -8.19157e+66   3.52374e+67   4.72556e+66    3.7103e+66  -5.31528e+66
    1.2101e+60  -1.76009e+59   2.33095e+60   3.99361e+67 -3.28531e+133 -1.01619e+201   4.03453e+67   4.64482e+66  -4.51614e+66   3.98074e+67   2.18502e+66   1.62871e+66  -3.09387e+66
   1.88669e+60  -1.41335e+59   2.66239e+60   4.30718e+67  5.08622e+133 -1.20818e+199   4.24772e+67   2.28406e+66   3.13693e+65    4.0474e+67   5.40861e+65   1.18146e+66  -7.30118e+66
   1.82237e+60  -2.34927e+59   2.65273e+60   4.34592e+67  6.80317e+133 -2.39197e+200   4.26693e+67   3.40126e+66    3.9606e+65   3.96619e+67   1.80959e+66   3.26305e+66  -8.36672e+66
    1.1694e+60  -6.35862e+58   1.58887e+60   3.60258e+67  1.38689e+134  -1.9439e+200   3.40466e+67   3.81351e+66   1.65089e+66   3.05614e+67   3.52518e+66  -9.74537e+65  -4.60757e+66
   1.20721e+60   -1.0428e+47   1.60752e+60   2.07783e+67 -1.59813e+134  1.04183e+200   2.43218e+67  -4.39364e+66  -1.59072e+66   2.67626e+67  -1.78616e+66   -8.8101e+65   -1.6366e+66
   1.83402e+60  -1.39611e+47   1.84401e+60   2.99017e+67 -3.83625e+133 -4.26352e+199   3.05365e+67   1.03762e+66   1.61864e+65   2.87023e+67  -9.48127e+65  -6.02411e+65  -8.46737e+66
   1.81396e+60  -6.55659e+58   1.83126e+60   2.71511e+67 -1.28334e+134 -1.19541e+200   2.94197e+67  -1.10065e+66  -4.22914e+65   2.86747e+67   2.63152e+66  -6.95937e+65  -8.81489e+66
    1.2101e+60  -1.76009e+59   2.33095e+60   2.99297e+67 -3.49389e+134 -9.98598e+200   3.52871e+67   2.51749e+66  -1.02678e+67   3.76801e+67   1.04241e+66   4.56616e+66  -3.09387e+66
   1.30046e+60  -1.30144e+47   2.26898e+60   2.91682e+67 -5.61392e+134  6.06007e+200    3.7579e+67  -2.60995e+66  -1.04297e+67   4.22079e+67  -4.26893e+66     2.928e+66  -3.38241e+66
   1.89032e+60   -1.7121e+47   2.65005e+60   4.78536e+67 -4.28468e+133  -3.8222e+200   4.82992e+67   4.85416e+66  -3.18089e+66   4.61804e+67  -1.71383e+65   5.83138e+65  -1.02132e+67
   1.88669e+60  -1.41335e+59   2.66239e+60    3.0617e+67 -3.40063e+134 -8.90406e+199   3.57416e+67   -3.6382e+65  -6.84538e+66   3.78262e+67   3.40826e+66    2.2213e+66  -7.30118e+66
   1.20721e+60   -1.0428e+47   1.60752e+60   2.07783e+67 -1.59813e+134  1.04183e+200   2.43218e+67  -4.39364e+66  -1.59072e+66   2.67626e+67   1.78616e+66    8.8101e+65   -1.6366e+66
    1.1694e+60   6.35862e+58   1.58887e+60   3.60258e+67  1.38689e+134  -1.9439e+200   3.40466e+67   3.81351e+66   1.65089e+66   3.05614e+67  -3.52518e+66   9.74537e+65  -4.60757e+66
   1.81396e+60   6.55659e+58   1.83126e+60   2.71511e+67 -1.28334e+134 -1.19541e+200   2.94197e+67  -1.10065e+66  -4.22914e+65   2.86747e+67  -2.63152e+66   6.95937e+65  -8.81489e+66
   1.83402e+60  -1.39611e+47   1.84401e+60   2.99017e+67 -3.83625e+133 -4.26352e+199   3.05365e+67   1.03762e+66   1.61864e+65   2.87023e+67   9.48127e+65   6.02411e+65  -8.46737e+66
   1.30046e+60  -1.30144e+47   2.26898e+60   2.91682e+67 -5.61392e+134  6.06007e+200    3.7579e+67  -2.60995e+66  -1.04297e+67   4.22079e+67   4.26893e+66    -2.928e+66  -3.38241e+66
    1.2101e+60   1.76009e+59   2.33095e+60   2.99297e+67 -3.49389e+134 -9.98598e+200   3.52871e+67   2.51749e+66  -1.02678e+67   3.76801e+67  -1.04241e+66  -4.56616e+66  -3.09387e+66
   1.88669e+60   1.41335e+59   2.66239e+60    3.0617e+67 -3.40063e+134 -8.90406e+199   3.57416e+67   -3.6382e+65  -6.84538e+66   3.78262e+67  -3.40826e+66   -2.2213e+66  -7.30118e+66
   1.89032e+60   -1.7121e+47   2.65005e+60   4.78536e+67 -4.28468e+133  -3.8222e+200   4.82992e+67   4.85416e+66  -3.18089e+66   4.61804e+67   1.71383e+65  -5.83138e+65  -1.02132e+67
    1.1694e+60   6.35862e+58   1.58887e+60   3.07325e+67  7.12521e+132  -1.1462e+200   3.06164e+67   2.68816e+66  -1.39172e+66   2.94361e+67   4.98646e+65   2.41192e+66  -4.60757e+66
   1.04643e+60   1.47464e+59    1.5398e+60   1.98268e+67 -2.49835e+134  4.95541e+200   2.53562e+67   -4.9977e+66  -3.71026e+66   2.85348e+67  -2.04189e+66   1.60213e+66   -3.6279e+66
   1.76059e+60   1.32303e+59   1.79718e+60   3.36156e+67  1.79037e+133 -1.46551e+200   3.33482e+67   1.30851e+66   8.40786e+65   3.14663e+67  -2.32701e+66   8.93503e+65  -6.67934e+66
   1.81396e+60   6.55659e+58   1.83126e+60   2.68457e+67 -1.31495e+134  6.95794e+199   2.91922e+67  -1.16558e+66  -5.98479e+65   2.86098e+67  -1.05828e+66   1.70329e+66  -8.81489e+66
    1.2101e+60   1.76009e+59   2.33095e+60   3.99361e+67 -3.28531e+133 -1.01619e+201   4.03453e+67   4.64482e+66  -4.51614e+66   3.98074e+67  -2.18502e+66  -1.62871e+66  -3.09387e+66
   1.14393e+60   3.13661e+59   2.33075e+60   2.26479e+67 -4.71946e+134  5.88168e+200   3.13827e+67  -4.39795e+66  -8.19157e+66   3.52374e+67  -4.72556e+66   -3.7103e+66  -5.31528e+66
   1.82237e+60   2.34927e+59   2.65273e+60   4.34592e+67  6.80317e+133 -2.39197e+200   4.26693e+67   3.40126e+66    3.9606e+65   3.96619e+67  -1.80959e+66  -3.26305e+66  -8.36672e+66
   1.88669e+60   1.41335e+59   2.66239e+60   4.30718e+67  5.08622e+133 -1.20818e+199   4.24772e+67   2.28406e+66   3.13693e+65    4.0474e+67  -5.40861e+65  -1.18146e+66  -7.30118e+66
   1.76059e+60  -1.32303e+59   1.79718e+60   1.22058e+67 -1.86287e+134  3.10429e+200   1.83104e+67  -3.24316e+66  -3.71089e+66   1.91599e+67   2.32701e+66   1.04775e+66  -7.65314e+66
   1.81396e+60  -6.55659e+58   1.83126e+60   1.05768e+67 -1.93922e+134  5.21284e+200   1.74869e+67  -4.62432e+66  -4.05721e+66   1.92584e+67   1.05828e+66  -1.06308e+65  -6.66037e+66
   2.50411e+60  -3.37427e+58   2.01128e+60   2.53605e+67 -8.03089e+133 -1.72838e+200   2.68973e+67   1.56528e+66   1.39388e+66   2.24014e+67  -6.56621e+65  -3.28709e+65  -1.21754e+67
   2.45414e+60  -7.60519e+58    1.9725e+60    2.8983e+67  1.09531e+133 -1.55813e+200   2.87935e+67   4.09232e+66   2.16402e+66   2.27267e+67   1.19608e+66   8.25344e+65  -1.17464e+67
   1.82237e+60  -2.34927e+59   2.65273e+60   2.78019e+67 -1.94342e+134  3.84123e+199   3.11013e+67   7.25427e+64  -2.93265e+66    3.0662e+67   1.80959e+66   3.49203e+66  -9.53748e+66
   1.88669e+60  -1.41335e+59   2.66239e+60   3.40239e+67 -1.20453e+134  4.80845e+199   3.57502e+67   3.60486e+65  -1.60988e+66   3.52733e+67   5.40861e+65   2.92194e+66  -8.18367e+66
   2.54461e+60  -6.98204e+58   2.95915e+60    4.5583e+67  1.16286e+134  2.20784e+199   4.42891e+67   5.86455e+66   1.98775e+66   3.77307e+67  -1.53507e+66   1.27771e+66  -1.36987e+67
   2.47604e+60  -1.51345e+59   2.91468e+60   4.13546e+67  8.00248e+133  8.86421e+197   4.03755e+67    6.7225e+66    1.0888e+66   3.35433e+67   3.17632e+65    1.8478e+66  -1.36307e+67
   1.81396e+60  -6.55659e+58   1.83126e+60   1.08823e+67 -1.97508e+134  3.52478e+200   1.77745e+67  -4.55938e+66  -3.88165e+66   1.93233e+67   2.63152e+66   9.01049e+65  -6.66037e+66
   1.83402e+60  -1.39611e+47   1.84401e+60   1.31848e+67 -1.35421e+134  2.41846e+200   1.75858e+67  -2.51638e+66  -3.39213e+66   1.90933e+67  -9.48127e+65  -6.02411e+65  -5.46642e+66
   2.52436e+60  -1.77341e+47   2.01641e+60   2.52211e+67 -5.86273e+133 -2.59563e+200   2.63578e+67    1.3952e+66   2.17368e+66   2.16522e+67  -9.56529e+65  -2.42661e+65  -1.17457e+67
   2.50411e+60  -3.37427e+58   2.01128e+60   2.75953e+67 -3.69749e+133 -3.11035e+200   2.82573e+67   2.04039e+66   2.67843e+66   2.28765e+67   7.47931e+65    1.2608e+66  -1.21754e+67
   1.88669e+60  -1.41335e+59   2.66239e+60   2.15691e+67 -4.34944e+134   6.7759e+200   3.00028e+67  -2.28739e+66  -8.76895e+66   3.26254e+67   3.40826e+66   3.96178e+66  -8.18367e+66
   1.89032e+60   -1.7121e+47   2.65005e+60   2.80913e+67 -2.77253e+134  1.10758e+200   3.26554e+67   6.52713e+65  -7.38233e+66   3.48209e+67  -1.71383e+65   5.83138e+65  -6.14276e+66
   2.56634e+60  -2.16522e+47   2.95537e+60   5.04819e+67  3.04049e+134  4.31889e+200   4.73748e+67    6.7656e+66   4.13516e+66   3.95811e+67  -1.02675e+66   1.78692e+65   -1.2422e+67
   2.54461e+60  -6.98204e+58   2.95915e+60   4.86363e+67  2.17253e+134  6.72168e+199   4.63491e+67   6.51368e+66   3.74281e+66   3.83799e+67   6.77712e+65   3.55734e+66  -1.36987e+67
   1.83402e+60  -1.39611e+47   1.84401e+60   1.31848e+67 -1.35421e+134  2.41846e+200   1.75858e+67  -2.51638e+66  -3.39213e+66   1.90933e+67   9.48127e+65   6.02411e+65  -5.46642e+66
   1.81396e+60   6.55659e+58   1.83126e+60   1.08823e+67 -1.97508e+134  3.52478e+200   1.77745e+67  -4.55938e+66  -3.88165e+66   1.93233e+67  -2.63152e+66  -9.01049e+65  -6.66037e+66
   2.50411e+60   3.37427e+58   2.01128e+60   2.75953e+67 -3.69749e+133 -3.11035e+200   2.82573e+67   2.04039e+66   2.67843e+66   2.28765e+67  -7.47931e+65   -1.2608e+66  -1.21754e+67
   2.52436e+60  -1.77341e+47   2.01641e+60   2.52211e+67 -5.86273e+133 -2.59563e+200   2.63578e+67    1.3952e+66   2.17368e+66   2.16522e+67   9.56529e+65   2.42661e+65  -1.17457e+67
   1.89032e+60   -1.7121e+47   2.65005e+60   2.80913e+67 -2.77253e+134  1.10758e+200   3.26554e+67   6.52713e+65  -7.38233e+66   3.48209e+67   1.71383e+65  -5.83138e+65  -6.14276e+66
   1.88669e+60   1.41335e+59   2.66239e+60   2.15691e+67 -4.34944e+134   6.7759e+200   3.00028e+67  -2.28739e+66  -8.76895e+66   3.26254e+67  -3.40826e+66  -3.96178e+66  -8.18367e+66
   2.54461e+60   6.98204e+58   2.95915e+60   4.86363e+67  2.17253e+134  6.72168e+199   4.63491e+67   6.51368e+66   3.74281e+66   3.83799e+67  -6.77712e+65  -3.55734e+66  -1.36987e+67
   2.56634e+60  -2.16522e+47   2.95537e+60   5.04819e+67  3.04049e+134  4.31889e+200   4.73748e+67    6.7656e+66   4.13516e+66   3.95811e+67   1.02675e+66  -1.78692e+65   -1.2422e+67
   1.81396e+60   6.55659e+58   1.83126e+60   1.05768e+67 -1.93922e+134  5.21284e+200   1.74869e+67  -4.62432e+66  -4.05721e+66   1.92584e+67  -1.05828e+66   1.06308e+65  -6.66037e+66
   1.76059e+60   1.32303e+59   1.79718e+60   1.22058e+67 -1.86287e+134  3.10429e+200   1.83104e+67  -3.24316e+66  -3.71089e+66   1.91599e+67  -2.32701e+66  -1.04775e+66  -7.65314e+66
   2.45414e+60   7.60519e+58    1.9725e+60    2.8983e+67  1.09531e+133 -1.55813e+200   2.87935e+67   4.09232e+66   2.16402e+66   2.27267e+67  -1.19608e+66  -8.25344e+65  -1.17464e+67
   2.50411e+60   3.37427e+58   2.01128e+60   2.53605e+67 -8.03089e+133 -1.72838e+200   2.68973e+67   1.56528e+66   1.39388e+66   2.24014e+67   6.56621e+65   3.28709e+65  -1.21754e+67
   1.88669e+60   1.41335e+59   2.66239e+60   3.40239e+67 -1.20453e+134  4.80845e+199   3.57502e+67   3.60486e+65  -1.60988e+66   3.52733e+67  -5.40861e+65  -2.92194e+66  -8.18367e+66
   1.82237e+60   2.34927e+59   2.65273e+60   2.78019e+67 -1.94342e+134  3.84123e+199   3.11013e+67   7.25427e+64  -2.93265e+66    3.0662e+67  -1.80959e+66  -3.49203e+66  -9.53748e+66
   2.47604e+60   1.51345e+59   2.91468e+60   4.13546e+67  8.00248e+133  8.86421e+197   4.03755e+67    6.7225e+66    1.0888e+66   3.35433e+67  -3.17632e+65   -1.8478e+66  -1.36307e+67
   2.54461e+60   6.98204e+58   2.95915e+60    4.5583e+67  1.16286e+134  2.20784e+199   4.42891e+67   5.86455e+66   1.98775e+66   3.77307e+67   1.53507e+66  -1.27771e+66  -1.36987e+67
   2.45414e+60  -7.60519e+58    1.9725e+60   2.16061e+66 -7.62061e+133  1.45621e+200   8.99302e+66  -1.61009e+66  -3.53838e+66   7.30908e+66   1.19608e+66   1.98214e+66  -6.23804e+66
   2.50411e+60  -3.37427e+58   2.01128e+60  -2.60956e+66 -6.66171e+133  2.60294e+200   8.56895e+66  -4.38112e+66  -4.55251e+66   6.32406e+66  -6.56621e+65   2.78645e+65   -5.4366e+66
   3.33691e+60   1.09362e+58   2.08408e+60   1.77166e+67  -1.2142e+134  -5.9783e+200   2.08638e+67   3.89545e+66    3.1758e+66   1.06454e+67   -3.4988e+66   2.64086e+65   -1.4027e+67
   3.26428e+60   4.68438e+57   2.04499e+60   2.13302e+67 -1.94448e+134 -9.93587e+200   2.54839e+67   6.00168e+66   3.94405e+66   1.13845e+67  -7.93086e+65   1.96758e+66  -1.80789e+67
   2.47604e+60  -1.51345e+59   2.91468e+60   5.73125e+67  5.97706e+134  1.56127e+201   5.18364e+67   1.01151e+67   4.48142e+66    4.2716e+67   3.17632e+65   2.63234e+66  -8.00621e+66
   2.54461e+60  -6.98204e+58   2.95915e+60   3.45942e+67  3.81622e+133  -6.4137e+199   3.40381e+67   3.52834e+66  -3.48459e+65   3.14143e+67  -1.53507e+66   1.78185e+66  -7.41422e+66
   3.33554e+60   1.23651e+58   3.21378e+60   5.02103e+67  2.89332e+134  3.50564e+200   4.72413e+67   1.08035e+67   4.67247e+66   3.47343e+67  -4.16779e+66   5.01774e+66  -1.60046e+67
   3.24875e+60  -5.11576e+58    3.2378e+60    7.1772e+67  9.14056e+134  3.10973e+201   6.50935e+67   1.67255e+67   9.25647e+66     4.579e+67  -1.46208e+66   5.86823e+66   -1.9847e+67
   2.50411e+60  -3.37427e+58   2.01128e+60  -3.74802e+65 -6.96184e+133  1.78015e+200   8.35218e+66  -3.90601e+66  -3.26797e+66   6.79917e+66   7.47931e+65   1.86815e+66   -5.4366e+66
   2.52436e+60  -1.77341e+47   2.01641e+60  -2.12077e+65  -5.9723e+133  1.50057e+200   7.73098e+66  -4.01185e+66  -3.23337e+66   7.03314e+66  -9.56529e+65  -2.42661e+65  -4.55679e+66
   3.36686e+60  -2.16581e+47   2.09133e+60   1.48612e+67   -7.464e+133 -5.22849e+200     1.719e+67   4.30715e+65   4.19282e+66   1.02377e+67  -1.41499e+66   -3.4235e+65    -1.103e+67
   3.33691e+60   1.09362e+58   2.08408e+60   2.22005e+67 -5.12193e+133 -7.75523e+200   2.33255e+67   4.84871e+66   5.75313e+66   1.15986e+67  -1.48249e+66   1.76846e+66   -1.4027e+67
   2.54461e+60  -6.98204e+58   2.95915e+60   3.76475e+67  1.12995e+134 -1.33679e+199   3.61156e+67   4.17747e+66    1.4066e+66   3.20634e+67   6.77712e+65   4.06147e+66  -7.41422e+66
   2.56634e+60  -2.16522e+47   2.95537e+60   2.61198e+67 -1.56663e+133 -3.95087e+199    2.6418e+67   1.58626e+66  -1.04418e+66   2.55777e+67  -1.02675e+66   1.78692e+65  -5.17579e+66
   3.39574e+60  -2.71237e+47   3.16729e+60   5.09774e+67  5.69545e+134  1.23225e+201   4.50461e+67   8.10896e+66   1.20061e+67   3.08624e+67  -2.84383e+66   2.19617e+66   -1.1649e+67
   3.33554e+60   1.23651e+58   3.21378e+60   7.00071e+67  1.14913e+135  4.95431e+201   6.12525e+67   1.50123e+67   1.60518e+67    3.8943e+67  -2.91134e+66   6.07895e+66  -1.60046e+67
   2.52436e+60  -1.77341e+47   2.01641e+60  -2.12077e+65  -5.9723e+133  1.50057e+200   7.73098e+66  -4.01185e+66  -3.23337e+66   7.03314e+66   9.56529e+65   2.42661e+65  -4.55679e+66
   2.50411e+60   3.37427e+58   2.01128e+60  -3.74802e+65 -6.96184e+133  1.78015e+200   8.35218e+66  -3.90601e+66  -3.26797e+66   6.79917e+66  -7.47931e+65  -1.86815e+66   -5.4366e+66
   3.33691e+60  -1.09362e+58   2.08408e+60   2.22005e+67 -5.12193e+133 -7.75523e+200   2.33255e+67   4.84871e+66   5.75313e+66   1.15986e+67   1.48249e+66  -1.76846e+66   -1.4027e+67
   3.36686e+60  -2.16581e+47   2.09133e+60   1.48612e+67   -7.464e+133 -5.22849e+200     1.719e+67   4.30715e+65   4.19282e+66   1.02377e+67   1.41499e+66    3.4235e+65    -1.103e+67
   2.56634e+60  -2.16522e+47   2.95537e+60   2.61198e+67 -1.56663e+133 -3.95087e+199    2.6418e+67   1.58626e+66  -1.04418e+66   2.55777e+67   1.02675e+66  -1.78692e+65  -5.17579e+66
   2.54461e+60   6.98204e+58   2.95915e+60   3.76475e+67  1.12995e+134 -1.33679e+199   3.61156e+67   4.17747e+66    1.4066e+66   3.20634e+67  -6.77712e+65  -4.06147e+66  -7.41422e+66
   3.33554e+60  -1.23651e+58   3.21378e+60   7.00071e+67  1.14913e+135  4.95431e+201   6.12525e+67   1.50123e+67   1.60518e+67    3.8943e+67   2.91134e+66  -6.07895e+66  -1.60046e+67
   3.39574e+60  -2.71237e+47   3.16729e+60   5.09774e+67  5.69545e+134  1.23225e+201   4.50461e+67   8.10896e+66   1.20061e+67   3.08624e+67   2.84383e+66  -2.19617e+66   -1.1649e+67
   2.50411e+60   3.37427e+58   2.01128e+60  -2.60956e+66 -6.66171e+133  2.60294e+200   8.56895e+66  -4.38112e+66  -4.55251e+66   6.32406e+66   6.56621e+65  -2.78645e+65   -5.4366e+66
   2.45414e+60   7.60519e+58    1.9725e+60   2.16061e+66 -7.62061e+133  1.45621e+200   8.99302e+66  -1.61009e+66  -3.53838e+66   7.30908e+66  -1.19608e+66  -1.98214e+66  -6.23804e+66
   3.26428e+60  -4.68438e+57   2.04499e+60   2.13302e+67 -1.94448e+134 -9.93587e+200   2.54839e+67   6.00168e+66   3.94405e+66   1.13845e+67   7.93086e+65  -1.96758e+66  -1.80789e+67
   3.33691e+60  -1.09362e+58   2.08408e+60   1.77166e+67  -1.2142e+134  -5.9783e+200   2.08638e+67   3.89545e+66    3.1758e+66   1.06454e+67    3.4988e+66  -2.64086e+65   -1.4027e+67
   2.54461e+60   6.98204e+58   2.95915e+60   3.45942e+67  3.81622e+133  -6.4137e+199   3.40381e+67   3.52834e+66  -3.48459e+65   3.14143e+67   1.53507e+66  -1.78185e+66  -7.41422e+66
   2.47604e+60   1.51345e+59   2.91468e+60   5.73125e+67  5.97706e+134  1.56127e+201   5.18364e+67   1.01151e+67   4.48142e+66    4.2716e+67  -3.17632e+65  -2.63234e+66  -8.00621e+66
   3.24875e+60   5.11576e+58    3.2378e+60    7.1772e+67  9.14056e+134  3.10973e+201   6.50935e+67   1.67255e+67   9.25647e+66     4.579e+67   1.46208e+66  -5.86823e+66   -1.9847e+67
   3.33554e+60  -1.23651e+58   3.21378e+60   5.02103e+67  2.89332e+134  3.50564e+200   4.72413e+67   1.08035e+67   4.67247e+66   3.47343e+67   4.16779e+66  -5.01774e+66  -1.60046e+67
   3.26428e+60   4.68438e+57   2.04499e+60  -1.09198e+67  1.10503e+133  3.69846e+199   1.04015e+67  -8.54622e+65  -2.91225e+66  -7.15289e+66  -7.93086e+65   2.72771e+66  -3.21143e+66
   3.33691e+60   1.09362e+58   2.08408e+60   3.72778e+66 -1.31286e+133 -2.76961e+199   5.19855e+66    9.2144e+65   2.01793e+65   2.60454e+66   -3.4988e+66   3.32657e+65  -1.97174e+66
   4.42487e+60   5.70666e+58   2.10326e+60  -2.70897e+67  7.74562e+133  8.90056e+199   2.56202e+67  -2.15826e+67  -1.55985e+66   -3.9472e+66  -9.00996e+65  -2.98904e+66  -6.14908e+66
   4.38912e+60    1.0151e+59   1.99386e+60   2.68627e+67 -1.38923e+134 -2.97992e+201   2.93347e+67   1.60728e+67   9.91033e+66   8.79597e+65   1.73637e+66  -5.93991e+65   -1.7824e+67
   3.24875e+60  -5.11576e+58    3.2378e+60    5.4827e+67  6.66087e+134  2.05842e+201   4.83726e+67    1.3123e+67   5.65398e+66     3.605e+67  -1.46208e+66   4.92193e+66  -7.65887e+66
   3.33554e+60   1.23651e+58   3.21378e+60   1.18537e+67 -7.92608e+133 -3.50922e+200   1.48247e+67   2.64901e+66  -3.48207e+66   1.26868e+67  -4.16779e+66   2.45853e+66   6.00442e+66
   4.59234e+60   4.03808e+58   3.32138e+60  -1.85863e+67 -3.45529e+134  7.39925e+200   2.62865e+67  -1.97748e+67  -5.02679e+66   6.21529e+66  -1.39936e+67    9.5721e+66   1.82708e+66
   4.27945e+60   2.89998e+58   3.49597e+60   9.29868e+67  1.94962e+135  1.16303e+202   8.18348e+67   3.01306e+67   1.86935e+67   4.41627e+67  -1.13562e+67   1.20355e+67  -2.22715e+67
   3.33691e+60   1.09362e+58   2.08408e+60   8.21163e+66  1.23072e+133  4.32548e+198   7.42453e+66    1.8747e+66   2.77912e+66    3.5578e+66  -1.48249e+66   1.83704e+66  -1.97174e+66
   3.36686e+60  -2.16581e+47   2.09133e+60   2.54621e+66 -7.96123e+132 -1.70182e+199   3.80058e+66  -2.18744e+66   1.57467e+66   3.15899e+66  -1.41499e+66   -3.4235e+65   6.79412e+65
   4.45721e+60    -2.624e+47   2.11903e+60  -1.92996e+67   -1.744e+132  4.78674e+199   1.93448e+67  -1.91033e+67   1.28904e+66   -1.4854e+66  -1.52761e+66  -7.45172e+65  -8.31573e+65
   4.42487e+60   5.70666e+58   2.10326e+60  -2.37967e+67  1.93582e+133   6.7758e+199   2.33864e+67  -2.08825e+67   3.32986e+65  -3.24711e+66   -7.3931e+65   1.43421e+66  -6.14908e+66
   3.33554e+60   1.23651e+58   3.21378e+60   3.16506e+67  2.46534e+134  2.79083e+200   2.74814e+67   6.85779e+66   7.89722e+66   1.68956e+67  -2.91134e+66   3.51975e+66   6.00442e+66
   3.39574e+60  -2.71237e+47   3.16729e+60   1.12622e+67 -3.46122e+133 -3.23534e+200   1.27063e+67  -3.34428e+65   3.56269e+66   8.03397e+66  -2.84383e+66   2.19617e+66   6.81513e+66
   4.61596e+60  -3.33344e+47   3.22698e+60  -1.53092e+67 -1.01705e+134   2.6711e+200   1.83324e+67  -1.82549e+67   5.60804e+65   2.38493e+66  -1.11602e+66   4.45971e+66   5.30415e+66
   4.59234e+60   4.03808e+58   3.32138e+60  -5.08325e+66 -2.11864e+134  1.28307e+200   1.54176e+67  -1.69041e+67   2.73482e+66   9.08602e+66  -3.27713e+65   5.78329e+66   1.82708e+66
   3.36686e+60  -2.16581e+47   2.09133e+60   2.54621e+66 -7.96123e+132 -1.70182e+199   3.80058e+66  -2.18744e+66   1.57467e+66   3.15899e+66   1.41499e+66    3.4235e+65   6.79412e+65
   3.33691e+60  -1.09362e+58   2.08408e+60   8.21163e+66  1.23072e+133  4.32548e+198   7.42453e+66    1.8747e+66   2.77912e+66    3.5578e+66   1.48249e+66  -1.83704e+66  -1.97174e+66
   4.42487e+60  -5.70666e+58   2.10326e+60  -2.37967e+67  1.93582e+133   6.7758e+199   2.33864e+67  -2.08825e+67   3.32986e+65  -3.24711e+66    7.3931e+65  -1.43421e+66  -6.14908e+66
   4.45721e+60    -2.624e+47   2.11903e+60  -1.92996e+67   -1.744e+132  4.78674e+199   1.93448e+67  -1.91033e+67   1.28904e+66   -1.4854e+66   1.52761e+66   7.45172e+65  -8.31573e+65
   3.39574e+60  -2.71237e+47   3.16729e+60   1.12622e+67 -3.46122e+133 -3.23534e+200   1.27063e+67  -3.34428e+65   3.56269e+66   8.03397e+66   2.84383e+66  -2.19617e+66   6.81513e+66
   3.33554e+60  -1.23651e+58   3.21378e+60   3.16506e+67  2.46534e+134  2.79083e+200   2.74814e+67   6.85779e+66   7.89722e+66   1.68956e+67   2.91134e+66  -3.51975e+66   6.00442e+66
   4.59234e+60  -4.03808e+58   3.32138e+60  -5.08325e+66 -2.11864e+134  1.28307e+200   1.54176e+67  -1.69041e+67   2.73482e+66   9.08602e+66   3.27713e+65  -5.78329e+66   1.82708e+66
   4.61596e+60  -3.33344e+47   3.22698e+60  -1.53092e+67 -1.01705e+134   2.6711e+200   1.83324e+67  -1.82549e+67   5.60804e+65   2.38493e+66   1.11602e+66  -4.45971e+66   5.30415e+66
   3.33691e+60  -1.09362e+58   2.08408e+60   3.72778e+66 -1.31286e+133 -2.76961e+199   5.19855e+66    9.2144e+65   2.01793e+65   2.60454e+66    3.4988e+66  -3.32657e+65  -1.97174e+66
   3.26428e+60  -4.68438e+57   2.04499e+60  -1.09198e+67  1.10503e+133  3.69846e+199   1.04015e+67  -8.54622e+65  -2.91225e+66  -7.15289e+66   7.93086e+65  -2.72771e+66  -3.21143e+66
   4.38912e+60   -1.0151e+59   1.99386e+60   2.68627e+67 -1.38923e+134 -2.97992e+201   2.93347e+67   1.60728e+67   9.91033e+66   8.79597e+65  -1.73637e+66   5.93991e+65   -1.7824e+67
   4.42487e+60  -5.70666e+58   2.10326e+60  -2.70897e+67  7.74562e+133  8.90056e+199   2.56202e+67  -2.15826e+67  -1.55985e+66   -3.9472e+66   9.00996e+65   2.98904e+66  -6.14908e+66
   3.33554e+60  -1.23651e+58   3.21378e+60   1.18537e+67 -7.92608e+133 -3.50922e+200   1.48247e+67   2.64901e+66  -3.48207e+66   1.26868e+67   4.16779e+66  -2.45853e+66   6.00442e+66
   3.24875e+60   5.11576e+58    3.2378e+60    5.4827e+67  6.66087e+134  2.05842e+201   4.83726e+67    1.3123e+67   5.65398e+66     3.605e+67   1.46208e+66  -4.92193e+66  -7.65887e+66
   4.27945e+60  -2.89998e+58   3.49597e+60   9.29868e+67  1.94962e+135  1.16303e+202   8.18348e+67   3.01306e+67   1.86935e+67   4.41627e+67   1.13562e+67  -1.20355e+67  -2.22715e+67
   4.59234e+60  -4.03808e+58   3.32138e+60  -1.85863e+67 -3.45529e+134  7.39925e+200   2.62865e+67  -1.97748e+67  -5.02679e+66   6.21529e+66   1.39936e+67   -9.5721e+66   1.82708e+66
   4.38912e+60    1.0151e+59   1.99386e+60   8.29982e+67  2.04291e+135  1.51417e+202   6.96118e+67   2.80071e+67   2.18447e+67   3.31465e+67   1.73637e+66   3.70915e+66  -1.43016e+67
   4.42487e+60   5.70666e+58   2.10326e+60  -7.52113e+66 -1.64854e+134 -1.62311e+200   1.48802e+67  -1.74224e+67   2.60039e+66   7.30086e+66  -9.00996e+65   -3.1987e+66  -5.40922e+65
   5.63154e+60   9.87591e+58   2.19745e+60  -1.43674e+68  3.79782e+135 -2.58779e+202   1.29786e+68  -1.09499e+68  -1.25299e+67  -2.16451e+67   1.11813e+67   1.01975e+65  -9.51301e+66
   5.58851e+60   2.89419e+59   2.15791e+60  -1.70675e+68  5.23452e+135 -3.72892e+202   1.54582e+68  -1.31621e+68  -1.82703e+67  -2.07842e+67   1.31522e+67   7.00982e+66   7.96716e+66
   4.27945e+60   2.89998e+58   3.49597e+60   -5.4527e+67 -1.06339e+135  1.87661e+202   6.35341e+67  -1.23056e+66  -1.26677e+67  -4.06287e+67  -1.13562e+67   5.36657e+66   3.85471e+67
   4.59234e+60   4.03808e+58   3.32138e+60   2.74575e+67  -1.3815e+135 -1.05718e+202   4.62106e+67  -9.98597e+66   4.76206e+66   3.26814e+67  -1.39936e+67  -2.20777e+66   3.10246e+67
   6.46715e+60  -1.80944e+59   3.60548e+60  -1.05016e+68 -1.42949e+135  7.23898e+202   1.11614e+68  -1.01281e+68  -8.25283e+66   4.51788e+66   1.93719e+67   -3.0148e+67   2.20525e+67
   6.59748e+60  -3.20016e+58   3.18867e+60  -3.04521e+68  2.32099e+136 -5.07507e+203   2.63672e+68  -1.60076e+68  -5.06673e+67  -9.37769e+67   2.13428e+67  -2.25736e+67   6.08159e+67
   4.42487e+60   5.70666e+58   2.10326e+60  -4.22811e+66  -1.7532e+134   -5.808e+200   1.38995e+67  -1.67223e+67   4.49323e+66   8.00095e+66   -7.3931e+65   1.22455e+66  -5.40922e+65
   4.45721e+60    -2.624e+47   2.11903e+60   8.70008e+66 -1.88423e+134 -1.44232e+201   1.62516e+67  -1.31506e+67   7.24174e+66   1.46089e+67  -1.52761e+66  -7.45172e+65   1.99475e+66
   5.60738e+60   -3.0869e+47   2.25407e+60  -1.04914e+68  1.95048e+135 -9.36533e+201   9.51651e+67  -8.23955e+67  -1.29729e+67  -9.54517e+66    1.1416e+66   -2.6749e+66   4.50348e+66
   5.63154e+60   9.87591e+58   2.19745e+60  -1.67648e+68  6.48608e+135 -7.24864e+202   1.47037e+68  -1.14596e+68  -2.63102e+67  -2.67419e+67   1.43559e+67  -7.05177e+65  -9.51301e+66
   4.59234e+60   4.03808e+58   3.32138e+60   4.09606e+67 -8.95419e+134 -1.48484e+202   5.07266e+67  -7.11524e+66   1.25237e+67   3.55522e+67  -3.27713e+65  -5.99658e+66   3.10246e+67
   4.61596e+60  -3.33344e+47   3.22698e+60  -9.50525e+66 -7.41013e+134 -1.16845e+201   2.88334e+67   -1.7021e+67   1.79471e+66   5.72104e+66  -1.11602e+66   4.45971e+66   2.45402e+67
   6.24334e+60  -4.09488e+47   3.30891e+60  -1.91732e+68  1.00362e+136 -1.18845e+203   1.63478e+68  -1.00853e+68   -5.7859e+67  -3.30201e+67   1.05733e+67   1.40108e+67   2.70489e+67
   6.46715e+60  -1.80944e+59   3.60548e+60  -1.91073e+68  8.27974e+135 -5.39859e+202   1.68015e+68  -1.19576e+68  -5.77189e+67  -1.37778e+67   2.37876e+67    3.5545e+66   2.20525e+67
   4.45721e+60    -2.624e+47   2.11903e+60   8.70008e+66 -1.88423e+134 -1.44232e+201   1.62516e+67  -1.31506e+67   7.24174e+66   1.46089e+67   1.52761e+66   7.45172e+65   1.99475e+66
   4.42487e+60  -5.70666e+58   2.10326e+60  -4.22811e+66  -1.7532e+134   -5.808e+200   1.38995e+67  -1.67223e+67   4.49323e+66   8.00095e+66    7.3931e+65  -1.22455e+66  -5.40922e+65
   5.63154e+60  -9.87591e+58   2.19745e+60  -1.67648e+68  6.48608e+135 -7.24864e+202   1.47037e+68  -1.14596e+68  -2.63102e+67  -2.67419e+67  -1.43559e+67   7.05177e+65  -9.51301e+66
   5.60738e+60   -3.0869e+47   2.25407e+60  -1.04914e+68  1.95048e+135 -9.36533e+201   9.51651e+67  -8.23955e+67  -1.29729e+67  -9.54517e+66   -1.1416e+66    2.6749e+66   4.50348e+66
   4.61596e+60  -3.33344e+47   3.22698e+60  -9.50525e+66 -7.41013e+134 -1.16845e+201   2.88334e+67   -1.7021e+67   1.79471e+66   5.72104e+66   1.11602e+66  -4.45971e+66   2.45402e+67
   4.59234e+60  -4.03808e+58   3.32138e+60   4.09606e+67 -8.95419e+134 -1.48484e+202   5.07266e+67  -7.11524e+66   1.25237e+67   3.55522e+67   3.27713e+65   5.99658e+66   3.10246e+67
   6.46715e+60   1.80944e+59   3.60548e+60  -1.91073e+68  8.27974e+135 -5.39859e+202   1.68015e+68  -1.19576e+68  -5.77189e+67  -1.37778e+67  -2.37876e+67   -3.5545e+66   2.20525e+67
   6.24334e+60  -4.09488e+47   3.30891e+60  -1.91732e+68  1.00362e+136 -1.18845e+203   1.63478e+68  -1.00853e+68   -5.7859e+67  -3.30201e+67  -1.05733e+67  -1.40108e+67   2.70489e+67
   4.42487e+60  -5.70666e+58   2.10326e+60  -7.52113e+66 -1.64854e+134 -1.62311e+200   1.48802e+67  -1.74224e+67   2.60039e+66   7.30086e+66   9.00996e+65    3.1987e+66  -5.40922e+65
   4.38912e+60   -1.0151e+59   1.99386e+60   8.29982e+67  2.04291e+135  1.51417e+202   6.96118e+67   2.80071e+67   2.18447e+67   3.31465e+67  -1.73637e+66  -3.70915e+66  -1.43016e+67
   5.58851e+60  -2.89419e+59   2.15791e+60  -1.70675e+68  5.23452e+135 -3.72892e+202   1.54582e+68  -1.31621e+68  -1.82703e+67  -2.07842e+67  -1.31522e+67  -7.00982e+66   7.96716e+66
   5.63154e+60  -9.87591e+58   2.19745e+60  -1.43674e+68  3.79782e+135 -2.58779e+202   1.29786e+68  -1.09499e+68  -1.25299e+67  -2.16451e+67  -1.11813e+67  -1.01975e+65  -9.51301e+66
   4.59234e+60  -4.03808e+58   3.32138e+60   2.74575e+67  -1.3815e+135 -1.05718e+202   4.62106e+67  -9.98597e+66   4.76206e+66   3.26814e+67   1.39936e+67   2.20777e+66   3.10246e+67
   4.27945e+60  -2.89998e+58   3.49597e+60   -5.4527e+67 -1.06339e+135  1.87661e+202   6.35341e+67  -1.23056e+66  -1.26677e+67  -4.06287e+67   1.13562e+67  -5.36657e+66   3.85471e+67
   6.59748e+60   3.20016e+58   3.18867e+60  -3.04521e+68  2.32099e+136 -5.07507e+203   2.63672e+68  -1.60076e+68  -5.06673e+67  -9.37769e+67  -2.13428e+67   2.25736e+67   6.08159e+67
   6.46715e+60   1.80944e+59   3.60548e+60  -1.05016e+68 -1.42949e+135  7.23898e+202   1.11614e+68  -1.01281e+68  -8.25283e+66   4.51788e+66  -1.93719e+67    3.0148e+67   2.20525e+67
   5.78422e+59  -1.38162e+59   8.50346e+59   5.19953e+67  7.60261e+134  2.16706e+201   4.40823e+67   2.27165e+67   3.75699e+66   2.55218e+67   -5.9079e+65   1.81688e+65   5.95087e+65
   6.24159e+59  -6.09346e+58   8.75934e+59   3.49531e+67  2.67516e+134 -1.21133e+200   3.08902e+67    1.3611e+67   1.33858e+65   2.12083e+67  -2.79985e+66  -5.52191e+65   4.20314e+66
   1.15758e+60  -4.70339e+58   1.02174e+60   1.88602e+67  9.92086e+132 -1.13504e+200   1.85954e+67   2.89299e+66  -1.81971e+66    1.7787e+67  -1.15182e+66  -2.06999e+65  -1.59235e+66
   1.11665e+60  -1.08728e+59   1.00346e+60   4.21695e+67  4.87677e+134  1.14174e+201   3.59247e+67   1.56008e+67    3.1358e+66   2.34328e+67  -1.03793e+65    5.2688e+65   8.93183e+64
   4.54995e+59  -1.71395e+59   1.37598e+60   4.25901e+67  3.52992e+134 -1.96919e+201   3.82221e+67    2.0717e+67  -2.66065e+66   2.45338e+67  -3.33197e+66   3.75675e+66   3.10845e+66
   5.58754e+59  -4.74084e+58   1.32039e+60   5.47565e+67  5.59672e+134 -1.40439e+201   4.93822e+67   1.78212e+67    -7.411e+64   3.70094e+67  -5.54103e+66   1.86183e+66   7.85148e+66
    1.1694e+60  -6.35862e+58   1.58887e+60   4.50745e+67  3.28846e+134 -4.16896e+200   4.12658e+67    8.4661e+66   1.65736e+66   3.49511e+67  -5.02798e+66   -3.0827e+66   2.05599e+66
   1.04643e+60  -1.47464e+59    1.5398e+60   3.91753e+67  3.47874e+134  -2.3271e+200   3.44504e+67   1.49643e+67   4.03189e+65   2.38078e+67  -3.97996e+66  -1.18778e+66   2.60268e+66
   6.24159e+59  -6.09346e+58   8.75934e+59   3.92036e+67  3.93919e+134  6.91741e+200   3.38083e+67   1.45146e+67   2.57702e+66   2.21119e+67  -1.79714e+66   7.19987e+65   4.20314e+66
   6.48672e+59  -5.52783e+46   8.74595e+59   2.54728e+67   9.5858e+133 -6.38526e+199   2.35161e+67   5.54629e+66  -3.42113e+65   2.02687e+67   -1.1581e+66   6.32613e+64   2.52609e+66
   1.18319e+60  -8.12366e+46   1.03179e+60   2.24721e+67  5.11354e+133 -1.63793e+199    2.1304e+67   2.50802e+66   3.33393e+65   1.96307e+67  -1.20973e+66  -4.74682e+65  -1.94705e+66
   1.15758e+60  -4.70339e+58   1.02174e+60   2.26846e+67  7.46253e+133  2.18581e+199   2.09754e+67   3.70605e+66   3.78569e+65      1.86e+67   -4.2773e+65   1.82044e+65  -1.59235e+66
   5.58754e+59  -4.74084e+58   1.32039e+60   7.47333e+67  1.54211e+135  8.77829e+201   6.35843e+67   2.20682e+67   1.14087e+67   4.12565e+67  -4.82174e+66  -2.42972e+66   7.85148e+66
   6.47288e+59  -7.19484e+46   1.35564e+60   5.37009e+67  6.96916e+134  2.12854e+201    4.6764e+67   1.15475e+67    6.9372e+66   3.52162e+67  -4.18271e+66  -1.66542e+66   3.72625e+66
   1.20721e+60   -1.0428e+47   1.60752e+60   4.28537e+67  3.43944e+134  5.84109e+200   3.86328e+67    6.8411e+66   3.10247e+66   3.29101e+67  -1.78616e+66   -8.8101e+65  -7.46892e+65
    1.1694e+60  -6.35862e+58   1.58887e+60   5.03678e+67   5.5272e+134  1.55089e+201   4.45443e+67   9.59146e+66   4.69997e+66   3.60764e+67  -1.00416e+66  -1.64532e+66   2.05599e+66
   6.48672e+59  -5.52783e+46   8.74595e+59   2.54728e+67   9.5858e+133 -6.38526e+199   2.35161e+67   5.54629e+66  -3.42113e+65   2.02687e+67    1.1581e+66  -6.32613e+64   2.52609e+66
   6.24159e+59   6.09346e+58   8.75934e+59   3.92036e+67  3.93919e+134  6.91741e+200   3.38083e+67   1.45146e+67   2.57702e+66   2.21119e+67   1.79714e+66  -7.19987e+65   4.20314e+66
   1.15758e+60   4.70339e+58   1.02174e+60   2.26846e+67  7.46253e+133  2.18581e+199   2.09754e+67   3.70605e+66   3.78569e+65      1.86e+67    4.2773e+65  -1.82044e+65  -1.59235e+66
   1.18319e+60  -8.12366e+46   1.03179e+60   2.24721e+67  5.11354e+133 -1.63793e+199    2.1304e+67   2.50802e+66   3.33393e+65   1.96307e+67   1.20973e+66   4.74682e+65  -1.94705e+66
   6.47288e+59  -7.19484e+46   1.35564e+60   5.37009e+67  6.96916e+134  2.12854e+201    4.6764e+67   1.15475e+67    6.9372e+66   3.52162e+67   4.18271e+66   1.66542e+66   3.72625e+66
   5.58754e+59   4.74084e+58   1.32039e+60   7.47333e+67  1.54211e+135  8.77829e+201   6.35843e+67   2.20682e+67   1.14087e+67   4.12565e+67   4.82174e+66   2.42972e+66   7.85148e+66
    1.1694e+60   6.35862e+58   1.58887e+60   5.03678e+67   5.5272e+134  1.55089e+201   4.45443e+67   9.59146e+66   4.69997e+66   3.60764e+67   1.00416e+66   1.64532e+66   2.05599e+66
   1.20721e+60   -1.0428e+47   1.60752e+60   4.28537e+67  3.43944e+134  5.84109e+200   3.86328e+67    6.8411e+66   3.10247e+66   3.29101e+67   1.78616e+66    8.8101e+65  -7.46892e+65
   6.24159e+59   6.09346e+58   8.75934e+59   3.49531e+67  2.67516e+134 -1.21133e+200   3.08902e+67    1.3611e+67   1.33858e+65   2.12083e+67   2.79985e+66   5.52191e+65   4.20314e+66
   5.78422e+59   1.38162e+59   8.50346e+59   5.19953e+67  7.60261e+134  2.16706e+201   4.40823e+67   2.27165e+67   3.75699e+66   2.55218e+67    5.9079e+65  -1.81688e+65   5.95087e+65
   1.11665e+60   1.08728e+59   1.00346e+60   4.21695e+67  4.87677e+134  1.14174e+201   3.59247e+67   1.56008e+67    3.1358e+66   2.34328e+67   1.03793e+65   -5.2688e+65   8.93183e+64
   1.15758e+60   4.70339e+58   1.02174e+60   1.88602e+67  9.92086e+132 -1.13504e+200   1.85954e+67   2.89299e+66  -1.81971e+66    1.7787e+67   1.15182e+66   2.06999e+65  -1.59235e+66
   5.58754e+59   4.74084e+58   1.32039e+60   5.47565e+67  5.59672e+134 -1.40439e+201   4.93822e+67   1.78212e+67    -7.411e+64   3.70094e+67   5.54103e+66  -1.86183e+66   7.85148e+66
   4.54995e+59   1.71395e+59   1.37598e+60   4.25901e+67  3.52992e+134 -1.96919e+201   3.82221e+67    2.0717e+67  -2.66065e+66   2.45338e+67   3.33197e+66  -3.75675e+66   3.10845e+66
   1.04643e+60   1.47464e+59    1.5398e+60   3.91753e+67  3.47874e+134  -2.3271e+200   3.44504e+67   1.49643e+67   4.03189e+65   2.38078e+67   3.97996e+66   1.18778e+66   2.60268e+66
    1.1694e+60   6.35862e+58   1.58887e+60   4.50745e+67  3.28846e+134 -4.16896e+200   4.12658e+67    8.4661e+66   1.65736e+66   3.49511e+67   5.02798e+66    3.0827e+66   2.05599e+66
   1.11665e+60  -1.08728e+59   1.00346e+60   3.20176e+67  2.46256e+134  2.03368e+200   2.79082e+67   1.34425e+67   9.77523e+65   1.75975e+67  -1.03793e+65   7.39971e+65   4.48142e+66
   1.15758e+60  -4.70339e+58   1.02174e+60   1.47555e+67 -2.65765e+133 -7.73752e+199   1.56301e+67   2.02033e+66  -2.69237e+66   1.54275e+67  -1.15182e+66  -2.76175e+65    3.0604e+66
   1.78949e+60  -3.45974e+58   1.15182e+60    1.7068e+67  1.17167e+133 -1.04442e+199   1.67212e+67   1.31727e+66  -1.68444e+65   1.59192e+67  -5.04383e+65  -1.02613e+66  -2.24553e+66
   1.74785e+60  -7.47831e+58   1.11766e+60   1.59855e+67  1.88387e+133 -1.82834e+199   1.53849e+67   2.19494e+66  -3.98589e+65   1.41891e+67   7.49995e+65  -9.98656e+63  -2.28309e+66
   1.04643e+60  -1.47464e+59    1.5398e+60   6.35825e+67  9.97847e+134  3.32562e+201   5.51806e+67   2.01532e+67   5.59214e+66   3.78372e+67  -3.97996e+66  -1.60213e+66   8.40103e+66
    1.1694e+60  -6.35862e+58   1.58887e+60   3.82665e+67  1.81361e+134 -6.93831e+200   3.58185e+67   7.01874e+66   2.09997e+65   3.10378e+67  -5.02798e+66  -2.41192e+66   3.65775e+66
   1.81396e+60  -6.55659e+58   1.83126e+60   3.94396e+67  2.60955e+134  3.30797e+200   3.59796e+67   6.07344e+66   2.07897e+66   3.12872e+67  -1.05829e+66  -1.70329e+66  -1.64818e+66
   1.76059e+60  -1.32303e+59   1.79718e+60    4.6411e+67  4.45247e+134  1.03634e+201   4.13368e+67   8.66336e+66   3.56107e+66   3.41866e+67   1.96086e+65  -8.93503e+65   1.63651e+66
   1.15758e+60  -4.70339e+58   1.02174e+60   1.85799e+67  2.70299e+133 -2.14113e+199   1.78377e+67   2.83339e+66  -4.94092e+65   1.62406e+67   -4.2773e+65   1.12869e+65    3.0604e+66
   1.18319e+60  -8.12366e+46   1.03179e+60    1.5817e+67 -7.69957e+132  -3.4069e+199   1.60585e+67   1.09315e+66  -1.08148e+66   1.58053e+67  -1.20973e+66  -4.74682e+65   2.23899e+66
   1.80631e+60  -1.09802e+47   1.16348e+60   1.80983e+67  2.18722e+133 -5.70255e+198   1.74836e+67   1.22934e+66   5.78617e+65   1.62903e+67  -7.94641e+65   -5.5074e+65  -2.71229e+66
   1.78949e+60  -3.45974e+58   1.15182e+60   1.85258e+67  3.28723e+133  6.94046e+198   1.76163e+67    1.6272e+66   6.69509e+65   1.62291e+67   6.68435e+65   3.68099e+64  -2.24553e+66
    1.1694e+60  -6.35862e+58   1.58887e+60   4.35599e+67  3.77706e+134  7.75464e+200    3.8984e+67   8.14409e+66   3.25261e+66   3.21632e+67  -1.00416e+66  -9.74537e+65   3.65775e+66
   1.20721e+60   -1.0428e+47   1.60752e+60   3.88386e+67  2.55727e+134  3.04284e+200   3.53937e+67   5.98752e+66   2.24889e+66   3.06022e+67  -1.78616e+66   -8.8101e+65   2.41339e+66
   1.83402e+60  -1.39611e+47   1.84401e+60   3.73592e+67  2.15779e+134  2.38453e+200   3.43501e+67   5.32417e+66    1.7473e+66   3.02877e+67  -9.48127e+65  -6.02411e+65  -2.53788e+66
   1.81396e+60  -6.55659e+58   1.83126e+60    3.9745e+67  2.73509e+134  4.17658e+200   3.61408e+67   6.13838e+66   2.25453e+66   3.13521e+67    5.1495e+65  -6.95937e+65  -1.64818e+66
   1.18319e+60  -8.12366e+46   1.03179e+60    1.5817e+67 -7.69957e+132  -3.4069e+199   1.60585e+67   1.09315e+66  -1.08148e+66   1.58053e+67   1.20973e+66   4.74682e+65   2.23899e+66
   1.15758e+60   4.70339e+58   1.02174e+60   1.85799e+67  2.70299e+133 -2.14113e+199   1.78377e+67   2.83339e+66  -4.94092e+65   1.62406e+67    4.2773e+65  -1.12869e+65    3.0604e+66
   1.78949e+60   3.45974e+58   1.15182e+60   1.85258e+67  3.28723e+133  6.94046e+198   1.76163e+67    1.6272e+66   6.69509e+65   1.62291e+67  -6.68435e+65  -3.68099e+64  -2.24553e+66
   1.80631e+60  -1.09802e+47   1.16348e+60   1.80983e+67  2.18722e+133 -5.70255e+198   1.74836e+67   1.22934e+66   5.78617e+65   1.62903e+67   7.94641e+65    5.5074e+65  -2.71229e+66
   1.20721e+60   -1.0428e+47   1.60752e+60   3.88386e+67  2.55727e+134  3.04284e+200   3.53937e+67   5.98752e+66   2.24889e+66   3.06022e+67   1.78616e+66    8.8101e+65   2.41339e+66
    1.1694e+60   6.35862e+58   1.58887e+60   4.35599e+67  3.77706e+134  7.75464e+200    3.8984e+67   8.14409e+66   3.25261e+66   3.21632e+67   1.00416e+66   9.74537e+65   3.65775e+66
   1.81396e+60   6.55659e+58   1.83126e+60    3.9745e+67  2.73509e+134  4.17658e+200   3.61408e+67   6.13838e+66   2.25453e+66   3.13521e+67   -5.1495e+65   6.95937e+65  -1.64818e+66
   1.83402e+60  -1.39611e+47   1.84401e+60   3.73592e+67  2.15779e+134  2.38453e+200   3.43501e+67   5.32417e+66    1.7473e+66   3.02877e+67   9.48127e+65   6.02411e+65  -2.53788e+66
   1.15758e+60   4.70339e+58   1.02174e+60   1.47555e+67 -2.65765e+133 -7.73752e+199   1.56301e+67   2.02033e+66  -2.69237e+66   1.54275e+67   1.15182e+66   2.76175e+65    3.0604e+66
   1.11665e+60   1.08728e+59   1.00346e+60   3.20176e+67  2.46256e+134  2.03368e+200   2.79082e+67   1.34425e+67   9.77523e+65   1.75975e+67   1.03793e+65  -7.39971e+65   4.48142e+66
   1.74785e+60   7.47831e+58   1.11766e+60   1.59855e+67  1.88387e+133 -1.82834e+199   1.53849e+67   2.19494e+66  -3.98589e+65   1.41891e+67  -7.49995e+65   9.98656e+63  -2.28309e+66
   1.78949e+60   3.45974e+58   1.15182e+60    1.7068e+67  1.17167e+133 -1.04442e+199   1.67212e+67   1.31727e+66  -1.68444e+65   1.59192e+67   5.04383e+65   1.02613e+66  -2.24553e+66
    1.1694e+60   6.35862e+58   1.58887e+60   3.82665e+67  1.81361e+134 -6.93831e+200   3.58185e+67   7.01874e+66   2.09997e+65   3.10378e+67   5.02798e+66   2.41192e+66   3.65775e+66
   1.04643e+60   1.47464e+59    1.5398e+60   6.35825e+67  9.97847e+134  3.32562e+201   5.51806e+67   2.01532e+67   5.59214e+66   3.78372e+67   3.97996e+66   1.60213e+66   8.40103e+66
   1.76059e+60   1.32303e+59   1.79718e+60    4.6411e+67  4.45247e+134  1.03634e+201   4.13368e+67   8.66336e+66   3.56107e+66   3.41866e+67  -1.96086e+65   8.93503e+65   1.63651e+66
   1.81396e+60   6.55659e+58   1.83126e+60   3.94396e+67  2.60955e+134  3.30797e+200   3.59796e+67   6.07344e+66   2.07897e+66   3.12872e+67   1.05829e+66   1.70329e+66  -1.64818e+66
   1.74785e+60  -7.47831e+58   1.11766e+60   6.12841e+66 -2.41625e+133  9.86866e+197    7.8562e+66   9.93487e+64  -2.49418e+66   8.52324e+66   7.49995e+65   5.44556e+65   1.62601e+66
   1.78949e+60  -3.45974e+58   1.15182e+60   4.82042e+66 -3.44999e+133  3.45408e+199   7.59844e+66  -1.28654e+66  -2.77226e+66   8.87922e+66  -5.04383e+65  -5.61776e+65   1.20727e+66
   2.49449e+60  -1.23321e+58   1.23494e+60   1.47997e+67  3.28683e+133   1.2678e+199   1.36441e+67   2.23689e+66   1.56198e+66   1.10008e+67   -5.3328e+65  -8.78806e+65   -3.3704e+66
   2.46179e+60  -2.91004e+58   1.19408e+60   1.75564e+67  7.21132e+133  7.87616e+199    1.5366e+67   4.45552e+66   2.14805e+66   1.09528e+67   6.73377e+65   2.27526e+65  -3.04628e+66
   1.76059e+60  -1.32303e+59   1.79718e+60   2.50013e+67  6.26415e+133 -9.37665e+199   2.37154e+67   4.11169e+66  -9.90601e+65   2.18802e+67   1.96086e+65   1.04775e+66   6.62713e+65
   1.81396e+60  -6.55659e+58   1.83126e+60   2.31708e+67  2.20942e+133 -1.03267e+200    2.2689e+67   2.61471e+66  -1.37976e+66   2.19358e+67  -1.05829e+66  -1.06308e+65    5.0634e+65
   2.50411e+60  -3.37427e+58   2.01128e+60   3.34135e+67  2.24991e+134  3.64228e+200   2.98575e+67   6.19417e+66   3.10594e+66   2.41134e+67  -1.34956e+66  -3.28709e+65  -4.07133e+66
   2.45414e+60  -7.60519e+58    1.9725e+60   3.66927e+67  3.15995e+134  7.23368e+200   3.20993e+67   8.52388e+66   3.80309e+66   2.43658e+67  -1.42899e+65   8.25344e+65  -4.00959e+66
   1.78949e+60  -3.45974e+58   1.15182e+60   6.27823e+66 -2.70153e+133  1.71267e+199   8.15055e+66  -9.76617e+65  -1.93431e+66   9.18915e+66   6.68435e+65   5.01166e+65   1.20727e+66
   1.80631e+60  -1.09802e+47   1.16348e+60   5.90474e+66 -3.05038e+133  2.28501e+199   8.08516e+66  -1.36299e+66  -2.01371e+66   9.28144e+66  -7.94641e+65   -5.5074e+65   9.86459e+65
   2.50773e+60  -1.39871e+47   1.24842e+60   1.46031e+67   3.0932e+133  6.42192e+198   1.35025e+67   1.53304e+66   1.93936e+66   1.11307e+67  -6.25497e+65  -6.36585e+65  -3.14562e+66
   2.49449e+60  -1.23321e+58   1.23494e+60    1.5957e+67  4.68228e+133  3.37097e+199   1.44153e+67   2.48293e+66   2.22719e+66   1.12468e+67   3.86027e+65   4.15322e+65   -3.3704e+66
   1.81396e+60  -6.55659e+58   1.83126e+60   2.34762e+67  2.79007e+133 -7.82235e+199   2.28742e+67   2.67964e+66   -1.2042e+66   2.20008e+67    5.1495e+65   9.01049e+65    5.0634e+65
   1.83402e+60  -1.39611e+47   1.84401e+60   2.06423e+67 -5.42943e+132 -8.44492e+199   2.07733e+67   1.77018e+66  -1.80669e+66   2.06788e+67  -9.48127e+65  -6.02411e+65   4.63073e+65
   2.52436e+60  -1.77341e+47   2.01641e+60    3.1834e+67   2.0652e+134  3.57599e+200   2.84057e+67   5.19629e+66   3.57957e+66   2.30581e+67  -9.56529e+65  -2.42661e+65    -3.669e+66
   2.50411e+60  -3.37427e+58   2.01128e+60   3.56483e+67  2.83056e+134  6.35969e+200   3.14284e+67   6.66928e+66   4.39049e+66   2.45885e+67   5.49954e+64    1.2608e+66  -4.07133e+66
   1.80631e+60  -1.09802e+47   1.16348e+60   5.90474e+66 -3.05038e+133  2.28501e+199   8.08516e+66  -1.36299e+66  -2.01371e+66   9.28144e+66   7.94641e+65    5.5074e+65   9.86459e+65
   1.78949e+60   3.45974e+58   1.15182e+60   6.27823e+66 -2.70153e+133  1.71267e+199   8.15055e+66  -9.76617e+65  -1.93431e+66   9.18915e+66  -6.68435e+65  -5.01166e+65   1.20727e+66
   2.49449e+60   1.23321e+58   1.23494e+60    1.5957e+67  4.68228e+133  3.37097e+199   1.44153e+67   2.48293e+66   2.22719e+66   1.12468e+67  -3.86027e+65  -4.15322e+65   -3.3704e+66
   2.50773e+60  -1.39871e+47   1.24842e+60   1.46031e+67   3.0932e+133  6.42192e+198   1.35025e+67   1.53304e+66   1.93936e+66   1.11307e+67   6.25497e+65   6.36585e+65  -3.14562e+66
   1.83402e+60  -1.39611e+47   1.84401e+60   2.06423e+67 -5.42943e+132 -8.44492e+199   2.07733e+67   1.77018e+66  -1.80669e+66   2.06788e+67   9.48127e+65   6.02411e+65   4.63073e+65
   1.81396e+60   6.55659e+58   1.83126e+60   2.34762e+67  2.79007e+133 -7.82235e+199   2.28742e+67   2.67964e+66   -1.2042e+66   2.20008e+67   -5.1495e+65  -9.01049e+65    5.0634e+65
   2.50411e+60   3.37427e+58   2.01128e+60   3.56483e+67  2.83056e+134  6.35969e+200   3.14284e+67   6.66928e+66   4.39049e+66   2.45885e+67  -5.49954e+64   -1.2608e+66  -4.07133e+66
   2.52436e+60  -1.77341e+47   2.01641e+60    3.1834e+67   2.0652e+134  3.57599e+200   2.84057e+67   5.19629e+66   3.57957e+66   2.30581e+67   9.56529e+65   2.42661e+65    -3.669e+66
   1.78949e+60   3.45974e+58   1.15182e+60   4.82042e+66 -3.44999e+133  3.45408e+199   7.59844e+66  -1.28654e+66  -2.77226e+66   8.87922e+66   5.04383e+65   5.61776e+65   1.20727e+66
   1.74785e+60   7.47831e+58   1.11766e+60   6.12841e+66 -2.41625e+133  9.86866e+197    7.8562e+66   9.93487e+64  -2.49418e+66   8.52324e+66  -7.49995e+65  -5.44556e+65   1.62601e+66
   2.46179e+60   2.91004e+58   1.19408e+60   1.75564e+67  7.21132e+133  7.87616e+199    1.5366e+67   4.45552e+66   2.14805e+66   1.09528e+67  -6.73377e+65  -2.27526e+65  -3.04628e+66
   2.49449e+60   1.23321e+58   1.23494e+60   1.47997e+67  3.28683e+133   1.2678e+199   1.36441e+67   2.23689e+66   1.56198e+66   1.10008e+67    5.3328e+65   8.78806e+65   -3.3704e+66
   1.81396e+60   6.55659e+58   1.83126e+60   2.31708e+67  2.20942e+133 -1.03267e+200    2.2689e+67   2.61471e+66  -1.37976e+66   2.19358e+67   1.05829e+66   1.06308e+65    5.0634e+65
   1.76059e+60   1.32303e+59   1.79718e+60   2.50013e+67  6.26415e+133 -9.37665e+199   2.37154e+67   4.11169e+66  -9.90601e+65   2.18802e+67  -1.96086e+65  -1.04775e+66   6.62713e+65
   2.45414e+60   7.60519e+58    1.9725e+60   3.66927e+67  3.15995e+134  7.23368e+200   3.20993e+67   8.52388e+66   3.80309e+66   2.43658e+67   1.42899e+65  -8.25344e+65  -4.00959e+66
   2.50411e+60   3.37427e+58   2.01128e+60   3.34135e+67  2.24991e+134  3.64228e+200   2.98575e+67   6.19417e+66   3.10594e+66   2.41134e+67   1.34956e+66   3.28709e+65  -4.07133e+66
   2.46179e+60  -2.91004e+58   1.19408e+60   8.45213e+65 -7.56478e+132  4.40163e+198   2.87735e+66   9.02752e+65  -1.40472e+66   1.34718e+66   6.73377e+65   1.27888e+66   1.87922e+66
   2.49449e+60  -1.23321e+58   1.23494e+60   1.57337e+66  -7.9061e+132  4.49624e+198   3.22205e+66  -5.74996e+65  -1.24991e+66   3.39828e+66   -5.3328e+65  -2.54288e+65    1.4402e+66
   3.30131e+60   2.31523e+58   1.26737e+60   3.26237e+66 -9.51873e+132 -1.96214e+199   4.49019e+66  -2.67049e+66    2.1755e+66   3.75736e+66  -4.30113e+65  -1.20244e+66  -4.67331e+65
   3.27999e+60    3.8836e+58   1.20643e+60   1.14119e+67  4.19751e+133  4.91652e+199   9.39447e+66   3.91017e+66   3.90808e+66   3.59364e+66   6.06213e+65   3.30733e+65  -9.61907e+65
   2.45414e+60  -7.60519e+58    1.9725e+60   9.87031e+66 -3.30276e+132 -5.58026e+199   1.00362e+67   2.82147e+66  -1.89931e+66   8.94815e+66  -1.42899e+65   1.98214e+66   1.49873e+66
   2.50411e+60  -3.37427e+58   2.01128e+60   5.44344e+66 -3.05534e+133 -2.10613e+198   7.75786e+66   2.47774e+65  -2.84046e+66   8.03612e+66  -1.34956e+66   2.78645e+65   2.66749e+66
   3.33691e+60   1.09362e+58   2.08408e+60   8.07297e+66 -1.51364e+133 -8.76399e+199   8.96154e+66  -1.64776e+66   1.12557e+66   8.59515e+66  -2.85416e+66   2.64086e+65   7.59954e+65
   3.26428e+60   4.68438e+57   2.04499e+60   2.13775e+67  1.28612e+134  2.13115e+200   1.81214e+67   6.02885e+66    3.9541e+66   1.13946e+67  -1.81783e+66   1.96758e+66  -1.34239e+66
   2.49449e+60  -1.23321e+58   1.23494e+60   2.73066e+66 -6.44179e+132  2.88257e+198   3.72804e+66  -3.28958e+65    -5.847e+65   3.64432e+66   3.86027e+65   1.03984e+66    1.4402e+66
   2.50773e+60  -1.39871e+47   1.24842e+60    1.7315e+66 -1.04047e+133  6.48216e+198   3.66098e+66  -1.20344e+66  -7.97119e+65   3.73206e+66  -6.25497e+65  -6.36585e+65   1.76105e+66
     3.313e+60  -1.72964e+47   1.28402e+60   1.27651e+66 -2.13554e+133  -4.1302e+199   4.79425e+66  -4.81782e+66     2.459e+66   3.63533e+66  -5.52414e+65  -7.86668e+65  -9.60959e+64
   3.30131e+60   2.31523e+58   1.26737e+60   5.21069e+66 -4.11124e+132 -2.99736e+199   5.59129e+66  -2.25628e+66    3.2954e+66   4.17157e+66   2.47209e+64   8.89757e+65  -4.67331e+65
   2.50411e+60  -3.37427e+58   2.01128e+60    7.6782e+66 -1.88234e+133 -5.02302e+197   8.81919e+66   7.22881e+65  -1.55591e+66   8.51123e+66   5.49954e+64   1.86815e+66   2.66749e+66
   2.52436e+60  -1.77341e+47   2.01641e+60   6.40078e+66  -3.0179e+133  1.98172e+199   8.43499e+66   -2.1076e+65  -1.82749e+66   8.43903e+66  -9.56529e+65  -2.42661e+65   3.51987e+66
   3.36686e+60  -2.16581e+47   2.09133e+60   8.34437e+66 -1.86867e+133 -1.05873e+200   9.39762e+66   -3.3152e+66   2.80735e+66   8.85223e+66  -1.41499e+66   -3.4235e+65   1.66273e+66
   3.33691e+60   1.09362e+58   2.08408e+60   1.25568e+67  2.17468e+133 -3.34769e+199   1.16588e+67  -6.94503e+65    3.7029e+66   9.54841e+66  -8.37851e+65   1.76846e+66   7.59954e+65
   2.50773e+60  -1.39871e+47   1.24842e+60    1.7315e+66 -1.04047e+133  6.48216e+198   3.66098e+66  -1.20344e+66  -7.97119e+65   3.73206e+66   6.25497e+65   6.36585e+65   1.76105e+66
   2.49449e+60   1.23321e+58   1.23494e+60   2.73066e+66 -6.44179e+132  2.88257e+198   3.72804e+66  -3.28958e+65    -5.847e+65   3.64432e+66  -3.86027e+65  -1.03984e+66    1.4402e+66
   3.30131e+60  -2.31523e+58   1.26737e+60   5.21069e+66 -4.11124e+132 -2.99736e+199   5.59129e+66  -2.25628e+66    3.2954e+66   4.17157e+66  -2.47209e+64  -8.89757e+65  -4.67331e+65
     3.313e+60  -1.72964e+47   1.28402e+60   1.27651e+66 -2.13554e+133  -4.1302e+199   4.79425e+66  -4.81782e+66     2.459e+66   3.63533e+66   5.52414e+65   7.86668e+65  -9.60959e+64
   2.52436e+60  -1.77341e+47   2.01641e+60   6.40078e+66  -3.0179e+133  1.98172e+199   8.43499e+66   -2.1076e+65  -1.82749e+66   8.43903e+66   9.56529e+65   2.42661e+65   3.51987e+66
   2.50411e+60   3.37427e+58   2.01128e+60    7.6782e+66 -1.88234e+133 -5.02302e+197   8.81919e+66   7.22881e+65  -1.55591e+66   8.51123e+66  -5.49954e+64  -1.86815e+66   2.66749e+66
   3.33691e+60  -1.09362e+58   2.08408e+60   1.25568e+67  2.17468e+133 -3.34769e+199   1.16588e+67  -6.94503e+65    3.7029e+66   9.54841e+66   8.37851e+65  -1.76846e+66   7.59954e+65
   3.36686e+60  -2.16581e+47   2.09133e+60   8.34437e+66 -1.86867e+133 -1.05873e+200   9.39762e+66   -3.3152e+66   2.80735e+66   8.85223e+66   1.41499e+66    3.4235e+65   1.66273e+66
   2.49449e+60   1.23321e+58   1.23494e+60   1.57337e+66  -7.9061e+132  4.49624e+198   3.22205e+66  -5.74996e+65  -1.24991e+66   3.39828e+66    5.3328e+65   2.54288e+65    1.4402e+66
   2.46179e+60   2.91004e+58   1.19408e+60   8.45213e+65 -7.56478e+132  4.40163e+198   2.87735e+66   9.02752e+65  -1.40472e+66   1.34718e+66  -6.73377e+65  -1.27888e+66   1.87922e+66
   3.27999e+60   -3.8836e+58   1.20643e+60   1.14119e+67  4.19751e+133  4.91652e+199   9.39447e+66   3.91017e+66   3.90808e+66   3.59364e+66  -6.06213e+65  -3.30733e+65  -9.61907e+65
   3.30131e+60  -2.31523e+58   1.26737e+60   3.26237e+66 -9.51873e+132 -1.96214e+199   4.49019e+66  -2.67049e+66    2.1755e+66   3.75736e+66   4.30113e+65   1.20244e+66  -4.67331e+65
   2.50411e+60   3.37427e+58   2.01128e+60   5.44344e+66 -3.05534e+133 -2.10613e+198   7.75786e+66   2.47774e+65  -2.84046e+66   8.03612e+66   1.34956e+66  -2.78645e+65   2.66749e+66
   2.45414e+60   7.60519e+58    1.9725e+60   9.87031e+66 -3.30276e+132 -5.58026e+199   1.00362e+67   2.82147e+66  -1.89931e+66   8.94815e+66   1.42899e+65  -1.98214e+66   1.49873e+66
   3.26428e+60  -4.68438e+57   2.04499e+60   2.13775e+67  1.28612e+134  2.13115e+200   1.81214e+67   6.02885e+66    3.9541e+66   1.13946e+67   1.81783e+66  -1.96758e+66  -1.34239e+66
   3.33691e+60  -1.09362e+58   2.08408e+60   8.07297e+66 -1.51364e+133 -8.76399e+199   8.96154e+66  -1.64776e+66   1.12557e+66   8.59515e+66   2.85416e+66  -2.64086e+65   7.59954e+65
   3.27999e+60    3.8836e+58   1.20643e+60   1.35383e+67  4.62942e+133   3.4564e+199   1.17043e+67   4.36224e+66   4.36014e+66   4.81588e+66   6.06213e+65   1.83323e+66   3.31715e+66
   3.30131e+60   2.31523e+58   1.26737e+60   1.96191e+66 -2.48426e+133  -4.3212e+199   5.35646e+66  -2.94696e+66   1.89903e+66   3.00985e+66  -4.30113e+65  -6.65448e+65   3.93246e+66
   4.20125e+60   7.00028e+58   1.29481e+60  -3.32892e+67  1.26367e+134 -3.68259e+199   3.13337e+67  -2.82068e+67  -5.97949e+65  -4.48448e+66   2.07332e+64  -9.92988e+65   4.32282e+66
   4.18875e+60   1.38575e+59   1.22694e+60  -2.90301e+67  4.87418e+133  1.04916e+200   2.81781e+67  -2.51036e+67   3.07527e+65  -4.23408e+66   1.16069e+66   1.50569e+66   6.70167e+66
   3.26428e+60   4.68438e+57   2.04499e+60  -1.08725e+67  -1.6463e+134  4.09371e+200   1.68179e+67  -8.27451e+65   -2.9022e+66  -7.14284e+66  -1.81783e+66   2.72771e+66   1.35251e+67
   3.33691e+60   1.09362e+58   2.08408e+60  -5.91589e+66  -1.6753e+134  2.79964e+200   1.42312e+67  -4.62177e+66  -1.84844e+66   5.54315e+65  -2.85416e+66   3.32657e+65   1.28152e+67
   4.42487e+60   5.70666e+58   2.10326e+60  -4.17392e+67  2.00643e+134  1.86158e+200   3.92622e+67  -3.00032e+67  -4.67432e+66  -7.06167e+66  -1.07814e+66  -2.98904e+66   1.32056e+67
   4.38912e+60    1.0151e+59   1.99386e+60  -5.40131e+67  5.50276e+134 -1.52199e+201   4.86532e+67  -3.04149e+67  -7.28373e+66  -1.63145e+67   6.18192e+64  -5.93991e+65   1.69096e+67
   3.30131e+60   2.31523e+58   1.26737e+60   3.91023e+66  -2.3482e+133 -6.74354e+199   6.22671e+66  -2.53275e+66   3.01892e+66   3.42406e+66   2.47209e+64   1.42674e+66   3.93246e+66
     3.313e+60  -1.72964e+47   1.28402e+60   1.12151e+66 -3.78306e+133 -7.64047e+199   6.25207e+66  -4.85077e+66   2.42605e+66   3.54624e+66  -5.52414e+65  -7.86668e+65   4.06691e+66
   4.20639e+60  -2.07221e+47   1.31903e+60  -3.80377e+67  1.84908e+134 -1.50649e+200   3.55241e+67  -3.17864e+67  -1.47232e+66  -4.77895e+66  -2.42544e+65   -1.1442e+66   4.41198e+66
   4.20125e+60   7.00028e+58   1.29481e+60  -3.29161e+67  1.16415e+134 -4.18583e+198   3.10975e+67  -2.81274e+67  -3.83465e+65  -4.40515e+66   3.68617e+65   1.06921e+66   4.32282e+66
   3.33691e+60   1.09362e+58   2.08408e+60  -1.43204e+66 -1.75412e+134 -1.51865e+200   1.33215e+67  -3.66851e+66   7.28895e+65   1.50757e+66  -8.37851e+65   1.83704e+66   1.28152e+67
   3.36686e+60  -2.16581e+47   2.09133e+60  -3.97066e+66 -1.92244e+134 -2.57204e+199   1.44225e+67  -5.93336e+66   1.89188e+65   1.77351e+66  -1.41499e+66   -3.4235e+65   1.33721e+67
   4.45721e+60    -2.624e+47   2.11903e+60  -4.33177e+67  1.76653e+134 -4.49013e+199   4.12283e+67   -3.2909e+67  -3.81717e+66  -6.59162e+66  -1.52761e+66  -7.45172e+65   1.37172e+67
   4.42487e+60   5.70666e+58   2.10326e+60  -3.84462e+67  1.08332e+134 -2.54994e+198   3.70105e+67  -2.93031e+67  -2.78149e+66  -6.36158e+66  -9.16452e+65   1.43421e+66   1.32056e+67
     3.313e+60  -1.72964e+47   1.28402e+60   1.12151e+66 -3.78306e+133 -7.64047e+199   6.25207e+66  -4.85077e+66   2.42605e+66   3.54624e+66   5.52414e+65   7.86668e+65   4.06691e+66
   3.30131e+60  -2.31523e+58   1.26737e+60   3.91023e+66  -2.3482e+133 -6.74354e+199   6.22671e+66  -2.53275e+66   3.01892e+66   3.42406e+66  -2.47209e+64  -1.42674e+66   3.93246e+66
   4.20125e+60  -7.00028e+58   1.29481e+60  -3.29161e+67  1.16415e+134 -4.18583e+198   3.10975e+67  -2.81274e+67  -3.83465e+65  -4.40515e+66  -3.68617e+65  -1.06921e+66   4.32282e+66
   4.20639e+60  -2.07221e+47   1.31903e+60  -3.80377e+67  1.84908e+134 -1.50649e+200   3.55241e+67  -3.17864e+67  -1.47232e+66  -4.77895e+66   2.42544e+65    1.1442e+66   4.41198e+66
   3.36686e+60  -2.16581e+47   2.09133e+60  -3.97066e+66 -1.92244e+134 -2.57204e+199   1.44225e+67  -5.93336e+66   1.89188e+65   1.77351e+66   1.41499e+66    3.4235e+65   1.33721e+67
   3.33691e+60  -1.09362e+58   2.08408e+60  -1.43204e+66 -1.75412e+134 -1.51865e+200   1.33215e+67  -3.66851e+66   7.28895e+65   1.50757e+66   8.37851e+65  -1.83704e+66   1.28152e+67
   4.42487e+60  -5.70666e+58   2.10326e+60  -3.84462e+67  1.08332e+134 -2.54994e+198   3.70105e+67  -2.93031e+67  -2.78149e+66  -6.36158e+66   9.16452e+65  -1.43421e+66   1.32056e+67
   4.45721e+60    -2.624e+47   2.11903e+60  -4.33177e+67  1.76653e+134 -4.49013e+199   4.12283e+67   -3.2909e+67  -3.81717e+66  -6.59162e+66   1.52761e+66   7.45172e+65   1.37172e+67
   3.30131e+60  -2.31523e+58   1.26737e+60   1.96191e+66 -2.48426e+133  -4.3212e+199   5.35646e+66  -2.94696e+66   1.89903e+66   3.00985e+66   4.30113e+65   6.65448e+65   3.93246e+66
   3.27999e+60   -3.8836e+58   1.20643e+60   1.35383e+67  4.62942e+133   3.4564e+199   1.17043e+67   4.36224e+66   4.36014e+66   4.81588e+66  -6.06213e+65  -1.83323e+66   3.31715e+66
   4.18875e+60  -1.38575e+59   1.22694e+60  -2.90301e+67  4.87418e+133  1.04916e+200   2.81781e+67  -2.51036e+67   3.07527e+65  -4.23408e+66  -1.16069e+66  -1.50569e+66   6.70167e+66
   4.20125e+60  -7.00028e+58   1.29481e+60  -3.32892e+67  1.26367e+134 -3.68259e+199   3.13337e+67  -2.82068e+67  -5.97949e+65  -4.48448e+66  -2.07332e+64   9.92988e+65   4.32282e+66
   3.33691e+60  -1.09362e+58   2.08408e+60  -5.91589e+66  -1.6753e+134  2.79964e+200   1.42312e+67  -4.62177e+66  -1.84844e+66   5.54315e+65   2.85416e+66  -3.32657e+65   1.28152e+67
   3.26428e+60  -4.68438e+57   2.04499e+60  -1.08725e+67  -1.6463e+134  4.09371e+200   1.68179e+67  -8.27451e+65   -2.9022e+66  -7.14284e+66   1.81783e+66  -2.72771e+66   1.35251e+67
   4.38912e+60   -1.0151e+59   1.99386e+60  -5.40131e+67  5.50276e+134 -1.52199e+201   4.86532e+67  -3.04149e+67  -7.28373e+66  -1.63145e+67  -6.18192e+64   5.93991e+65   1.69096e+67
   4.42487e+60  -5.70666e+58   2.10326e+60  -4.17392e+67  2.00643e+134  1.86158e+200   3.92622e+67  -3.00032e+67  -4.67432e+66  -7.06167e+66   1.07814e+66   2.98904e+66   1.32056e+67
   4.18875e+60   1.38575e+59   1.22694e+60  -1.74519e+67 -1.27399e+134   -5.276e+199   2.07838e+67   -2.2642e+67   2.76904e+66   2.42111e+66   1.16069e+66   2.24315e+66   3.19517e+66
   4.20125e+60   7.00028e+58   1.29481e+60  -1.53993e+67 -2.02113e+134 -4.50341e+200   2.09583e+67  -2.44034e+67   3.20541e+66   5.79868e+66   2.07332e+64   -4.8058e+65   8.59375e+65
   5.02789e+60   1.27699e+59   1.39083e+60  -9.94988e+67  1.77149e+135 -8.39782e+201   9.01583e+67  -7.81915e+67  -9.22655e+66  -1.20807e+67    1.1506e+66  -1.95118e+66    9.4573e+65
    5.0233e+60   2.53924e+59   1.29183e+60  -9.75895e+67  1.86042e+135 -9.43938e+201   8.75403e+67  -7.41529e+67  -8.82063e+66   -1.4616e+67  -1.89357e+66   7.72552e+65  -1.48975e+66
   4.38912e+60    1.0151e+59   1.99386e+60   2.12244e+66 -7.37796e+134 -3.04895e+201   2.72452e+67  -1.84806e+67    4.6506e+66   1.59524e+67   6.18192e+64   3.70915e+66    2.0432e+67
   4.42487e+60   5.70666e+58   2.10326e+60  -2.21707e+67 -4.62406e+134  6.26896e+200    3.0886e+67   -2.5843e+67  -5.14085e+65   4.18639e+66  -1.07814e+66   -3.1987e+66   1.88137e+67
   5.63154e+60   9.87591e+58   2.19745e+60  -8.31666e+67  2.70574e+134  1.01936e+200   8.15237e+67  -7.47193e+67   3.33983e+65  -8.78125e+66  -6.65784e+65   1.01975e+65   1.89001e+67
   5.58851e+60   2.89419e+59   2.15791e+60  -5.49116e+67 -9.48337e+134  -8.2554e+200   6.29572e+67  -6.50796e+67   6.34096e+66   3.82708e+66  -3.70995e+66   7.00982e+66   1.57471e+67
   4.20125e+60   7.00028e+58   1.29481e+60  -1.50262e+67 -2.09437e+134 -4.30442e+200    2.0862e+67  -2.43241e+67    3.4199e+66   5.87801e+66   3.68617e+65   1.58162e+66   8.59375e+65
   4.20639e+60  -2.07221e+47   1.31903e+60  -2.30207e+67 -1.56961e+134 -1.56299e+200    2.6209e+67  -2.85938e+67   1.72028e+66   3.85288e+66  -2.42544e+65   -1.1442e+66   1.69197e+66
    5.0422e+60  -2.47268e+47    1.4116e+60  -8.99759e+67  1.33707e+135 -5.24329e+201   8.22106e+67  -7.25315e+67  -7.06265e+66  -1.03817e+67   -6.7612e+65  -9.81443e+65  -3.14153e+65
   5.02789e+60   1.27699e+59   1.39083e+60  -9.91141e+67  1.74429e+135 -8.18647e+201   8.98851e+67  -7.81097e+67  -9.00544e+66   -1.1999e+67   6.91135e+65   1.74438e+66    9.4573e+65
   4.42487e+60   5.70666e+58   2.10326e+60  -1.88777e+67 -5.07084e+134  -6.6604e+200   2.93845e+67  -2.51429e+67   1.37875e+66   4.88648e+66  -9.16452e+65   1.22455e+66   1.88137e+67
   4.45721e+60    -2.624e+47   2.11903e+60   -1.5318e+67 -5.70008e+134 -1.10104e+201   2.83663e+67  -2.69563e+67   2.13553e+66   9.50271e+66  -1.52761e+66  -7.45172e+65   1.65435e+67
   5.60738e+60   -3.0869e+47   2.25407e+60  -8.64482e+67  8.83839e+134 -1.30525e+201   8.11754e+67  -7.17816e+67  -9.04718e+66  -5.61945e+66    1.1416e+66   -2.6749e+66   1.45374e+67
   5.63154e+60   9.87591e+58   2.19745e+60  -1.07141e+68  2.00354e+135 -1.00311e+202   9.73425e+67  -7.98162e+67  -1.34464e+67  -1.38781e+67   2.50885e+66  -7.05177e+65   1.89001e+67
   4.20639e+60  -2.07221e+47   1.31903e+60  -2.30207e+67 -1.56961e+134 -1.56299e+200    2.6209e+67  -2.85938e+67   1.72028e+66   3.85288e+66   2.42544e+65    1.1442e+66   1.69197e+66
   4.20125e+60  -7.00028e+58   1.29481e+60  -1.50262e+67 -2.09437e+134 -4.30442e+200    2.0862e+67  -2.43241e+67    3.4199e+66   5.87801e+66  -3.68617e+65  -1.58162e+66   8.59375e+65
   5.02789e+60  -1.27699e+59   1.39083e+60  -9.91141e+67  1.74429e+135 -8.18647e+201   8.98851e+67  -7.81097e+67  -9.00544e+66   -1.1999e+67  -6.91135e+65  -1.74438e+66    9.4573e+65
    5.0422e+60  -2.47268e+47    1.4116e+60  -8.99759e+67  1.33707e+135 -5.24329e+201   8.22106e+67  -7.25315e+67  -7.06265e+66  -1.03817e+67    6.7612e+65   9.81443e+65  -3.14153e+65
   4.45721e+60    -2.624e+47   2.11903e+60   -1.5318e+67 -5.70008e+134 -1.10104e+201   2.83663e+67  -2.69563e+67   2.13553e+66   9.50271e+66   1.52761e+66   7.45172e+65   1.65435e+67
   4.42487e+60  -5.70666e+58   2.10326e+60  -1.88777e+67 -5.07084e+134  -6.6604e+200   2.93845e+67  -2.51429e+67   1.37875e+66   4.88648e+66   9.16452e+65  -1.22455e+66   1.88137e+67
   5.63154e+60  -9.87591e+58   2.19745e+60  -1.07141e+68  2.00354e+135 -1.00311e+202   9.73425e+67  -7.98162e+67  -1.34464e+67  -1.38781e+67  -2.50885e+66   7.05177e+65   1.89001e+67
   5.60738e+60   -3.0869e+47   2.25407e+60  -8.64482e+67  8.83839e+134 -1.30525e+201   8.11754e+67  -7.17816e+67  -9.04718e+66  -5.61945e+66   -1.1416e+66    2.6749e+66   1.45374e+67
   4.20125e+60  -7.00028e+58   1.29481e+60  -1.53993e+67 -2.02113e+134 -4.50341e+200   2.09583e+67  -2.44034e+67   3.20541e+66   5.79868e+66  -2.07332e+64    4.8058e+65   8.59375e+65
   4.18875e+60  -1.38575e+59   1.22694e+60  -1.74519e+67 -1.27399e+134   -5.276e+199   2.07838e+67   -2.2642e+67   2.76904e+66   2.42111e+66  -1.16069e+66  -2.24315e+66   3.19517e+66
    5.0233e+60  -2.53924e+59   1.29183e+60  -9.75895e+67  1.86042e+135 -9.43938e+201   8.75403e+67  -7.41529e+67  -8.82063e+66   -1.4616e+67   1.89357e+66  -7.72552e+65  -1.48975e+66
   5.02789e+60  -1.27699e+59   1.39083e+60  -9.94988e+67  1.77149e+135 -8.39782e+201   9.01583e+67  -7.81915e+67  -9.22655e+66  -1.20807e+67   -1.1506e+66   1.95118e+66    9.4573e+65
   4.42487e+60  -5.70666e+58   2.10326e+60  -2.21707e+67 -4.62406e+134  6.26896e+200    3.0886e+67   -2.5843e+67  -5.14085e+65   4.18639e+66   1.07814e+66    3.1987e+66   1.88137e+67
   4.38912e+60   -1.0151e+59   1.99386e+60   2.12244e+66 -7.37796e+134 -3.04895e+201   2.72452e+67  -1.84806e+67    4.6506e+66   1.59524e+67  -6.18192e+64  -3.70915e+66    2.0432e+67
   5.58851e+60  -2.89419e+59   2.15791e+60  -5.49116e+67 -9.48337e+134  -8.2554e+200   6.29572e+67  -6.50796e+67   6.34096e+66   3.82708e+66   3.70995e+66  -7.00982e+66   1.57471e+67
   5.63154e+60  -9.87591e+58   2.19745e+60  -8.31666e+67  2.70574e+134  1.01936e+200   8.15237e+67  -7.47193e+67   3.33983e+65  -8.78125e+66   6.65784e+65  -1.01975e+65   1.89001e+67
   6.53862e+59  -1.01016e+59    4.8442e+59   2.28312e+67  8.19013e+133 -7.52062e+198    2.0961e+67   1.19821e+67   -4.4013e+64   1.08931e+67   2.18451e+65   6.66984e+65   6.86455e+66
   6.86385e+59    -4.918e+58   4.96889e+59   2.17197e+67  7.63299e+133 -3.50005e+199    1.9885e+67   1.04971e+67   -2.8033e+65   1.15028e+67  -9.81163e+65   4.26494e+64   6.10618e+66
   1.19468e+60   -3.5808e+58   5.69758e+59   1.86106e+67  7.85465e+133  1.52033e+199   1.63648e+67   7.46136e+66   3.07348e+65   1.08419e+67  -8.67595e+65  -3.80365e+65   2.66017e+66
   1.16509e+60   -7.4429e+58   5.48335e+59   1.92337e+67  8.89002e+133  3.47835e+199   1.67641e+67   8.66556e+66   4.39825e+65   1.01283e+67   2.22474e+65    2.4397e+65   2.65033e+66
   5.78422e+59  -1.38162e+59   8.50346e+59   3.94771e+67  3.30405e+134  3.10669e+200   3.50433e+67    1.5521e+67   1.09564e+66   2.28604e+67   -4.0587e+65   1.81688e+65    8.1404e+66
   6.24159e+59  -6.09346e+58   8.75934e+59   3.41237e+67  2.18708e+134 -5.47599e+199   3.07525e+67   1.31342e+67  -4.24838e+64   2.10319e+67  -1.60548e+66  -5.52191e+65   7.29358e+66
   1.15758e+60  -4.70339e+58   1.02174e+60   3.16194e+67  2.20268e+134  1.35393e+200   2.79199e+67    1.0227e+67    8.9288e+65   2.04995e+67  -1.40346e+66  -2.06999e+65   3.84757e+66
   1.11665e+60  -1.08728e+59   1.00346e+60   3.64844e+67  3.24899e+134   4.9161e+200   3.17209e+67    1.2333e+67   1.92716e+66   2.22242e+67  -3.13391e+65    5.2688e+65   3.92619e+66
   6.86385e+59    -4.918e+58   4.96889e+59   2.24126e+67   8.9164e+133  7.99621e+198   2.03263e+67   1.06445e+67   1.17945e+65   1.16501e+67    -4.016e+64   4.33575e+65   6.10618e+66
   6.98989e+59  -4.08827e+46   5.01084e+59   1.97446e+67  5.13069e+133 -3.01511e+199   1.83995e+67   8.95203e+66  -4.49264e+65   1.12418e+67  -5.95496e+65   -1.9817e+65   6.31378e+66
   1.20614e+60   -6.1529e+46   5.75634e+59   1.60941e+67  5.29433e+133 -7.66776e+197   1.43554e+67   5.59024e+66   3.81425e+64   1.04657e+67  -5.41669e+65    -2.776e+65   2.40926e+66
   1.19468e+60   -3.5808e+58   5.69758e+59   1.93444e+67  9.01458e+133   5.4946e+199    1.6854e+67   7.61736e+66   7.29145e+65   1.09979e+67  -1.13128e+64   3.54146e+65   2.66017e+66
   6.24159e+59  -6.09346e+58   8.75934e+59   3.83741e+67  3.40211e+134  5.89951e+200   3.36506e+67   1.40379e+67   2.40067e+66   2.19356e+67  -6.02767e+65   7.19987e+65   7.29358e+66
   6.48672e+59  -5.52783e+46   8.74595e+59   3.82379e+67  3.21958e+134  5.33044e+200   3.37665e+67   1.28837e+67   2.37172e+66   2.29825e+67   -1.1581e+66   6.32613e+64   7.60664e+66
   1.18319e+60  -8.12366e+46   1.03179e+60   3.47254e+67  2.90387e+134  5.53341e+200   3.02566e+67   9.55122e+66   2.93841e+66   2.22357e+67  -1.20973e+66  -4.74682e+65   3.70211e+66
   1.15758e+60  -4.70339e+58   1.02174e+60   3.54438e+67  3.20002e+134  6.70413e+200   3.05984e+67   1.10401e+67   3.09116e+66   2.13126e+67  -6.79374e+65   1.82044e+65   3.84757e+66
   6.98989e+59  -4.08827e+46   5.01084e+59   1.97446e+67  5.13069e+133 -3.01511e+199   1.83995e+67   8.95203e+66  -4.49264e+65   1.12418e+67   5.95496e+65    1.9817e+65   6.31378e+66
   6.86385e+59     4.918e+58   4.96889e+59   2.24126e+67   8.9164e+133  7.99621e+198   2.03263e+67   1.06445e+67   1.17945e+65   1.16501e+67     4.016e+64  -4.33575e+65   6.10618e+66
   1.19468e+60    3.5808e+58   5.69758e+59   1.93444e+67  9.01458e+133   5.4946e+199    1.6854e+67   7.61736e+66   7.29145e+65   1.09979e+67   1.13128e+64  -3.54146e+65   2.66017e+66
   1.20614e+60   -6.1529e+46   5.75634e+59   1.60941e+67  5.29433e+133 -7.66776e+197   1.43554e+67   5.59024e+66   3.81425e+64   1.04657e+67   5.41669e+65     2.776e+65   2.40926e+66
   6.48672e+59  -5.52783e+46   8.74595e+59   3.82379e+67  3.21958e+134  5.33044e+200   3.37665e+67   1.28837e+67   2.37172e+66   2.29825e+67    1.1581e+66  -6.32613e+64   7.60664e+66
   6.24159e+59   6.09346e+58   8.75934e+59   3.83741e+67  3.40211e+134  5.89951e+200   3.36506e+67   1.40379e+67   2.40067e+66   2.19356e+67   6.02767e+65  -7.19987e+65   7.29358e+66
   1.15758e+60   4.70339e+58   1.02174e+60   3.54438e+67  3.20002e+134  6.70413e+200   3.05984e+67   1.10401e+67   3.09116e+66   2.13126e+67   6.79374e+65  -1.82044e+65   3.84757e+66
   1.18319e+60  -8.12366e+46   1.03179e+60   3.47254e+67  2.90387e+134  5.53341e+200   3.02566e+67   9.55122e+66   2.93841e+66   2.22357e+67   1.20973e+66   4.74682e+65   3.70211e+66
   6.86385e+59     4.918e+58   4.96889e+59   2.17197e+67  7.63299e+133 -3.50005e+199    1.9885e+67   1.04971e+67   -2.8033e+65   1.15028e+67   9.81163e+65  -4.26494e+64   6.10618e+66
   6.53862e+59   1.01016e+59    4.8442e+59   2.28312e+67  8.19013e+133 -7.52062e+198    2.0961e+67   1.19821e+67   -4.4013e+64   1.08931e+67  -2.18451e+65  -6.66984e+65   6.86455e+66
   1.16509e+60    7.4429e+58   5.48335e+59   1.92337e+67  8.89002e+133  3.47835e+199   1.67641e+67   8.66556e+66   4.39825e+65   1.01283e+67  -2.22474e+65   -2.4397e+65   2.65033e+66
   1.19468e+60    3.5808e+58   5.69758e+59   1.86106e+67  7.85465e+133  1.52033e+199   1.63648e+67   7.46136e+66   3.07348e+65   1.08419e+67   8.67595e+65   3.80365e+65   2.66017e+66
   6.24159e+59   6.09346e+58   8.75934e+59   3.41237e+67  2.18708e+134 -5.47599e+199   3.07525e+67   1.31342e+67  -4.24838e+64   2.10319e+67   1.60548e+66   5.52191e+65   7.29358e+66
   5.78422e+59   1.38162e+59   8.50346e+59   3.94771e+67  3.30405e+134  3.10669e+200   3.50433e+67    1.5521e+67   1.09564e+66   2.28604e+67    4.0587e+65  -1.81688e+65    8.1404e+66
   1.11665e+60   1.08728e+59   1.00346e+60   3.64844e+67  3.24899e+134   4.9161e+200   3.17209e+67    1.2333e+67   1.92716e+66   2.22242e+67   3.13391e+65   -5.2688e+65   3.92619e+66
   1.15758e+60   4.70339e+58   1.02174e+60   3.16194e+67  2.20268e+134  1.35393e+200   2.79199e+67    1.0227e+67    8.9288e+65   2.04995e+67   1.40346e+66   2.06999e+65   3.84757e+66
   1.16509e+60   -7.4429e+58   5.48335e+59   1.51047e+67 -5.06157e+131 -3.67931e+198   1.51214e+67   7.78774e+66  -4.38001e+65   7.75492e+66   2.22474e+65   5.17375e+65   7.33311e+66
   1.19468e+60   -3.5808e+58   5.69758e+59   1.33288e+67 -1.53833e+133 -6.59598e+197   1.38939e+67   6.33846e+66  -8.15547e+65   7.80587e+66  -8.67595e+65   -2.4949e+65   7.24639e+66
   1.80004e+60  -1.96659e+58   6.22381e+59   1.06393e+67  1.18185e+133  8.74994e+197   1.00686e+67   3.25883e+66   1.46411e+65    7.2341e+66  -4.57419e+65  -4.63741e+65   3.58722e+66
   1.77543e+60  -4.20549e+58   5.96423e+59   1.38992e+67  3.47036e+133  1.94948e+199    1.2589e+67   5.56109e+66   8.39446e+65   7.49863e+66   3.83369e+65   3.03124e+65   4.20965e+66
   1.11665e+60  -1.08728e+59   1.00346e+60   2.63325e+67  9.07742e+133 -3.35856e+199   2.45485e+67   1.01748e+67  -2.31108e+65   1.63889e+67  -3.13391e+65   7.39971e+65   8.31829e+66
   1.15758e+60  -4.70339e+58   1.02174e+60   2.75147e+67  9.59438e+133 -2.78847e+199   2.57122e+67   9.35437e+66   2.02185e+64   1.81401e+67  -1.40346e+66  -2.76175e+65   8.50032e+66
   1.78949e+60  -3.45974e+58   1.15182e+60   2.62017e+67  1.34538e+134   1.4363e+200   2.34945e+67   6.56737e+66   1.77337e+66    1.7861e+67  -1.26203e+66  -1.02613e+66   4.84115e+66
   1.74785e+60  -7.47831e+58   1.11766e+60   2.65035e+67  1.53517e+134  1.96262e+200    2.3429e+67   8.24076e+66   1.83753e+66   1.64252e+67  -4.21246e+65  -9.98656e+63   5.19483e+66
   1.19468e+60   -3.5808e+58   5.69758e+59   1.40626e+67 -6.72958e+132 -1.29254e+198   1.42999e+67   6.49447e+66   -3.9375e+65   7.96188e+66  -1.13128e+64   4.85021e+65   7.24639e+66
   1.20614e+60   -6.1529e+46   5.75634e+59   1.12339e+67 -2.64782e+133  1.33711e+199   1.23563e+67   4.55697e+66  -9.95123e+65   7.67207e+66  -5.41669e+65    -2.776e+65   6.99283e+66
   1.81031e+60   -8.4249e+46   6.31554e+59   1.05012e+67  1.13381e+133  2.15942e+198   9.94669e+66   2.61055e+66   3.74338e+65   7.51629e+66  -4.85188e+65   -4.3338e+65   3.41338e+66
   1.80004e+60  -1.96659e+58   6.22381e+59   1.13497e+67  1.81455e+133  6.62344e+198     1.052e+67   3.40985e+66   5.54737e+65   7.38513e+66   2.20238e+65   3.29241e+65   3.58722e+66
   1.15758e+60  -4.70339e+58   1.02174e+60   3.13391e+67  1.84579e+134  2.57036e+200   2.82411e+67   1.01674e+67    2.2185e+66   1.89532e+67  -6.79374e+65   1.12869e+65   8.50032e+66
   1.18319e+60  -8.12366e+46   1.03179e+60   2.80702e+67  1.26326e+134    1.137e+200   2.57218e+67   8.13635e+66   1.52354e+66   1.84103e+67  -1.20973e+66  -4.74682e+65   7.88815e+66
   1.80631e+60  -1.09802e+47   1.16348e+60   2.63708e+67  1.44687e+134  1.99629e+200   2.34677e+67   5.98441e+66   2.33734e+66    1.8049e+67  -7.94641e+65   -5.5074e+65    4.3087e+66
   1.78949e+60  -3.45974e+58   1.15182e+60   2.76595e+67   1.6693e+134  2.64942e+200   2.44565e+67    6.8773e+66   2.61133e+66   1.81709e+67  -8.92151e+64   3.68099e+64   4.84115e+66
   1.20614e+60   -6.1529e+46   5.75634e+59   1.12339e+67 -2.64782e+133  1.33711e+199   1.23563e+67   4.55697e+66  -9.95123e+65   7.67207e+66   5.41669e+65     2.776e+65   6.99283e+66
   1.19468e+60    3.5808e+58   5.69758e+59   1.40626e+67 -6.72958e+132 -1.29254e+198   1.42999e+67   6.49447e+66   -3.9375e+65   7.96188e+66   1.13128e+64  -4.85021e+65   7.24639e+66
   1.80004e+60   1.96659e+58   6.22381e+59   1.13497e+67  1.81455e+133  6.62344e+198     1.052e+67   3.40985e+66   5.54737e+65   7.38513e+66  -2.20238e+65  -3.29241e+65   3.58722e+66
   1.81031e+60   -8.4249e+46   6.31554e+59   1.05012e+67  1.13381e+133  2.15942e+198   9.94669e+66   2.61055e+66   3.74338e+65   7.51629e+66   4.85188e+65    4.3338e+65   3.41338e+66
   1.18319e+60  -8.12366e+46   1.03179e+60   2.80702e+67  1.26326e+134    1.137e+200   2.57218e+67   8.13635e+66   1.52354e+66   1.84103e+67   1.20973e+66   4.74682e+65   7.88815e+66
   1.15758e+60   4.70339e+58   1.02174e+60   3.13391e+67  1.84579e+134  2.57036e+200   2.82411e+67   1.01674e+67    2.2185e+66   1.89532e+67   6.79374e+65  -1.12869e+65   8.50032e+66
   1.78949e+60   3.45974e+58   1.15182e+60   2.76595e+67   1.6693e+134  2.64942e+200   2.44565e+67    6.8773e+66   2.61133e+66   1.81709e+67   8.92151e+64  -3.68099e+64   4.84115e+66
   1.80631e+60  -1.09802e+47   1.16348e+60   2.63708e+67  1.44687e+134  1.99629e+200   2.34677e+67   5.98441e+66   2.33734e+66    1.8049e+67   7.94641e+65    5.5074e+65    4.3087e+66
   1.19468e+60    3.5808e+58   5.69758e+59   1.33288e+67 -1.53833e+133 -6.59598e+197   1.38939e+67   6.33846e+66  -8.15547e+65   7.80587e+66   8.67595e+65    2.4949e+65   7.24639e+66
   1.16509e+60    7.4429e+58   5.48335e+59   1.51047e+67 -5.06157e+131 -3.67931e+198   1.51214e+67   7.78774e+66  -4.38001e+65   7.75492e+66  -2.22474e+65  -5.17375e+65   7.33311e+66
   1.77543e+60   4.20549e+58   5.96423e+59   1.38992e+67  3.47036e+133  1.94948e+199    1.2589e+67   5.56109e+66   8.39446e+65   7.49863e+66  -3.83369e+65  -3.03124e+65   4.20965e+66
   1.80004e+60   1.96659e+58   6.22381e+59   1.06393e+67  1.18185e+133  8.74994e+197   1.00686e+67   3.25883e+66   1.46411e+65    7.2341e+66   4.57419e+65   4.63741e+65   3.58722e+66
   1.15758e+60   4.70339e+58   1.02174e+60   2.75147e+67  9.59438e+133 -2.78847e+199   2.57122e+67   9.35437e+66   2.02185e+64   1.81401e+67   1.40346e+66   2.76175e+65   8.50032e+66
   1.11665e+60   1.08728e+59   1.00346e+60   2.63325e+67  9.07742e+133 -3.35856e+199   2.45485e+67   1.01748e+67  -2.31108e+65   1.63889e+67   3.13391e+65  -7.39971e+65   8.31829e+66
   1.74785e+60   7.47831e+58   1.11766e+60   2.65035e+67  1.53517e+134  1.96262e+200    2.3429e+67   8.24076e+66   1.83753e+66   1.64252e+67   4.21246e+65   9.98656e+63   5.19483e+66
   1.78949e+60   3.45974e+58   1.15182e+60   2.62017e+67  1.34538e+134   1.4363e+200   2.34945e+67   6.56737e+66   1.77337e+66    1.7861e+67   1.26203e+66   1.02613e+66   4.84115e+66
   1.77543e+60  -4.20549e+58   5.96423e+59   6.92717e+66 -5.47684e+133  3.34378e+199   1.01368e+67   4.07886e+66  -6.42792e+65    3.4911e+66   3.83369e+65   6.90102e+65   7.96988e+66
   1.80004e+60  -1.96659e+58   6.22381e+59   5.06774e+66 -5.06954e+133  4.66126e+199   8.73942e+66   2.07432e+66   -1.0381e+66   4.03153e+66  -4.57419e+65  -2.83201e+65   7.24086e+66
   2.48275e+60   2.97673e+56   6.53645e+59   4.62718e+66 -2.09534e+133 -1.76165e+199   6.50878e+66  -1.25527e+65    8.1484e+65   3.93787e+66  -2.24469e+65  -7.51069e+65   4.79073e+66
   2.46537e+60  -1.48975e+57   6.17784e+59   6.03957e+66 -1.82601e+133 -2.58681e+199   7.39841e+66   1.62205e+66   1.11511e+66    3.3024e+66   4.83291e+65   2.22234e+65    5.3689e+66
   1.74785e+60  -7.47831e+58   1.11766e+60   1.66465e+67 -2.15999e+133 -3.58225e+198   1.72831e+67   6.14516e+66   -2.5806e+65   1.07594e+67  -4.21246e+65   5.44556e+65   9.10393e+66
   1.78949e+60  -3.45974e+58   1.15182e+60   1.39542e+67  -4.0086e+133   1.4783e+199   1.53233e+67   3.96355e+66  -8.30442e+65    1.0821e+67  -1.26203e+66  -5.61776e+65   8.29395e+66
   2.49449e+60  -1.23321e+58   1.23494e+60   1.42481e+67  3.57098e+132  -2.0678e+199   1.41223e+67   1.91987e+66   1.44472e+66   1.08835e+67  -9.48124e+65  -8.78806e+65   5.84382e+66
   2.46179e+60  -2.91004e+58   1.19408e+60   1.64934e+67  2.68487e+133   -3.546e+198   1.56584e+67   3.84453e+66   1.92206e+66   1.07268e+67  -2.40364e+65   2.27526e+65   6.50295e+66
   1.80004e+60  -1.96659e+58   6.22381e+59   5.77812e+66 -4.74664e+133  2.80023e+199   8.99183e+66   2.22534e+66  -6.29777e+65   4.18255e+66   2.20238e+65   5.09781e+65   7.24086e+66
   1.81031e+60   -8.4249e+46   6.31554e+59   4.74801e+66 -4.79083e+133  3.79516e+199   8.39356e+66   1.38744e+66  -8.48776e+65   4.20935e+66  -4.85188e+65   -4.3338e+65   6.96956e+66
   2.48976e+60   -1.0942e+47    6.6542e+59   4.22497e+66 -2.14016e+133 -2.07907e+199   6.26514e+66  -7.99533e+65   9.26348e+65   4.09815e+66  -3.31249e+65  -5.56278e+65   4.55648e+66
   2.48275e+60   2.97673e+56   6.53645e+59   5.17112e+66 -1.86521e+133 -2.52226e+199    6.7374e+66  -9.88676e+63    1.1275e+66   4.05351e+66   2.65432e+65   3.86883e+65   4.79073e+66
   1.78949e+60  -3.45974e+58   1.15182e+60    1.5412e+67 -2.13651e+133 -2.06302e+198   1.60902e+67   4.27348e+66   7.51075e+63    1.1131e+67  -8.92151e+64   5.01166e+65   8.29395e+66
   1.80631e+60  -1.09802e+47   1.16348e+60   1.41773e+67 -3.12849e+133  5.80906e+198   1.52407e+67   3.39208e+66  -2.54986e+65   1.10402e+67  -7.94641e+65   -5.5074e+65   8.00745e+66
   2.50773e+60  -1.39871e+47   1.24842e+60   1.42547e+67  5.75229e+132 -3.13018e+199   1.40515e+67   1.33277e+66   1.86529e+66   1.10566e+67  -6.25497e+65  -6.36585e+65   5.59436e+66
   2.49449e+60  -1.23321e+58   1.23494e+60   1.54054e+67  1.78348e+133  -2.1716e+199   1.48153e+67   2.16591e+66   2.10994e+66   1.11296e+67  -2.88166e+64   4.15322e+65   5.84382e+66
   1.81031e+60   -8.4249e+46   6.31554e+59   4.74801e+66 -4.79083e+133  3.79516e+199   8.39356e+66   1.38744e+66  -8.48776e+65   4.20935e+66   4.85188e+65    4.3338e+65   6.96956e+66
   1.80004e+60   1.96659e+58   6.22381e+59   5.77812e+66 -4.74664e+133  2.80023e+199   8.99183e+66   2.22534e+66  -6.29777e+65   4.18255e+66  -2.20238e+65  -5.09781e+65   7.24086e+66
   2.48275e+60  -2.97673e+56   6.53645e+59   5.17112e+66 -1.86521e+133 -2.52226e+199    6.7374e+66  -9.88676e+63    1.1275e+66   4.05351e+66  -2.65432e+65  -3.86883e+65   4.79073e+66
   2.48976e+60   -1.0942e+47    6.6542e+59   4.22497e+66 -2.14016e+133 -2.07907e+199   6.26514e+66  -7.99533e+65   9.26348e+65   4.09815e+66   3.31249e+65   5.56278e+65   4.55648e+66
   1.80631e+60  -1.09802e+47   1.16348e+60   1.41773e+67 -3.12849e+133  5.80906e+198   1.52407e+67   3.39208e+66  -2.54986e+65   1.10402e+67   7.94641e+65    5.5074e+65   8.00745e+66
   1.78949e+60   3.45974e+58   1.15182e+60    1.5412e+67 -2.13651e+133 -2.06302e+198   1.60902e+67   4.27348e+66   7.51075e+63    1.1131e+67   8.92151e+64  -5.01166e+65   8.29395e+66
   2.49449e+60   1.23321e+58   1.23494e+60   1.54054e+67  1.78348e+133  -2.1716e+199   1.48153e+67   2.16591e+66   2.10994e+66   1.11296e+67   2.88166e+64  -4.15322e+65   5.84382e+66
   2.50773e+60  -1.39871e+47   1.24842e+60   1.42547e+67  5.75229e+132 -3.13018e+199   1.40515e+67   1.33277e+66   1.86529e+66   1.10566e+67   6.25497e+65   6.36585e+65   5.59436e+66
   1.80004e+60   1.96659e+58   6.22381e+59   5.06774e+66 -5.06954e+133  4.66126e+199   8.73942e+66   2.07432e+66   -1.0381e+66   4.03153e+66   4.57419e+65   2.83201e+65   7.24086e+66
   1.77543e+60   4.20549e+58   5.96423e+59   6.92717e+66 -5.47684e+133  3.34378e+199   1.01368e+67   4.07886e+66  -6.42792e+65    3.4911e+66  -3.83369e+65  -6.90102e+65   7.96988e+66
   2.46537e+60   1.48975e+57   6.17784e+59   6.03957e+66 -1.82601e+133 -2.58681e+199   7.39841e+66   1.62205e+66   1.11511e+66    3.3024e+66  -4.83291e+65  -2.22234e+65    5.3689e+66
   2.48275e+60  -2.97673e+56   6.53645e+59   4.62718e+66 -2.09534e+133 -1.76165e+199   6.50878e+66  -1.25527e+65    8.1484e+65   3.93787e+66   2.24469e+65   7.51069e+65   4.79073e+66
   1.78949e+60   3.45974e+58   1.15182e+60   1.39542e+67  -4.0086e+133   1.4783e+199   1.53233e+67   3.96355e+66  -8.30442e+65    1.0821e+67   1.26203e+66   5.61776e+65   8.29395e+66
   1.74785e+60   7.47831e+58   1.11766e+60   1.66465e+67 -2.15999e+133 -3.58225e+198   1.72831e+67   6.14516e+66   -2.5806e+65   1.07594e+67   4.21246e+65  -5.44556e+65   9.10393e+66
   2.46179e+60   2.91004e+58   1.19408e+60   1.64934e+67  2.68487e+133   -3.546e+198   1.56584e+67   3.84453e+66   1.92206e+66   1.07268e+67   2.40364e+65  -2.27526e+65   6.50295e+66
   2.49449e+60   1.23321e+58   1.23494e+60   1.42481e+67  3.57098e+132  -2.0678e+199   1.41223e+67   1.91987e+66   1.44472e+66   1.08835e+67   9.48124e+65   8.78806e+65   5.84382e+66
   2.46537e+60  -1.48975e+57   6.17784e+59    2.9649e+66 -6.76895e+133 -2.53664e+199   8.74529e+66   9.68386e+65   4.61443e+65   1.53507e+66   4.83291e+65   8.74729e+65   8.32662e+66
   2.48275e+60   2.97673e+56   6.53645e+59    1.1856e+66 -5.87346e+133 -3.43034e+198   7.75502e+66    -8.572e+65   8.31671e+64   1.95964e+66  -2.24469e+65  -4.12353e+65   7.54494e+66
   3.22375e+60   2.74307e+58   6.71717e+59  -8.87718e+66 -5.10318e+133 -1.66389e+199   1.13946e+67  -9.21549e+66   5.17999e+65  -1.79695e+65  -7.38215e+64  -8.13773e+65   6.86684e+66
   3.21791e+60   5.28866e+58   6.27359e+59   -7.0557e+66 -7.03583e+133 -5.20802e+199   1.09609e+67  -7.36566e+66   9.05243e+65  -5.95291e+65   3.87852e+65    4.7331e+65   8.19524e+66
   2.46179e+60  -2.91004e+58   1.19408e+60  -2.17747e+65  -1.3428e+134  2.04884e+200     1.159e+67   2.91759e+65   -1.6307e+66    1.1212e+66  -2.40364e+65   1.27888e+66   1.14285e+67
   2.49449e+60  -1.23321e+58   1.23494e+60   1.02184e+66 -1.20673e+134  1.61443e+200   1.10326e+67  -8.92017e+65  -1.36717e+66   3.28102e+66  -9.48124e+65  -2.54288e+65   1.06544e+67
   3.30131e+60   2.31523e+58   1.26737e+60  -7.68213e+66 -1.13302e+134  4.83417e+199   1.31269e+67  -8.96142e+66  -1.51282e+65   1.43057e+66  -8.05116e+65  -1.20244e+66   9.97631e+66
   3.27999e+60    3.8836e+58   1.20643e+60  -8.87953e+66 -1.18828e+134  4.78961e+199   1.40597e+67   -7.7534e+66  -4.05849e+65  -7.20286e+65  -3.43442e+65   3.30733e+65   1.12971e+67
   2.48275e+60   2.97673e+56   6.53645e+59   1.72954e+66 -5.85341e+133 -1.99914e+199   7.84381e+66   -7.4156e+65   3.95825e+65   2.07528e+66   2.65432e+65   7.25599e+65   7.54494e+66
   2.48976e+60   -1.0942e+47    6.6542e+59   8.79051e+65 -5.62751e+133 -9.13579e+198     7.553e+66  -1.51087e+66   2.15011e+65   2.17491e+66  -3.31249e+65  -5.56278e+65   7.26035e+66
   3.22644e+60  -1.37523e+47    6.8646e+59  -9.93692e+66 -4.74083e+133 -1.39329e+199   1.20893e+67  -1.02917e+67   4.79307e+65  -1.24549e+65  -1.26968e+65    -6.965e+65   6.57239e+66
   3.22375e+60   2.74307e+58   6.71717e+59  -8.36199e+66 -5.43335e+133 -3.41442e+199    1.1147e+67  -9.10596e+66   8.14136e+65   -7.0165e+64   7.51644e+64   5.85377e+65   6.86684e+66
   2.49449e+60  -1.23321e+58   1.23494e+60   2.17913e+66 -1.18899e+134  8.13398e+199   1.11197e+67  -6.45979e+65  -7.01955e+65   3.52706e+66  -2.88166e+64   1.03984e+66   1.06544e+67
   2.50773e+60  -1.39871e+47   1.24842e+60   1.38309e+66 -1.18167e+134  1.08041e+200   1.09581e+67  -1.40371e+66  -8.71192e+65   3.65799e+66  -6.25497e+65  -6.36585e+65    1.0501e+67
     3.313e+60  -1.72964e+47   1.28402e+60   -7.2543e+66 -1.20028e+134 -5.95861e+199   1.31397e+67  -9.72136e+66   6.45363e+65    1.8217e+66  -5.52414e+65  -7.86668e+65   9.81306e+66
   3.30131e+60   2.31523e+58   1.26737e+60  -5.73381e+66 -1.22701e+134 -1.11354e+200   1.24731e+67  -8.54721e+66   9.68616e+65   1.84478e+66  -3.50281e+65   8.89757e+65   9.97631e+66
   2.48976e+60   -1.0942e+47    6.6542e+59   8.79051e+65 -5.62751e+133 -9.13579e+198     7.553e+66  -1.51087e+66   2.15011e+65   2.17491e+66   3.31249e+65   5.56278e+65   7.26035e+66
   2.48275e+60  -2.97673e+56   6.53645e+59   1.72954e+66 -5.85341e+133 -1.99914e+199   7.84381e+66   -7.4156e+65   3.95825e+65   2.07528e+66  -2.65432e+65  -7.25599e+65   7.54494e+66
   3.22375e+60  -2.74307e+58   6.71717e+59  -8.36199e+66 -5.43335e+133 -3.41442e+199    1.1147e+67  -9.10596e+66   8.14136e+65   -7.0165e+64  -7.51644e+64  -5.85377e+65   6.86684e+66
   3.22644e+60  -1.37523e+47    6.8646e+59  -9.93692e+66 -4.74083e+133 -1.39329e+199   1.20893e+67  -1.02917e+67   4.79307e+65  -1.24549e+65   1.26968e+65     6.965e+65   6.57239e+66
   2.50773e+60  -1.39871e+47   1.24842e+60   1.38309e+66 -1.18167e+134  1.08041e+200   1.09581e+67  -1.40371e+66  -8.71192e+65   3.65799e+66   6.25497e+65   6.36585e+65    1.0501e+67
   2.49449e+60   1.23321e+58   1.23494e+60   2.17913e+66 -1.18899e+134  8.13398e+199   1.11197e+67  -6.45979e+65  -7.01955e+65   3.52706e+66   2.88166e+64  -1.03984e+66   1.06544e+67
   3.30131e+60  -2.31523e+58   1.26737e+60  -5.73381e+66 -1.22701e+134 -1.11354e+200   1.24731e+67  -8.54721e+66   9.68616e+65   1.84478e+66   3.50281e+65  -8.89757e+65   9.97631e+66
     3.313e+60  -1.72964e+47   1.28402e+60   -7.2543e+66 -1.20028e+134 -5.95861e+199   1.31397e+67  -9.72136e+66   6.45363e+65    1.8217e+66   5.52414e+65   7.86668e+65   9.81306e+66
   2.48275e+60  -2.97673e+56   6.53645e+59    1.1856e+66 -5.87346e+133 -3.43034e+198   7.75502e+66    -8.572e+65   8.31671e+64   1.95964e+66   2.24469e+65   4.12353e+65   7.54494e+66
   2.46537e+60   1.48975e+57   6.17784e+59    2.9649e+66 -6.76895e+133 -2.53664e+199   8.74529e+66   9.68386e+65   4.61443e+65   1.53507e+66  -4.83291e+65  -8.74729e+65   8.32662e+66
   3.21791e+60  -5.28866e+58   6.27359e+59   -7.0557e+66 -7.03583e+133 -5.20802e+199   1.09609e+67  -7.36566e+66   9.05243e+65  -5.95291e+65  -3.87852e+65   -4.7331e+65   8.19524e+66
   3.22375e+60  -2.74307e+58   6.71717e+59  -8.87718e+66 -5.10318e+133 -1.66389e+199   1.13946e+67  -9.21549e+66   5.17999e+65  -1.79695e+65   7.38215e+64   8.13773e+65   6.86684e+66
   2.49449e+60   1.23321e+58   1.23494e+60   1.02184e+66 -1.20673e+134  1.61443e+200   1.10326e+67  -8.92017e+65  -1.36717e+66   3.28102e+66   9.48124e+65   2.54288e+65   1.06544e+67
   2.46179e+60   2.91004e+58   1.19408e+60  -2.17747e+65  -1.3428e+134  2.04884e+200     1.159e+67   2.91759e+65   -1.6307e+66    1.1212e+66   2.40364e+65  -1.27888e+66   1.14285e+67
   3.27999e+60   -3.8836e+58   1.20643e+60  -8.87953e+66 -1.18828e+134  4.78961e+199   1.40597e+67   -7.7534e+66  -4.05849e+65  -7.20286e+65   3.43442e+65  -3.30733e+65   1.12971e+67
   3.30131e+60  -2.31523e+58   1.26737e+60  -7.68213e+66 -1.13302e+134  4.83417e+199   1.31269e+67  -8.96142e+66  -1.51282e+65   1.43057e+66   8.05116e+65   1.20244e+66   9.97631e+66
   3.21791e+60   5.28866e+58   6.27359e+59  -3.51603e+66 -9.55404e+133 -1.24903e+200   1.03876e+67  -6.61313e+66   1.65777e+66   1.43933e+66   3.87852e+65   1.16999e+66   8.71353e+66
   3.22375e+60   2.74307e+58   6.71717e+59   -4.7933e+66 -7.73396e+133 -9.31256e+199   1.00158e+67  -8.34726e+66   1.38623e+66   2.16773e+66  -7.38215e+64  -4.26081e+65   7.10576e+66
   3.96981e+60   6.27699e+58   7.05444e+59  -3.61252e+67  1.47975e+134 -1.39704e+200   3.40155e+67  -2.95491e+67  -2.08274e+66  -4.49338e+66   2.06904e+65  -9.26057e+65   7.40277e+66
   3.98142e+60   1.22009e+59   6.50503e+59  -3.25964e+67  8.88357e+133 -5.41403e+199    3.1204e+67  -2.65208e+67  -1.33253e+66  -4.74312e+66  -2.34029e+65   6.70014e+65   8.83811e+66
   3.27999e+60    3.8836e+58   1.20643e+60  -6.75316e+66 -2.50074e+134 -6.51698e+198   1.71953e+67  -7.30134e+66   4.62151e+64    5.0196e+65  -3.43442e+65   1.83323e+66   1.55761e+67
   3.30131e+60   2.31523e+58   1.26737e+60  -8.98259e+66 -2.10414e+134  1.10157e+200   1.70617e+67   -9.2379e+66  -4.27758e+65   6.83066e+65  -8.05116e+65  -6.65448e+65   1.43761e+67
   4.20125e+60   7.00028e+58   1.29481e+60  -3.53305e+67 -3.72567e+133  1.33462e+200   3.58539e+67  -2.93801e+67  -1.03193e+66  -4.91846e+66  -9.32137e+65  -9.92988e+65   1.46731e+67
   4.18875e+60   1.38575e+59   1.22694e+60  -3.08496e+67 -1.27391e+134  1.30412e+199   3.28495e+67  -2.61494e+67  -7.92957e+64  -4.62091e+66  -1.37307e+66   1.50569e+66   1.57007e+67
   3.22375e+60   2.74307e+58   6.71717e+59  -4.27811e+66 -8.02314e+133 -1.07679e+200   9.92641e+66  -8.23773e+66   1.68236e+66   2.27726e+66   7.51644e+64   9.73069e+65   7.10576e+66
   3.22644e+60  -1.37523e+47    6.8646e+59  -6.23975e+66 -7.69281e+133 -7.88852e+199   1.07639e+67  -9.50566e+66   1.26532e+66    2.0006e+66  -1.26968e+65    -6.965e+65   6.92196e+66
   3.97051e+60  -1.66183e+47   7.21672e+59  -3.59718e+67  1.39493e+134 -1.21568e+200   3.39776e+67  -2.99349e+67  -1.71652e+66  -4.32038e+66  -3.33417e+64  -7.66688e+65   6.93164e+66
   3.96981e+60   6.27699e+58   7.05444e+59  -3.52042e+67  1.22662e+134 -9.13055e+199   3.34166e+67  -2.93533e+67  -1.55333e+66  -4.29757e+66  -3.75051e+65   9.02881e+65   7.40277e+66
   3.30131e+60   2.31523e+58   1.26737e+60  -7.03427e+66  -2.2386e+134  -1.4629e+200    1.6533e+67  -8.82369e+66    6.9214e+65   1.09727e+66  -3.50281e+65   1.42674e+66   1.43761e+67
     3.313e+60  -1.72964e+47   1.28402e+60   -7.4093e+66 -2.18067e+134 -1.12318e+200   1.65217e+67  -9.75431e+66   6.12411e+65    1.7326e+66  -5.52414e+65  -7.86668e+65   1.39761e+67
   4.20639e+60  -2.07221e+47   1.31903e+60  -3.41384e+67 -5.87192e+133  9.74327e+199   3.49878e+67  -2.95451e+67  -6.43323e+65  -3.94995e+66  -2.42544e+65   -1.1442e+66   1.39857e+67
   4.20125e+60   7.00028e+58   1.29481e+60  -3.49574e+67 -4.70871e+133  7.69072e+199   3.56245e+67  -2.93008e+67  -8.17445e+65  -4.83913e+66  -5.84254e+65   1.06921e+66   1.46731e+67
   3.22644e+60  -1.37523e+47    6.8646e+59  -6.23975e+66 -7.69281e+133 -7.88852e+199   1.07639e+67  -9.50566e+66   1.26532e+66    2.0006e+66   1.26968e+65     6.965e+65   6.92196e+66
   3.22375e+60  -2.74307e+58   6.71717e+59  -4.27811e+66 -8.02314e+133 -1.07679e+200   9.92641e+66  -8.23773e+66   1.68236e+66   2.27726e+66  -7.51644e+64  -9.73069e+65   7.10576e+66
   3.96981e+60  -6.27699e+58   7.05444e+59  -3.52042e+67  1.22662e+134 -9.13055e+199   3.34166e+67  -2.93533e+67  -1.55333e+66  -4.29757e+66   3.75051e+65  -9.02881e+65   7.40277e+66
   3.97051e+60  -1.66183e+47   7.21672e+59  -3.59718e+67  1.39493e+134 -1.21568e+200   3.39776e+67  -2.99349e+67  -1.71652e+66  -4.32038e+66   3.33417e+64   7.66688e+65   6.93164e+66
     3.313e+60  -1.72964e+47   1.28402e+60   -7.4093e+66 -2.18067e+134 -1.12318e+200   1.65217e+67  -9.75431e+66   6.12411e+65    1.7326e+66   5.52414e+65   7.86668e+65   1.39761e+67
   3.30131e+60  -2.31523e+58   1.26737e+60  -7.03427e+66  -2.2386e+134  -1.4629e+200    1.6533e+67  -8.82369e+66    6.9214e+65   1.09727e+66   3.50281e+65  -1.42674e+66   1.43761e+67
   4.20125e+60  -7.00028e+58   1.29481e+60  -3.49574e+67 -4.70871e+133  7.69072e+199   3.56245e+67  -2.93008e+67  -8.17445e+65  -4.83913e+66   5.84254e+65  -1.06921e+66   1.46731e+67
   4.20639e+60  -2.07221e+47   1.31903e+60  -3.41384e+67 -5.87192e+133  9.74327e+199   3.49878e+67  -2.95451e+67  -6.43323e+65  -3.94995e+66   2.42544e+65    1.1442e+66   1.39857e+67
   3.22375e+60  -2.74307e+58   6.71717e+59   -4.7933e+66 -7.73396e+133 -9.31256e+199   1.00158e+67  -8.34726e+66   1.38623e+66   2.16773e+66   7.38215e+64   4.26081e+65   7.10576e+66
   3.21791e+60  -5.28866e+58   6.27359e+59  -3.51603e+66 -9.55404e+133 -1.24903e+200   1.03876e+67  -6.61313e+66   1.65777e+66   1.43933e+66  -3.87852e+65  -1.16999e+66   8.71353e+66
   3.98142e+60  -1.22009e+59   6.50503e+59  -3.25964e+67  8.88357e+133 -5.41403e+199    3.1204e+67  -2.65208e+67  -1.33253e+66  -4.74312e+66   2.34029e+65  -6.70014e+65   8.83811e+66
   3.96981e+60  -6.27699e+58   7.05444e+59  -3.61252e+67  1.47975e+134 -1.39704e+200   3.40155e+67  -2.95491e+67  -2.08274e+66  -4.49338e+66  -2.06904e+65   9.26057e+65   7.40277e+66
   3.30131e+60  -2.31523e+58   1.26737e+60  -8.98259e+66 -2.10414e+134  1.10157e+200   1.70617e+67   -9.2379e+66  -4.27758e+65   6.83066e+65   8.05116e+65   6.65448e+65   1.43761e+67
   3.27999e+60   -3.8836e+58   1.20643e+60  -6.75316e+66 -2.50074e+134 -6.51698e+198   1.71953e+67  -7.30134e+66   4.62151e+64    5.0196e+65   3.43442e+65  -1.83323e+66   1.55761e+67
   4.18875e+60  -1.38575e+59   1.22694e+60  -3.08496e+67 -1.27391e+134  1.30412e+199   3.28495e+67  -2.61494e+67  -7.92957e+64  -4.62091e+66   1.37307e+66  -1.50569e+66   1.57007e+67
   4.20125e+60  -7.00028e+58   1.29481e+60  -3.53305e+67 -3.72567e+133  1.33462e+200   3.58539e+67  -2.93801e+67  -1.03193e+66  -4.91846e+66   9.32137e+65   9.92988e+65   1.46731e+67
   3.98142e+60   1.22009e+59   6.50503e+59  -2.05214e+67 -9.09061e+133 -5.21398e+199   2.26282e+67  -2.39536e+67    1.2346e+66   2.19764e+66  -2.34029e+65   1.06516e+66   3.19612e+66
   3.96981e+60   6.27699e+58   7.05444e+59  -2.64147e+67 -3.56541e+133  1.63546e+199   2.70812e+67  -2.74846e+67   -1.8303e+64   1.08825e+66   2.06904e+65  -7.75034e+65   2.36296e+66
   4.60919e+60   1.01306e+59   7.76394e+59  -6.51029e+67  6.55036e+134 -1.69187e+201   5.98611e+67  -5.34031e+67  -4.56296e+66   -7.1368e+66  -4.75928e+65  -8.46789e+65   1.17867e+66
   4.62551e+60   1.99496e+59   7.19935e+59  -6.00454e+67  4.93842e+134  -9.9155e+200   5.57818e+67  -5.03526e+67  -3.48776e+66   -6.2051e+66   -1.8004e+66   9.93405e+65   3.41068e+66
   4.18875e+60   1.38575e+59   1.22694e+60  -1.92714e+67 -2.55387e+134 -4.28787e+200   2.50355e+67  -2.36879e+67   2.38221e+66   2.03428e+66  -1.37307e+66   2.24315e+66   1.21942e+67
   4.20125e+60   7.00028e+58   1.29481e+60  -1.74406e+67 -3.19985e+134 -7.17233e+200   2.49832e+67  -2.55768e+67   2.77143e+66    5.3647e+66  -9.32137e+65   -4.8058e+65   1.12097e+67
   5.02789e+60   1.27699e+59   1.39083e+60  -5.12502e+67 -6.83688e+133  2.44484e+200   5.19129e+67  -5.04581e+67   1.03104e+66  -1.82315e+66   -1.4636e+66  -1.95118e+66   1.00254e+67
    5.0233e+60   2.53924e+59   1.29183e+60  -5.39168e+67  7.39096e+133  6.71632e+199    5.3227e+67  -4.90496e+67   4.64123e+65  -5.33127e+66  -2.78807e+66   7.72552e+65   1.24088e+67
   3.96981e+60   6.27699e+58   7.05444e+59  -2.54937e+67 -5.51667e+133  7.49818e+198   2.65536e+67  -2.72888e+67   5.11107e+65   1.28406e+66  -3.75051e+65    1.0539e+66   2.36296e+66
   3.97051e+60  -1.66183e+47   7.21672e+59   -2.5778e+67 -5.98375e+133 -4.94248e+198   2.69136e+67  -2.77677e+67   4.50649e+65   1.53901e+66  -3.33417e+64  -7.66688e+65   2.16657e+66
   4.61373e+60  -1.96336e+47   7.95961e+59  -6.59684e+67  6.53175e+134 -1.64533e+201   6.08166e+67  -5.45104e+67  -4.45258e+66  -7.00541e+66  -2.14465e+65  -9.24389e+65   1.30274e+66
   4.60919e+60   1.01306e+59   7.76394e+59  -6.42901e+67   6.1291e+134 -1.45806e+201   5.93322e+67  -5.32303e+67  -4.09577e+66    -6.964e+66   -1.4614e+66   8.96203e+65   1.17867e+66
   4.20125e+60   7.00028e+58   1.29481e+60  -1.70675e+67 -3.27186e+134 -7.48465e+200   2.48694e+67  -2.54974e+67   2.98592e+66   5.44403e+66  -5.84254e+65   1.58162e+66   1.12097e+67
   4.20639e+60  -2.07221e+47   1.31903e+60  -1.91213e+67 -3.06908e+134 -5.97595e+200   2.59333e+67  -2.63525e+67   2.54927e+66   4.68188e+66  -2.42544e+65   -1.1442e+66   1.12657e+67
    5.0422e+60  -2.47268e+47    1.4116e+60  -5.43133e+67  7.59868e+132  8.46647e+199   5.42433e+67  -5.20326e+67   5.19152e+65  -2.79988e+66   -6.7612e+65  -9.81443e+65   1.04019e+67
   5.02789e+60   1.27699e+59   1.39083e+60  -5.08655e+67 -8.47848e+133  7.64581e+199   5.16922e+67  -5.03763e+67   1.25215e+66  -1.74137e+66  -1.92306e+66   1.74438e+66   1.00254e+67
   3.97051e+60  -1.66183e+47   7.21672e+59   -2.5778e+67 -5.98375e+133 -4.94248e+198   2.69136e+67  -2.77677e+67   4.50649e+65   1.53901e+66   3.33417e+64   7.66688e+65   2.16657e+66
   3.96981e+60  -6.27699e+58   7.05444e+59  -2.54937e+67 -5.51667e+133  7.49818e+198   2.65536e+67  -2.72888e+67   5.11107e+65   1.28406e+66   3.75051e+65   -1.0539e+66   2.36296e+66
   4.60919e+60  -1.01306e+59   7.76394e+59  -6.42901e+67   6.1291e+134 -1.45806e+201   5.93322e+67  -5.32303e+67  -4.09577e+66    -6.964e+66    1.4614e+66  -8.96203e+65   1.17867e+66
   4.61373e+60  -1.96336e+47   7.95961e+59  -6.59684e+67  6.53175e+134 -1.64533e+201   6.08166e+67  -5.45104e+67  -4.45258e+66  -7.00541e+66   2.14465e+65   9.24389e+65   1.30274e+66
   4.20639e+60  -2.07221e+47   1.31903e+60  -1.91213e+67 -3.06908e+134 -5.97595e+200   2.59333e+67  -2.63525e+67   2.54927e+66   4.68188e+66   2.42544e+65    1.1442e+66   1.12657e+67
   4.20125e+60  -7.00028e+58   1.29481e+60  -1.70675e+67 -3.27186e+134 -7.48465e+200   2.48694e+67  -2.54974e+67   2.98592e+66   5.44403e+66   5.84254e+65  -1.58162e+66   1.12097e+67
   5.02789e+60  -1.27699e+59   1.39083e+60  -5.08655e+67 -8.47848e+133  7.64581e+199   5.16922e+67  -5.03763e+67   1.25215e+66  -1.74137e+66   1.92306e+66  -1.74438e+66   1.00254e+67
    5.0422e+60  -2.47268e+47    1.4116e+60  -5.43133e+67  7.59868e+132  8.46647e+199   5.42433e+67  -5.20326e+67   5.19152e+65  -2.79988e+66    6.7612e+65   9.81443e+65   1.04019e+67
   3.96981e+60  -6.27699e+58   7.05444e+59  -2.64147e+67 -3.56541e+133  1.63546e+199   2.70812e+67  -2.74846e+67   -1.8303e+64   1.08825e+66  -2.06904e+65   7.75034e+65   2.36296e+66
   3.98142e+60  -1.22009e+59   6.50503e+59  -2.05214e+67 -9.09061e+133 -5.21398e+199   2.26282e+67  -2.39536e+67    1.2346e+66   2.19764e+66   2.34029e+65  -1.06516e+66   3.19612e+66
   4.62551e+60  -1.99496e+59   7.19935e+59  -6.00454e+67  4.93842e+134  -9.9155e+200   5.57818e+67  -5.03526e+67  -3.48776e+66   -6.2051e+66    1.8004e+66  -9.93405e+65   3.41068e+66
   4.60919e+60  -1.01306e+59   7.76394e+59  -6.51029e+67  6.55036e+134 -1.69187e+201   5.98611e+67  -5.34031e+67  -4.56296e+66   -7.1368e+66   4.75928e+65   8.46789e+65   1.17867e+66
   4.20125e+60  -7.00028e+58   1.29481e+60  -1.74406e+67 -3.19985e+134 -7.17233e+200   2.49832e+67  -2.55768e+67   2.77143e+66    5.3647e+66   9.32137e+65    4.8058e+65   1.12097e+67
   4.18875e+60  -1.38575e+59   1.22694e+60  -1.92714e+67 -2.55387e+134 -4.28787e+200   2.50355e+67  -2.36879e+67   2.38221e+66   2.03428e+66   1.37307e+66  -2.24315e+66   1.21942e+67
    5.0233e+60  -2.53924e+59   1.29183e+60  -5.39168e+67  7.39096e+133  6.71632e+199    5.3227e+67  -4.90496e+67   4.64123e+65  -5.33127e+66   2.78807e+66  -7.72552e+65   1.24088e+67
   5.02789e+60  -1.27699e+59   1.39083e+60  -5.12502e+67 -6.83688e+133  2.44484e+200   5.19129e+67  -5.04581e+67   1.03104e+66  -1.82315e+66    1.4636e+66   1.95118e+66   1.00254e+67
   7.18842e+59  -5.79064e+58    1.8053e+59   1.15089e+67 -5.95784e+133  1.57471e+199   1.38576e+67   8.58663e+66  -2.49424e+65   3.17169e+66   5.93045e+65   3.75595e+65   9.13165e+66
   7.49399e+59  -2.93717e+58   1.90927e+59    1.2143e+67 -4.69061e+133  4.56608e+198   1.39412e+67    8.5357e+66  -1.14619e+65    3.7219e+66  -5.07804e+65  -3.96874e+64   8.77558e+66
   1.24111e+60  -1.98144e+58   2.02995e+59   1.01107e+67 -1.07974e+133 -3.53972e+198   1.06312e+67   6.53696e+66   2.83879e+65   3.28983e+66  -4.29841e+65   -2.4739e+65    5.9031e+66
   1.21602e+60   -3.9559e+58   1.88202e+59   1.01372e+67 -1.92423e+133 -6.13316e+198   1.10456e+67    6.9676e+66   2.89517e+65   2.88006e+66   4.61955e+65   1.67892e+65   6.47448e+66
   6.53862e+59  -1.01016e+59    4.8442e+59   2.01025e+67 -2.18461e+132 -7.82149e+198   2.01567e+67   1.04136e+67  -6.24141e+65    1.0313e+67   5.00177e+65   6.66984e+65   9.79535e+66
   6.86385e+59    -4.918e+58   4.96889e+59   2.19255e+67  2.55936e+133 -1.20563e+199   2.13338e+67   1.06154e+67  -2.36579e+65   1.15466e+67  -6.00672e+65   4.26494e+64   9.55892e+66
   1.19468e+60   -3.5808e+58   5.69758e+59   2.10475e+67  7.20991e+133  4.34929e+199   1.92587e+67    8.8621e+66   8.25433e+65   1.13599e+67  -6.42347e+65  -3.80365e+65   6.68644e+66
   1.16509e+60   -7.4429e+58   5.48335e+59   1.98851e+67  5.29017e+133   2.3899e+199   1.85072e+67   9.03999e+66   5.78313e+65   1.02668e+67    2.4945e+65    2.4397e+65   7.13818e+66
   7.49399e+59  -2.93717e+58   1.90927e+59   1.19247e+67 -4.90664e+133  1.20012e+199   1.38298e+67   8.48929e+66  -2.40111e+65   3.67548e+66   4.78269e+65    3.2899e+65   8.77558e+66
   7.59084e+59  -2.85755e+46   1.93521e+59   1.17256e+67 -4.69256e+133  1.22747e+199     1.358e+67   8.17109e+66  -2.82426e+65   3.83696e+66  -4.57557e+65  -1.22534e+65   8.64071e+66
   1.24954e+60  -4.47724e+46   2.07746e+59   9.86361e+66 -1.02478e+133 -2.56604e+198   1.03701e+67   6.19775e+66   2.24759e+65   3.44109e+66   -3.9833e+65  -2.24427e+65    5.7907e+66
   1.24111e+60  -1.98144e+58   2.02995e+59   1.00925e+67 -1.08737e+133 -3.45649e+198   1.06175e+67   6.53309e+66   2.73413e+65   3.28596e+66   3.57274e+65   2.27097e+65    5.9031e+66
   6.86385e+59    -4.918e+58   4.96889e+59   2.26183e+67  3.78129e+133  5.01949e+198   2.17664e+67   1.07627e+67   1.61696e+65   1.16939e+67    3.4033e+65   4.33575e+65   9.55892e+66
   6.98989e+59  -4.08827e+46   5.01084e+59   2.22953e+67  3.55252e+133  7.86387e+197   2.14838e+67   1.04182e+67   9.30111e+64   1.17841e+67  -5.95496e+65   -1.9817e+65   9.42945e+66
   1.20614e+60   -6.1529e+46   5.75634e+59   2.14284e+67  8.04973e+133  6.48685e+199   1.94597e+67   8.65641e+66   1.17221e+66   1.15998e+67  -5.41669e+65    -2.776e+65   6.57944e+66
   1.19468e+60   -3.5808e+58   5.69758e+59   2.17813e+67  8.45831e+133  7.31207e+199   1.97444e+67   9.01811e+66   1.24723e+66   1.15159e+67   2.13936e+65   3.54146e+65   6.68644e+66
   7.59084e+59  -2.85755e+46   1.93521e+59   1.17256e+67 -4.69256e+133  1.22747e+199     1.358e+67   8.17109e+66  -2.82426e+65   3.83696e+66   4.57557e+65   1.22534e+65   8.64071e+66
   7.49399e+59   2.93717e+58   1.90927e+59   1.19247e+67 -4.90664e+133  1.20012e+199   1.38298e+67   8.48929e+66  -2.40111e+65   3.67548e+66  -4.78269e+65   -3.2899e+65   8.77558e+66
   1.24111e+60   1.98144e+58   2.02995e+59   1.00925e+67 -1.08737e+133 -3.45649e+198   1.06175e+67   6.53309e+66   2.73413e+65   3.28596e+66  -3.57274e+65  -2.27097e+65    5.9031e+66
   1.24954e+60  -4.47724e+46   2.07746e+59   9.86361e+66 -1.02478e+133 -2.56604e+198   1.03701e+67   6.19775e+66   2.24759e+65   3.44109e+66    3.9833e+65   2.24427e+65    5.7907e+66
   6.98989e+59  -4.08827e+46   5.01084e+59   2.22953e+67  3.55252e+133  7.86387e+197   2.14838e+67   1.04182e+67   9.30111e+64   1.17841e+67   5.95496e+65    1.9817e+65   9.42945e+66
   6.86385e+59     4.918e+58   4.96889e+59   2.26183e+67  3.78129e+133  5.01949e+198   2.17664e+67   1.07627e+67   1.61696e+65   1.16939e+67   -3.4033e+65  -4.33575e+65   9.55892e+66
   1.19468e+60    3.5808e+58   5.69758e+59   2.17813e+67  8.45831e+133  7.31207e+199   1.97444e+67   9.01811e+66   1.24723e+66   1.15159e+67  -2.13936e+65  -3.54146e+65   6.68644e+66
   1.20614e+60   -6.1529e+46   5.75634e+59   2.14284e+67  8.04973e+133  6.48685e+199   1.94597e+67   8.65641e+66   1.17221e+66   1.15998e+67   5.41669e+65     2.776e+65   6.57944e+66
   7.49399e+59   2.93717e+58   1.90927e+59    1.2143e+67 -4.69061e+133  4.56608e+198   1.39412e+67    8.5357e+66  -1.14619e+65    3.7219e+66   5.07804e+65   3.96874e+64   8.77558e+66
   7.18842e+59   5.79064e+58    1.8053e+59   1.15089e+67 -5.95784e+133  1.57471e+199   1.38576e+67   8.58663e+66  -2.49424e+65   3.17169e+66  -5.93045e+65  -3.75595e+65   9.13165e+66
   1.21602e+60    3.9559e+58   1.88202e+59   1.01372e+67 -1.92423e+133 -6.13316e+198   1.10456e+67    6.9676e+66   2.89517e+65   2.88006e+66  -4.61955e+65  -1.67892e+65   6.47448e+66
   1.24111e+60   1.98144e+58   2.02995e+59   1.01107e+67 -1.07974e+133 -3.53972e+198   1.06312e+67   6.53696e+66   2.83879e+65   3.28983e+66   4.29841e+65    2.4739e+65    5.9031e+66
   6.86385e+59     4.918e+58   4.96889e+59   2.19255e+67  2.55936e+133 -1.20563e+199   2.13338e+67   1.06154e+67  -2.36579e+65   1.15466e+67   6.00672e+65  -4.26494e+64   9.55892e+66
   6.53862e+59   1.01016e+59    4.8442e+59   2.01025e+67 -2.18461e+132 -7.82149e+198   2.01567e+67   1.04136e+67  -6.24141e+65    1.0313e+67  -5.00177e+65  -6.66984e+65   9.79535e+66
   1.16509e+60    7.4429e+58   5.48335e+59   1.98851e+67  5.29017e+133   2.3899e+199   1.85072e+67   9.03999e+66   5.78313e+65   1.02668e+67   -2.4945e+65   -2.4397e+65   7.13818e+66
   1.19468e+60    3.5808e+58   5.69758e+59   2.10475e+67  7.20991e+133  4.34929e+199   1.92587e+67    8.8621e+66   8.25433e+65   1.13599e+67   6.42347e+65   3.80365e+65   6.68644e+66
   1.21602e+60   -3.9559e+58   1.88202e+59    7.7375e+66 -1.07316e+134  2.59655e+199     1.293e+67   6.45744e+66  -2.20652e+65   1.50072e+66   4.61955e+65   4.34322e+65   1.07168e+67
   1.24111e+60  -1.98144e+58   2.02995e+59   7.93796e+66 -9.10294e+133  1.65223e+199   1.24113e+67   6.07504e+66  -1.78035e+65   2.04095e+66  -4.29841e+65   -1.2453e+65   1.00888e+67
   1.82142e+60  -7.65662e+57   2.06735e+59   4.48658e+66 -5.59811e+133 -1.04342e+199   8.72413e+66   2.97347e+66   2.05912e+65   1.30719e+66   -3.0326e+65  -3.73338e+65   7.77934e+66
   1.80299e+60  -1.55722e+58   1.86675e+59   4.72628e+66 -6.60293e+133 -1.62765e+199   9.40037e+66   3.60887e+66    2.5687e+65   8.60537e+65   3.80524e+65   1.85514e+65    8.3728e+66
   1.16509e+60   -7.4429e+58   5.48335e+59   1.57561e+67 -8.04467e+133  2.29309e+199   1.81301e+67   8.16217e+66  -2.99513e+65   7.89341e+66    2.4945e+65   5.17375e+65    1.1821e+67
   1.19468e+60   -3.5808e+58   5.69758e+59   1.57657e+67 -6.79052e+133  1.83335e+199   1.77894e+67   7.73921e+66  -2.97463e+65   8.32396e+66  -6.42347e+65   -2.4949e+65   1.12727e+67
   1.80004e+60  -1.96659e+58   6.22381e+59   1.34629e+67  -3.3168e+133 -3.03088e+199    1.4643e+67   4.88183e+66   7.46699e+65   7.83439e+66  -5.95478e+65  -4.63741e+65   8.96324e+66
   1.77543e+60  -4.20549e+58   5.96423e+59   1.38934e+67 -3.73008e+133 -4.04175e+199   1.51766e+67   5.55779e+66   8.38225e+65   7.49741e+66   8.83061e+64   3.03124e+65   9.47699e+66
   1.24111e+60  -1.98144e+58   2.02995e+59   7.91975e+66 -9.11941e+133  1.83742e+199   1.24063e+67   6.07117e+66  -1.88502e+65   2.03708e+66   3.57274e+65   3.49957e+65   1.00888e+67
   1.24954e+60  -4.47724e+46   2.07746e+59   7.57502e+66 -8.88692e+133   2.3825e+199   1.20934e+67    5.7112e+66   -2.6179e+65   2.12561e+66   -3.9833e+65  -2.24427e+65   9.93722e+66
   1.82777e+60  -6.31706e+46   2.13198e+59   3.97811e+66  -5.3363e+133 -5.53203e+198   8.31796e+66   2.49492e+66    1.2228e+65   1.36091e+66  -2.99962e+65  -3.05334e+65   7.55293e+66
   1.82142e+60  -7.65662e+57   2.06735e+59   4.55413e+66 -5.56587e+133 -1.30363e+199   8.74064e+66   2.98784e+66   2.44742e+65   1.32156e+66   2.67406e+65    2.6905e+65   7.77934e+66
   1.19468e+60   -3.5808e+58   5.69758e+59   1.64995e+67 -5.83668e+133 -7.38126e+198   1.81824e+67   7.89522e+66   1.24334e+65   8.47997e+66   2.13936e+65   4.85021e+65   1.12727e+67
   1.20614e+60   -6.1529e+46   5.75634e+59   1.65682e+67 -5.55702e+133  -7.8007e+198    1.8168e+67   7.62314e+66    1.3894e+65   8.80613e+66  -5.41669e+65    -2.776e+65    1.1163e+67
   1.81031e+60   -8.4249e+46   6.31554e+59   1.40107e+67 -2.48091e+133 -4.26285e+199   1.48697e+67   4.62783e+66   1.12046e+66   8.26241e+66  -4.85188e+65   -4.3338e+65   8.77872e+66
   1.80004e+60  -1.96659e+58   6.22381e+59   1.41733e+67  -2.5229e+133 -4.64891e+199    1.5037e+67   5.03285e+66   1.15502e+66   7.98542e+66   8.21794e+64   3.29241e+65   8.96324e+66
   1.24954e+60  -4.47724e+46   2.07746e+59   7.57502e+66 -8.88692e+133   2.3825e+199   1.20934e+67    5.7112e+66   -2.6179e+65   2.12561e+66    3.9833e+65   2.24427e+65   9.93722e+66
   1.24111e+60   1.98144e+58   2.02995e+59   7.91975e+66 -9.11941e+133  1.83742e+199   1.24063e+67   6.07117e+66  -1.88502e+65   2.03708e+66  -3.57274e+65  -3.49957e+65   1.00888e+67
   1.82142e+60   7.65662e+57   2.06735e+59   4.55413e+66 -5.56587e+133 -1.30363e+199   8.74064e+66   2.98784e+66   2.44742e+65   1.32156e+66  -2.67406e+65   -2.6905e+65   7.77934e+66
   1.82777e+60  -6.31706e+46   2.13198e+59   3.97811e+66  -5.3363e+133 -5.53203e+198   8.31796e+66   2.49492e+66    1.2228e+65   1.36091e+66   2.99962e+65   3.05334e+65   7.55293e+66
   1.20614e+60   -6.1529e+46   5.75634e+59   1.65682e+67 -5.55702e+133  -7.8007e+198    1.8168e+67   7.62314e+66    1.3894e+65   8.80613e+66   5.41669e+65     2.776e+65    1.1163e+67
   1.19468e+60    3.5808e+58   5.69758e+59   1.64995e+67 -5.83668e+133 -7.38126e+198   1.81824e+67   7.89522e+66   1.24334e+65   8.47997e+66  -2.13936e+65  -4.85021e+65   1.12727e+67
   1.80004e+60   1.96659e+58   6.22381e+59   1.41733e+67  -2.5229e+133 -4.64891e+199    1.5037e+67   5.03285e+66   1.15502e+66   7.98542e+66  -8.21794e+64  -3.29241e+65   8.96324e+66
   1.81031e+60   -8.4249e+46   6.31554e+59   1.40107e+67 -2.48091e+133 -4.26285e+199   1.48697e+67   4.62783e+66   1.12046e+66   8.26241e+66   4.85188e+65    4.3338e+65   8.77872e+66
   1.24111e+60   1.98144e+58   2.02995e+59   7.93796e+66 -9.10294e+133  1.65223e+199   1.24113e+67   6.07504e+66  -1.78035e+65   2.04095e+66   4.29841e+65    1.2453e+65   1.00888e+67
   1.21602e+60    3.9559e+58   1.88202e+59    7.7375e+66 -1.07316e+134  2.59655e+199     1.293e+67   6.45744e+66  -2.20652e+65   1.50072e+66  -4.61955e+65  -4.34322e+65   1.07168e+67
   1.80299e+60   1.55722e+58   1.86675e+59   4.72628e+66 -6.60293e+133 -1.62765e+199   9.40037e+66   3.60887e+66    2.5687e+65   8.60537e+65  -3.80524e+65  -1.85514e+65    8.3728e+66
   1.82142e+60   7.65662e+57   2.06735e+59   4.48658e+66 -5.59811e+133 -1.04342e+199   8.72413e+66   2.97347e+66   2.05912e+65   1.30719e+66    3.0326e+65   3.73338e+65   7.77934e+66
   1.19468e+60    3.5808e+58   5.69758e+59   1.57657e+67 -6.79052e+133  1.83335e+199   1.77894e+67   7.73921e+66  -2.97463e+65   8.32396e+66   6.42347e+65    2.4949e+65   1.12727e+67
   1.16509e+60    7.4429e+58   5.48335e+59   1.57561e+67 -8.04467e+133  2.29309e+199   1.81301e+67   8.16217e+66  -2.99513e+65   7.89341e+66   -2.4945e+65  -5.17375e+65    1.1821e+67
   1.77543e+60   4.20549e+58   5.96423e+59   1.38934e+67 -3.73008e+133 -4.04175e+199   1.51766e+67   5.55779e+66   8.38225e+65   7.49741e+66  -8.83061e+64  -3.03124e+65   9.47699e+66
   1.80004e+60   1.96659e+58   6.22381e+59   1.34629e+67  -3.3168e+133 -3.03088e+199    1.4643e+67   4.88183e+66   7.46699e+65   7.83439e+66   5.95478e+65   4.63741e+65   8.96324e+66
   1.80299e+60  -1.55722e+58   1.86675e+59   3.74861e+66 -1.30485e+134 -3.03771e+198   1.20224e+67   3.40102e+66   4.90194e+64   2.98569e+65   3.80524e+65    4.7817e+65    1.1459e+67
   1.82142e+60  -7.65662e+57   2.06735e+59   3.44639e+66 -1.14097e+134  3.02781e+198   1.12238e+67   2.75233e+66  -1.52303e+64   7.09292e+65   -3.0326e+65  -2.30464e+65   1.07634e+67
   2.46489e+60   7.52533e+57   2.06487e+59  -2.87514e+66  -8.4962e+133 -3.42686e+198   9.65549e+66  -2.29858e+66   5.80908e+64  -6.34656e+65  -1.12208e+65  -4.67951e+65   9.27464e+66
   2.45529e+60   1.46092e+58     1.814e+59  -2.15736e+66 -1.03353e+134 -1.99593e+199   1.03927e+67  -1.41102e+66   2.10689e+65  -9.57031e+65   3.06908e+65   2.40684e+65   1.02006e+67
   1.77543e+60  -4.20549e+58   5.96423e+59   6.92142e+66 -1.66357e+134  1.03332e+200   1.46377e+67   4.07555e+66  -6.44013e+65   3.48988e+66   8.83061e+64   6.90102e+65   1.32372e+67
   1.80004e+60  -1.96659e+58   6.22381e+59   7.89132e+66 -1.46142e+134  6.45127e+199   1.44366e+67   3.69732e+66  -4.37815e+65   4.63182e+66  -5.95478e+65  -2.83201e+65   1.26169e+67
   2.48275e+60   2.97673e+56   6.53645e+59   3.03121e+66 -1.27167e+134 -5.28945e+199   1.16771e+67  -1.04289e+66    4.7554e+65   3.59857e+66  -4.79685e+65  -7.51069e+65   1.11281e+67
   2.46537e+60  -1.48975e+57   6.17784e+59   2.47688e+66 -1.43871e+134 -5.20242e+199   1.22477e+67  -4.25789e+65    3.5769e+65   2.54498e+66  -6.05693e+64   2.22234e+65   1.19788e+67
   1.82142e+60  -7.65662e+57   2.06735e+59   3.51395e+66 -1.14008e+134   -8.368e+197   1.12408e+67   2.76669e+66   2.35997e+64   7.23654e+65   2.67406e+65   4.11923e+65   1.07634e+67
   1.82777e+60  -6.31706e+46   2.13198e+59   3.01045e+66 -1.08848e+134  1.06833e+199   1.08587e+67    2.2892e+66  -8.34437e+64   8.04693e+65  -2.99962e+65  -3.05334e+65   1.04999e+67
   2.46837e+60  -8.34655e+46   2.14941e+59  -3.16133e+66 -7.96264e+133 -1.46654e+198   9.46681e+66  -2.69288e+66   3.89606e+64  -5.07418e+65   -1.6452e+65  -3.99376e+65   8.98229e+66
   2.46489e+60   7.52533e+57   2.06487e+59  -2.75997e+66 -8.51221e+133 -9.22649e+198   9.63014e+66  -2.27409e+66   1.24289e+65  -6.10172e+65   1.76944e+65   3.17882e+65   9.27464e+66
   1.80004e+60  -1.96659e+58   6.22381e+59   8.60169e+66 -1.41301e+134  4.17623e+198   1.46728e+67   3.84834e+66  -2.94893e+64   4.78284e+66   8.21794e+64   5.09781e+65   1.26169e+67
   1.81031e+60   -8.4249e+46   6.31554e+59   8.25753e+66 -1.36559e+134  1.72686e+199    1.4309e+67   3.40472e+66  -1.02657e+65   4.95547e+66  -4.85188e+65   -4.3338e+65   1.23349e+67
   2.48976e+60   -1.0942e+47    6.6542e+59   3.33313e+66 -1.20648e+134 -8.60239e+199   1.14786e+67  -1.31216e+66   7.36745e+65   3.90855e+66  -3.31249e+65  -5.56278e+65   1.08173e+67
   2.48275e+60   2.97673e+56   6.53645e+59   3.57515e+66 -1.25232e+134 -1.00095e+200   1.17479e+67  -9.27254e+65   7.88198e+65   3.71421e+66   1.02156e+64   3.86883e+65   1.11281e+67
   1.82777e+60  -6.31706e+46   2.13198e+59   3.01045e+66 -1.08848e+134  1.06833e+199   1.08587e+67    2.2892e+66  -8.34437e+64   8.04693e+65   2.99962e+65   3.05334e+65   1.04999e+67
   1.82142e+60   7.65662e+57   2.06735e+59   3.51395e+66 -1.14008e+134   -8.368e+197   1.12408e+67   2.76669e+66   2.35997e+64   7.23654e+65  -2.67406e+65  -4.11923e+65   1.07634e+67
   2.46489e+60  -7.52533e+57   2.06487e+59  -2.75997e+66 -8.51221e+133 -9.22649e+198   9.63014e+66  -2.27409e+66   1.24289e+65  -6.10172e+65  -1.76944e+65  -3.17882e+65   9.27464e+66
   2.46837e+60  -8.34655e+46   2.14941e+59  -3.16133e+66 -7.96264e+133 -1.46654e+198   9.46681e+66  -2.69288e+66   3.89606e+64  -5.07418e+65    1.6452e+65   3.99376e+65   8.98229e+66
   1.81031e+60   -8.4249e+46   6.31554e+59   8.25753e+66 -1.36559e+134  1.72686e+199    1.4309e+67   3.40472e+66  -1.02657e+65   4.95547e+66   4.85188e+65    4.3338e+65   1.23349e+67
   1.80004e+60   1.96659e+58   6.22381e+59   8.60169e+66 -1.41301e+134  4.17623e+198   1.46728e+67   3.84834e+66  -2.94893e+64   4.78284e+66  -8.21794e+64  -5.09781e+65   1.26169e+67
   2.48275e+60  -2.97673e+56   6.53645e+59   3.57515e+66 -1.25232e+134 -1.00095e+200   1.17479e+67  -9.27254e+65   7.88198e+65   3.71421e+66  -1.02156e+64  -3.86883e+65   1.11281e+67
   2.48976e+60   -1.0942e+47    6.6542e+59   3.33313e+66 -1.20648e+134 -8.60239e+199   1.14786e+67  -1.31216e+66   7.36745e+65   3.90855e+66   3.31249e+65   5.56278e+65   1.08173e+67
   1.82142e+60   7.65662e+57   2.06735e+59   3.44639e+66 -1.14097e+134  3.02781e+198   1.12238e+67   2.75233e+66  -1.52303e+64   7.09292e+65    3.0326e+65   2.30464e+65   1.07634e+67
   1.80299e+60   1.55722e+58   1.86675e+59   3.74861e+66 -1.30485e+134 -3.03771e+198   1.20224e+67   3.40102e+66   4.90194e+64   2.98569e+65  -3.80524e+65   -4.7817e+65    1.1459e+67
   2.45529e+60  -1.46092e+58     1.814e+59  -2.15736e+66 -1.03353e+134 -1.99593e+199   1.03927e+67  -1.41102e+66   2.10689e+65  -9.57031e+65  -3.06908e+65  -2.40684e+65   1.02006e+67
   2.46489e+60  -7.52533e+57   2.06487e+59  -2.87514e+66  -8.4962e+133 -3.42686e+198   9.65549e+66  -2.29858e+66   5.80908e+64  -6.34656e+65   1.12208e+65   4.67951e+65   9.27464e+66
   1.80004e+60   1.96659e+58   6.22381e+59   7.89132e+66 -1.46142e+134  6.45127e+199   1.44366e+67   3.69732e+66  -4.37815e+65   4.63182e+66   5.95478e+65   2.83201e+65   1.26169e+67
   1.77543e+60   4.20549e+58   5.96423e+59   6.92142e+66 -1.66357e+134  1.03332e+200   1.46377e+67   4.07555e+66  -6.44013e+65   3.48988e+66  -8.83061e+64  -6.90102e+65   1.32372e+67
   2.46537e+60   1.48975e+57   6.17784e+59   2.47688e+66 -1.43871e+134 -5.20242e+199   1.22477e+67  -4.25789e+65    3.5769e+65   2.54498e+66   6.05693e+64  -2.22234e+65   1.19788e+67
   2.48275e+60  -2.97673e+56   6.53645e+59   3.03121e+66 -1.27167e+134 -5.28945e+199   1.16771e+67  -1.04289e+66    4.7554e+65   3.59857e+66   4.79685e+65   7.51069e+65   1.11281e+67
   2.45529e+60   1.46092e+58     1.814e+59  -6.49711e+65  -1.3789e+134 -6.81413e+199   1.17606e+67   -1.0905e+66   5.31214e+65  -9.04273e+64   3.06908e+65   5.80463e+65   1.17017e+67
   2.46489e+60   7.52533e+57   2.06487e+59  -1.19353e+66  -1.1425e+134 -4.62878e+199   1.07552e+67  -1.94107e+66   4.15599e+65   3.31941e+65  -1.12208e+65  -2.96869e+65   1.06224e+67
   3.13689e+60   2.63285e+58   2.12686e+59  -1.43495e+67 -6.52077e+133    4.893e+199   1.64656e+67  -1.12578e+67  -6.26669e+65  -2.46499e+66   6.45051e+64   -5.6586e+65   1.00615e+67
   3.13936e+60   5.19826e+58   1.81905e+59  -1.36673e+67 -9.13202e+133  4.85294e+199   1.66768e+67  -1.03277e+67  -4.81642e+65  -2.85795e+66   7.38699e+64   3.11471e+65   1.12732e+67
   2.46537e+60  -1.48975e+57   6.17784e+59  -5.97783e+65 -2.24619e+134  6.55217e+199   1.49992e+67  -1.07946e+66  -2.95978e+65   7.77653e+65  -6.05693e+64   8.74729e+65   1.49365e+67
   2.48275e+60   2.97673e+56   6.53645e+59  -4.10362e+65 -1.95955e+134  5.55189e+199   1.40044e+67  -1.77457e+66  -2.56133e+65   1.62034e+66  -4.79685e+65  -4.12353e+65   1.38823e+67
   3.22375e+60   2.74307e+58   6.71717e+59  -1.13038e+67 -1.70873e+134  1.38539e+199   1.72814e+67  -1.06103e+67   2.11277e+63  -6.95581e+65  -3.28028e+65  -8.13773e+65   1.33214e+67
   3.21791e+60   5.28866e+58   6.27359e+59  -1.13528e+67 -1.95873e+134 -3.92036e+197   1.80211e+67  -9.83566e+66  -8.31989e+63  -1.50885e+66  -3.18663e+65    4.7331e+65    1.4508e+67
   2.46489e+60   7.52533e+57   2.06487e+59  -1.07836e+66 -1.14541e+134 -5.24081e+199   1.07566e+67  -1.91658e+66   4.81798e+65   3.56425e+65   1.76944e+65   4.88964e+65   1.06224e+67
   2.46837e+60  -8.34655e+46   2.14941e+59  -1.59012e+66 -1.07743e+134 -3.81273e+199    1.0501e+67  -2.35884e+66   3.72999e+65   3.95723e+65   -1.6452e+65  -3.99376e+65   1.02903e+67
   3.13666e+60  -1.06026e+47   2.22707e+59  -1.45248e+67 -5.80045e+133  4.21932e+199   1.64005e+67  -1.15704e+67  -6.00222e+65  -2.35418e+66   1.07046e+64  -4.73424e+65   9.66318e+66
   3.13689e+60   2.63285e+58   2.12686e+59  -1.41735e+67 -6.69963e+133  4.04771e+199   1.63672e+67  -1.12204e+67  -5.25532e+65  -2.42758e+66  -4.13688e+64   4.14916e+65   1.00615e+67
   2.48275e+60   2.97673e+56   6.53645e+59   1.33577e+65 -1.96121e+134 -9.97715e+198    1.4005e+67  -1.65893e+66   5.65248e+64   1.73598e+66   1.02156e+64   7.25599e+65   1.38823e+67
   2.48976e+60   -1.0942e+47    6.6542e+59  -1.27855e+64 -1.87259e+134   6.4403e+197   1.36843e+67   -2.0235e+66   2.54084e+64   1.98531e+66  -3.31249e+65  -5.56278e+65   1.35211e+67
   3.22644e+60  -1.37523e+47    6.8646e+59  -1.07745e+67 -1.66833e+134 -4.15895e+199   1.68203e+67  -1.07731e+67   3.01242e+65  -3.02615e+65  -1.26968e+65    -6.965e+65    1.2894e+67
   3.22375e+60   2.74307e+58   6.71717e+59  -1.07886e+67 -1.74987e+134  -5.0267e+199   1.70698e+67  -1.05008e+67   2.98249e+65  -5.86051e+65  -1.79042e+65   5.85377e+65   1.33214e+67
   2.46837e+60  -8.34655e+46   2.14941e+59  -1.59012e+66 -1.07743e+134 -3.81273e+199    1.0501e+67  -2.35884e+66   3.72999e+65   3.95723e+65    1.6452e+65   3.99376e+65   1.02903e+67
   2.46489e+60  -7.52533e+57   2.06487e+59  -1.07836e+66 -1.14541e+134 -5.24081e+199   1.07566e+67  -1.91658e+66   4.81798e+65   3.56425e+65  -1.76944e+65  -4.88964e+65   1.06224e+67
   3.13689e+60  -2.63285e+58   2.12686e+59  -1.41735e+67 -6.69963e+133  4.04771e+199   1.63672e+67  -1.12204e+67  -5.25532e+65  -2.42758e+66   4.13688e+64  -4.14916e+65   1.00615e+67
   3.13666e+60  -1.06026e+47   2.22707e+59  -1.45248e+67 -5.80045e+133  4.21932e+199   1.64005e+67  -1.15704e+67  -6.00222e+65  -2.35418e+66  -1.07046e+64   4.73424e+65   9.66318e+66
   2.48976e+60   -1.0942e+47    6.6542e+59  -1.27855e+64 -1.87259e+134   6.4403e+197   1.36843e+67   -2.0235e+66   2.54084e+64   1.98531e+66   3.31249e+65   5.56278e+65   1.35211e+67
   2.48275e+60  -2.97673e+56   6.53645e+59   1.33577e+65 -1.96121e+134 -9.97715e+198    1.4005e+67  -1.65893e+66   5.65248e+64   1.73598e+66  -1.02156e+64  -7.25599e+65   1.38823e+67
   3.22375e+60  -2.74307e+58   6.71717e+59  -1.07886e+67 -1.74987e+134  -5.0267e+199   1.70698e+67  -1.05008e+67   2.98249e+65  -5.86051e+65   1.79042e+65  -5.85377e+65   1.33214e+67
   3.22644e+60  -1.37523e+47    6.8646e+59  -1.07745e+67 -1.66833e+134 -4.15895e+199   1.68203e+67  -1.07731e+67   3.01242e+65  -3.02615e+65   1.26968e+65     6.965e+65    1.2894e+67
   2.46489e+60  -7.52533e+57   2.06487e+59  -1.19353e+66  -1.1425e+134 -4.62878e+199   1.07552e+67  -1.94107e+66   4.15599e+65   3.31941e+65   1.12208e+65   2.96869e+65   1.06224e+67
   2.45529e+60  -1.46092e+58     1.814e+59  -6.49711e+65  -1.3789e+134 -6.81413e+199   1.17606e+67   -1.0905e+66   5.31214e+65  -9.04273e+64  -3.06908e+65  -5.80463e+65   1.17017e+67
   3.13936e+60  -5.19826e+58   1.81905e+59  -1.36673e+67 -9.13202e+133  4.85294e+199   1.66768e+67  -1.03277e+67  -4.81642e+65  -2.85795e+66  -7.38699e+64  -3.11471e+65   1.12732e+67
   3.13689e+60  -2.63285e+58   2.12686e+59  -1.43495e+67 -6.52077e+133    4.893e+199   1.64656e+67  -1.12578e+67  -6.26669e+65  -2.46499e+66  -6.45051e+64    5.6586e+65   1.00615e+67
   2.48275e+60  -2.97673e+56   6.53645e+59  -4.10362e+65 -1.95955e+134  5.55189e+199   1.40044e+67  -1.77457e+66  -2.56133e+65   1.62034e+66   4.79685e+65   4.12353e+65   1.38823e+67
   2.46537e+60   1.48975e+57   6.17784e+59  -5.97783e+65 -2.24619e+134  6.55217e+199   1.49992e+67  -1.07946e+66  -2.95978e+65   7.77653e+65   6.05693e+64  -8.74729e+65   1.49365e+67
   3.21791e+60  -5.28866e+58   6.27359e+59  -1.13528e+67 -1.95873e+134 -3.92036e+197   1.80211e+67  -9.83566e+66  -8.31989e+63  -1.50885e+66   3.18663e+65   -4.7331e+65    1.4508e+67
   3.22375e+60  -2.74307e+58   6.71717e+59  -1.13038e+67 -1.70873e+134  1.38539e+199   1.72814e+67  -1.06103e+67   2.11277e+63  -6.95581e+65   3.28028e+65   8.13773e+65   1.33214e+67
   3.13936e+60   5.19826e+58   1.81905e+59  -7.78229e+66 -1.12878e+134 -7.73807e+199   1.31697e+67  -9.07657e+66   7.69502e+65   5.24777e+65   7.38699e+64   5.98335e+65   1.00584e+67
   3.13689e+60   2.63285e+58   2.12686e+59  -9.17913e+66 -8.57472e+133  -3.6966e+199   1.30385e+67  -1.01586e+67   4.72534e+65    5.0693e+65   6.45051e+64  -4.19246e+65   8.70958e+66
   3.78027e+60    4.8235e+58   2.38704e+59  -3.03447e+67  8.37685e+133 -4.86174e+199   2.89315e+67  -2.43598e+67  -1.99207e+66  -3.99284e+66   1.37226e+65  -5.58807e+65   8.34539e+66
   3.79771e+60   9.54279e+58   2.04969e+59  -2.95952e+67  4.66516e+133  8.78373e+198   2.87962e+67  -2.36499e+67  -1.83272e+66  -4.11261e+66  -4.31899e+65   4.58775e+65   1.00546e+67
   3.21791e+60   5.28866e+58   6.27359e+59  -7.81315e+66 -2.38405e+134 -1.70414e+200   1.73046e+67  -9.08313e+66    7.4421e+65   5.25765e+65  -3.18663e+65   1.16999e+66   1.50263e+67
   3.22375e+60   2.74307e+58   6.71717e+59  -7.21988e+66 -2.07304e+134 -1.68664e+200   1.61069e+67  -9.74206e+66   8.70339e+65   1.65185e+66  -3.28028e+65  -4.26081e+65   1.35603e+67
   3.96981e+60   6.27699e+58   7.05444e+59  -2.51912e+67 -1.30708e+134 -6.54055e+198   2.76641e+67  -2.32642e+67   2.41811e+65  -2.16883e+66  -1.38075e+65  -9.26057e+65   1.31961e+67
   3.98142e+60   1.22009e+59   6.50503e+59  -2.64318e+67 -1.47176e+134  1.01597e+198   2.90829e+67  -2.29773e+67  -2.19383e+64  -3.43253e+66    -7.072e+65   6.70014e+65   1.50225e+67
   3.13689e+60   2.63285e+58   2.12686e+59  -9.00318e+66 -8.71772e+133 -4.38917e+199   1.29705e+67  -1.01212e+67   5.73672e+65   5.44337e+65  -4.13688e+64    5.6153e+65   8.70958e+66
   3.13666e+60  -1.06026e+47   2.22707e+59  -9.40281e+66 -8.07286e+133 -3.47162e+199   1.30054e+67  -1.04815e+67   4.88711e+65   5.89976e+65   1.07046e+64  -4.73424e+65   8.33585e+66
   3.77686e+60   -1.3109e+47   2.50107e+59  -3.07874e+67  9.17483e+133 -6.32825e+199   2.92594e+67  -2.48433e+67   -1.9877e+66  -3.95635e+66    1.6136e+65  -5.38723e+65   7.96677e+66
   3.78027e+60    4.8235e+58   2.38704e+59  -3.00728e+67   7.7299e+133 -4.49818e+199   2.87589e+67   -2.4302e+67   -1.8358e+66  -3.93504e+66  -5.25329e+65    4.9623e+65   8.34539e+66
   3.22375e+60   2.74307e+58   6.71717e+59  -6.70468e+66 -2.11009e+134 -2.29945e+200   1.59988e+67  -9.63253e+66   1.16648e+66   1.76138e+66  -1.79042e+65   9.73069e+65   1.35603e+67
   3.22644e+60  -1.37523e+47    6.8646e+59  -7.07732e+66 -2.02973e+134 -2.03329e+200   1.59079e+67   -9.9871e+66   1.08725e+66   1.82253e+66  -1.26968e+65    -6.965e+65   1.32436e+67
   3.97051e+60  -1.66183e+47   7.21672e+59  -2.49577e+67 -1.35625e+134 -5.98746e+199   2.75411e+67  -2.36039e+67   6.25052e+65  -1.97881e+66  -3.33417e+64  -7.66688e+65   1.28745e+67
   3.96981e+60   6.27699e+58   7.05444e+59  -2.42702e+67 -1.49269e+134 -9.65263e+199   2.71719e+67  -2.30684e+67   7.71221e+65  -1.97302e+66   -7.2003e+65   9.02881e+65   1.31961e+67
   3.13666e+60  -1.06026e+47   2.22707e+59  -9.40281e+66 -8.07286e+133 -3.47162e+199   1.30054e+67  -1.04815e+67   4.88711e+65   5.89976e+65  -1.07046e+64   4.73424e+65   8.33585e+66
   3.13689e+60  -2.63285e+58   2.12686e+59  -9.00318e+66 -8.71772e+133 -4.38917e+199   1.29705e+67  -1.01212e+67   5.73672e+65   5.44337e+65   4.13688e+64   -5.6153e+65   8.70958e+66
   3.78027e+60   -4.8235e+58   2.38704e+59  -3.00728e+67   7.7299e+133 -4.49818e+199   2.87589e+67   -2.4302e+67   -1.8358e+66  -3.93504e+66   5.25329e+65   -4.9623e+65   8.34539e+66
   3.77686e+60   -1.3109e+47   2.50107e+59  -3.07874e+67  9.17483e+133 -6.32825e+199   2.92594e+67  -2.48433e+67   -1.9877e+66  -3.95635e+66   -1.6136e+65   5.38723e+65   7.96677e+66
   3.22644e+60  -1.37523e+47    6.8646e+59  -7.07732e+66 -2.02973e+134 -2.03329e+200   1.59079e+67   -9.9871e+66   1.08725e+66   1.82253e+66   1.26968e+65     6.965e+65   1.32436e+67
   3.22375e+60  -2.74307e+58   6.71717e+59  -6.70468e+66 -2.11009e+134 -2.29945e+200   1.59988e+67  -9.63253e+66   1.16648e+66   1.76138e+66   1.79042e+65  -9.73069e+65   1.35603e+67
   3.96981e+60  -6.27699e+58   7.05444e+59  -2.42702e+67 -1.49269e+134 -9.65263e+199   2.71719e+67  -2.30684e+67   7.71221e+65  -1.97302e+66    7.2003e+65  -9.02881e+65   1.31961e+67
   3.97051e+60  -1.66183e+47   7.21672e+59  -2.49577e+67 -1.35625e+134 -5.98746e+199   2.75411e+67  -2.36039e+67   6.25052e+65  -1.97881e+66   3.33417e+64   7.66688e+65   1.28745e+67
   3.13689e+60  -2.63285e+58   2.12686e+59  -9.17913e+66 -8.57472e+133  -3.6966e+199   1.30385e+67  -1.01586e+67   4.72534e+65    5.0693e+65  -6.45051e+64   4.19246e+65   8.70958e+66
   3.13936e+60  -5.19826e+58   1.81905e+59  -7.78229e+66 -1.12878e+134 -7.73807e+199   1.31697e+67  -9.07657e+66   7.69502e+65   5.24777e+65  -7.38699e+64  -5.98335e+65   1.00584e+67
   3.79771e+60  -9.54279e+58   2.04969e+59  -2.95952e+67  4.66516e+133  8.78373e+198   2.87962e+67  -2.36499e+67  -1.83272e+66  -4.11261e+66   4.31899e+65  -4.58775e+65   1.00546e+67
   3.78027e+60   -4.8235e+58   2.38704e+59  -3.03447e+67  8.37685e+133 -4.86174e+199   2.89315e+67  -2.43598e+67  -1.99207e+66  -3.99284e+66  -1.37226e+65   5.58807e+65   8.34539e+66
   3.22375e+60  -2.74307e+58   6.71717e+59  -7.21988e+66 -2.07304e+134 -1.68664e+200   1.61069e+67  -9.74206e+66   8.70339e+65   1.65185e+66   3.28028e+65   4.26081e+65   1.35603e+67
   3.21791e+60  -5.28866e+58   6.27359e+59  -7.81315e+66 -2.38405e+134 -1.70414e+200   1.73046e+67  -9.08313e+66    7.4421e+65   5.25765e+65   3.18663e+65  -1.16999e+66   1.50263e+67
   3.98142e+60  -1.22009e+59   6.50503e+59  -2.64318e+67 -1.47176e+134  1.01597e+198   2.90829e+67  -2.29773e+67  -2.19383e+64  -3.43253e+66     7.072e+65  -6.70014e+65   1.50225e+67
   3.96981e+60  -6.27699e+58   7.05444e+59  -2.51912e+67 -1.30708e+134 -6.54055e+198   2.76641e+67  -2.32642e+67   2.41811e+65  -2.16883e+66   1.38075e+65   9.26057e+65   1.31961e+67
   3.79771e+60   9.54279e+58   2.04969e+59  -2.22557e+67 -1.45315e+133  1.00259e+199   2.25798e+67  -2.20895e+67  -2.72367e+65   1.06127e+65  -4.31899e+65    5.4538e+65   4.20604e+66
   3.78027e+60    4.8235e+58   2.38704e+59  -2.34003e+67  2.49376e+132  9.56965e+198    2.3347e+67  -2.28834e+67  -5.15703e+65  -1.17941e+63   1.37226e+65  -4.81101e+65   3.01407e+66
   4.31081e+60   7.17863e+58   2.91342e+59  -4.61264e+67  3.19676e+134 -5.76689e+200   4.25202e+67  -3.79994e+67  -3.29426e+66   -4.8327e+66    -3.806e+65  -5.49116e+65   2.14893e+66
   4.33228e+60   1.40706e+59   2.56168e+59  -4.51601e+67  2.93136e+134 -4.96676e+200   4.17887e+67  -3.73079e+67  -3.08883e+66   -4.7633e+66  -1.76344e+66   4.77366e+65   3.34464e+66
   3.98142e+60   1.22009e+59   6.50503e+59  -1.43567e+67 -2.04252e+134  -3.9894e+200   2.02575e+67  -2.04102e+67   2.54519e+66   3.50824e+66    -7.072e+65   1.06516e+66   9.38055e+66
   3.96981e+60   6.27699e+58   7.05444e+59  -1.54807e+67 -1.80517e+134 -3.05867e+200    2.0498e+67  -2.11997e+67   2.30625e+66   3.41281e+66  -1.38075e+65  -7.75034e+65   8.15629e+66
   4.60919e+60   1.01306e+59   7.76394e+59  -3.37136e+67 -1.13478e+134 -4.43648e+199   3.53566e+67  -3.53605e+67   2.11034e+66   -4.6349e+65  -6.23612e+65  -8.46789e+65   7.29115e+66
   4.62551e+60   1.99496e+59   7.19935e+59   -3.2768e+67 -1.44595e+134 -1.33325e+200   3.49047e+67  -3.46734e+67   2.31138e+66  -4.05959e+65  -2.00645e+66   9.93405e+65   8.51915e+66
   3.78027e+60    4.8235e+58   2.38704e+59  -2.31284e+67  -2.7985e+132  9.41549e+198   2.31889e+67  -2.28256e+67  -3.59431e+65   5.66201e+64  -5.25329e+65   5.73936e+65   3.01407e+66
   3.77686e+60   -1.3109e+47   2.50107e+59  -2.41153e+67  7.35671e+132  9.55451e+198   2.39623e+67  -2.34248e+67  -5.69236e+65  -1.21228e+65    1.6136e+65  -5.38723e+65   2.92746e+66
   4.31039e+60  -1.53676e+47   3.03083e+59  -4.65851e+67  3.20559e+134 -5.66229e+200   4.30071e+67  -3.85659e+67  -3.12096e+66  -4.89827e+66   2.00019e+64  -5.54702e+65    1.9206e+66
   4.31081e+60   7.17863e+58   2.91342e+59  -4.53786e+67  2.91818e+134 -4.76057e+200   4.20405e+67  -3.78404e+67  -2.86447e+66  -4.67374e+66  -1.37462e+66   5.57957e+65   2.14893e+66
   3.96981e+60   6.27699e+58   7.05444e+59  -1.45596e+67 -1.93277e+134 -3.94492e+200   2.01311e+67  -2.10039e+67   2.83566e+66   3.60861e+66   -7.2003e+65    1.0539e+66   8.15629e+66
   3.97051e+60  -1.66183e+47   7.21672e+59   -1.4764e+67  -1.9856e+134 -4.02892e+200   2.04092e+67  -2.14368e+67   2.79222e+66   3.88058e+66  -3.33417e+64  -7.66688e+65   8.10945e+66
   4.61373e+60  -1.96336e+47   7.95961e+59  -3.33247e+67 -1.38089e+134 -8.63021e+199   3.53359e+67  -3.57467e+67   2.48742e+66  -6.54058e+64  -2.14465e+65  -9.24389e+65   7.10259e+66
   4.60919e+60   1.01306e+59   7.76394e+59  -3.29008e+67 -1.37771e+134 -1.02673e+200   3.49319e+67  -3.51877e+67   2.57754e+66  -2.90692e+65  -1.60909e+66   8.96203e+65   7.29115e+66
   3.77686e+60   -1.3109e+47   2.50107e+59  -2.41153e+67  7.35671e+132  9.55451e+198   2.39623e+67  -2.34248e+67  -5.69236e+65  -1.21228e+65   -1.6136e+65   5.38723e+65   2.92746e+66
   3.78027e+60   -4.8235e+58   2.38704e+59  -2.31284e+67  -2.7985e+132  9.41549e+198   2.31889e+67  -2.28256e+67  -3.59431e+65   5.66201e+64   5.25329e+65  -5.73936e+65   3.01407e+66
   4.31081e+60  -7.17863e+58   2.91342e+59  -4.53786e+67  2.91818e+134 -4.76057e+200   4.20405e+67  -3.78404e+67  -2.86447e+66  -4.67374e+66   1.37462e+66  -5.57957e+65   2.14893e+66
   4.31039e+60  -1.53676e+47   3.03083e+59  -4.65851e+67  3.20559e+134 -5.66229e+200   4.30071e+67  -3.85659e+67  -3.12096e+66  -4.89827e+66  -2.00019e+64   5.54702e+65    1.9206e+66
   3.97051e+60  -1.66183e+47   7.21672e+59   -1.4764e+67  -1.9856e+134 -4.02892e+200   2.04092e+67  -2.14368e+67   2.79222e+66   3.88058e+66   3.33417e+64   7.66688e+65   8.10945e+66
   3.96981e+60  -6.27699e+58   7.05444e+59  -1.45596e+67 -1.93277e+134 -3.94492e+200   2.01311e+67  -2.10039e+67   2.83566e+66   3.60861e+66    7.2003e+65   -1.0539e+66   8.15629e+66
   4.60919e+60  -1.01306e+59   7.76394e+59  -3.29008e+67 -1.37771e+134 -1.02673e+200   3.49319e+67  -3.51877e+67   2.57754e+66  -2.90692e+65   1.60909e+66  -8.96203e+65   7.29115e+66
   4.61373e+60  -1.96336e+47   7.95961e+59  -3.33247e+67 -1.38089e+134 -8.63021e+199   3.53359e+67  -3.57467e+67   2.48742e+66  -6.54058e+64   2.14465e+65   9.24389e+65   7.10259e+66
   3.78027e+60   -4.8235e+58   2.38704e+59  -2.34003e+67  2.49376e+132  9.56965e+198    2.3347e+67  -2.28834e+67  -5.15703e+65  -1.17941e+63  -1.37226e+65   4.81101e+65   3.01407e+66
   3.79771e+60  -9.54279e+58   2.04969e+59  -2.22557e+67 -1.45315e+133  1.00259e+199   2.25798e+67  -2.20895e+67  -2.72367e+65   1.06127e+65   4.31899e+65   -5.4538e+65   4.20604e+66
   4.33228e+60  -1.40706e+59   2.56168e+59  -4.51601e+67  2.93136e+134 -4.96676e+200   4.17887e+67  -3.73079e+67  -3.08883e+66   -4.7633e+66   1.76344e+66  -4.77366e+65   3.34464e+66
   4.31081e+60  -7.17863e+58   2.91342e+59  -4.61264e+67  3.19676e+134 -5.76689e+200   4.25202e+67  -3.79994e+67  -3.29426e+66   -4.8327e+66     3.806e+65   5.49116e+65   2.14893e+66
   3.96981e+60  -6.27699e+58   7.05444e+59  -1.54807e+67 -1.80517e+134 -3.05867e+200    2.0498e+67  -2.11997e+67   2.30625e+66   3.41281e+66   1.38075e+65   7.75034e+65   8.15629e+66
   3.98142e+60  -1.22009e+59   6.50503e+59  -1.43567e+67 -2.04252e+134  -3.9894e+200   2.02575e+67  -2.04102e+67   2.54519e+66   3.50824e+66     7.072e+65  -1.06516e+66   9.38055e+66
   4.62551e+60  -1.99496e+59   7.19935e+59   -3.2768e+67 -1.44595e+134 -1.33325e+200   3.49047e+67  -3.46734e+67   2.31138e+66  -4.05959e+65   2.00645e+66  -9.93405e+65   8.51915e+66
   4.60919e+60  -1.01306e+59   7.76394e+59  -3.37136e+67 -1.13478e+134 -4.43648e+199   3.53566e+67  -3.53605e+67   2.11034e+66   -4.6349e+65   6.23612e+65   8.46789e+65   7.29115e+66
    7.7986e+59  -1.61556e+58  -7.56534e+58   3.66727e+66 -1.35718e+134  -2.4533e+198   1.22134e+67   6.54509e+66   4.42363e+64  -2.92206e+66   6.12071e+65   2.06202e+65   1.07859e+67
   8.08655e+59  -8.37237e+57  -7.06045e+58   4.11548e+66 -1.20768e+134 -1.64826e+199   1.17348e+67   6.47395e+66   1.39526e+65  -2.49799e+66  -3.68318e+65  -1.16786e+64   1.02477e+67
    1.2871e+60  -3.57062e+57  -1.06301e+59    1.8566e+66 -7.79313e+133 -6.41171e+198   9.02099e+66   4.73977e+66   9.50521e+64  -2.97822e+66  -3.07464e+65  -1.76071e+65   7.99107e+66
   1.26434e+60    -6.742e+57   -1.1483e+59   1.55934e+66 -9.01745e+133 -1.77249e+198    9.6232e+66   4.89769e+66   3.18559e+64   -3.3702e+66   4.75523e+65   4.18101e+64   8.57258e+66
   7.18842e+59  -5.79064e+58    1.8053e+59   1.04752e+67 -1.11593e+134   5.2322e+199   1.48769e+67   7.99244e+66  -4.69194e+65   2.95192e+66   5.28852e+65   3.75595e+65   1.13855e+67
   7.49399e+59  -2.93717e+58   1.90927e+59   1.11625e+67 -9.41645e+133  2.88166e+199   1.47908e+67   7.97214e+66  -3.23061e+65   3.51346e+66  -4.51537e+65  -3.96874e+64   1.08747e+67
   1.24111e+60  -1.98144e+58   2.02995e+59   9.99365e+66 -5.08619e+133 -1.29492e+199   1.22774e+67   6.46969e+66   2.59001e+65   3.26495e+66  -4.18022e+65   -2.4739e+65   8.61804e+66
   1.21602e+60   -3.9559e+58   1.88202e+59   9.45724e+66 -6.49501e+133 -9.01329e+198   1.24254e+67   6.57677e+66   1.44962e+65   2.73551e+66   3.64965e+65   1.67892e+65   9.17221e+66
   8.08655e+59  -8.37237e+57  -7.06045e+58   3.96179e+66 -1.21459e+134 -3.78982e+198   1.17113e+67   6.44127e+66   5.11796e+64  -2.53066e+66   5.65999e+65   1.51371e+65   1.02477e+67
   8.17674e+59  -1.75689e+46  -6.90068e+58   4.07839e+66 -1.17665e+134 -7.89737e+198   1.15887e+67   6.40313e+66   7.59688e+64  -2.40071e+66  -4.26094e+65  -7.54833e+64   1.01197e+67
    1.2944e+60  -2.97815e+46  -1.03591e+59   1.74942e+66 -7.44839e+133 -1.60997e+198   8.80593e+66   4.61073e+66   3.45434e+64  -2.89585e+66  -3.45202e+65  -1.28063e+65   7.81381e+66
    1.2871e+60  -3.57062e+57  -1.06301e+59   1.75245e+66 -7.81393e+133 -1.58949e+198   9.01168e+66   4.71763e+66   3.51866e+64  -3.00036e+66   4.22221e+65   9.87909e+64   7.99107e+66
   7.49399e+59  -2.93717e+58   1.90927e+59   1.09442e+67 -9.62837e+133  4.26957e+199    1.4699e+67   7.92572e+66  -4.48553e+65   3.46704e+66   5.34536e+65    3.2899e+65   1.08747e+67
   7.59084e+59  -2.85755e+46   1.93521e+59   1.13331e+67 -9.06395e+133  3.18169e+199   1.48013e+67   7.94547e+66  -3.65875e+65   3.75351e+66  -4.57557e+65  -1.22534e+65   1.07684e+67
   1.24954e+60  -4.47724e+46   2.07746e+59   1.02447e+67 -4.61821e+133  -1.4356e+199   1.22937e+67   6.41681e+66   3.05781e+65   3.52211e+66   -3.9833e+65  -2.24427e+65   8.46245e+66
   1.24111e+60  -1.98144e+58   2.02995e+59   9.97544e+66 -5.09553e+133 -1.25513e+199   1.22664e+67   6.46582e+66   2.48535e+65   3.26108e+66   3.69093e+65   2.27097e+65   8.61804e+66
   8.17674e+59  -1.75689e+46  -6.90068e+58   4.07839e+66 -1.17665e+134 -7.89737e+198   1.15887e+67   6.40313e+66   7.59688e+64  -2.40071e+66   4.26094e+65   7.54833e+64   1.01197e+67
   8.08655e+59   8.37237e+57  -7.06045e+58   3.96179e+66 -1.21459e+134 -3.78982e+198   1.17113e+67   6.44127e+66   5.11796e+64  -2.53066e+66  -5.65999e+65  -1.51371e+65   1.02477e+67
    1.2871e+60   3.57062e+57  -1.06301e+59   1.75245e+66 -7.81393e+133 -1.58949e+198   9.01168e+66   4.71763e+66   3.51866e+64  -3.00036e+66  -4.22221e+65  -9.87909e+64   7.99107e+66
    1.2944e+60  -2.97815e+46  -1.03591e+59   1.74942e+66 -7.44839e+133 -1.60997e+198   8.80593e+66   4.61073e+66   3.45434e+64  -2.89585e+66   3.45202e+65   1.28063e+65   7.81381e+66
   7.59084e+59  -2.85755e+46   1.93521e+59   1.13331e+67 -9.06395e+133  3.18169e+199   1.48013e+67   7.94547e+66  -3.65875e+65   3.75351e+66   4.57557e+65   1.22534e+65   1.07684e+67
   7.49399e+59   2.93717e+58   1.90927e+59   1.09442e+67 -9.62837e+133  4.26957e+199    1.4699e+67   7.92572e+66  -4.48553e+65   3.46704e+66  -5.34536e+65   -3.2899e+65   1.08747e+67
   1.24111e+60   1.98144e+58   2.02995e+59   9.97544e+66 -5.09553e+133 -1.25513e+199   1.22664e+67   6.46582e+66   2.48535e+65   3.26108e+66  -3.69093e+65  -2.27097e+65   8.61804e+66
   1.24954e+60  -4.47724e+46   2.07746e+59   1.02447e+67 -4.61821e+133  -1.4356e+199   1.22937e+67   6.41681e+66   3.05781e+65   3.52211e+66    3.9833e+65   2.24427e+65   8.46245e+66
   8.08655e+59   8.37237e+57  -7.06045e+58   4.11548e+66 -1.20768e+134 -1.64826e+199   1.17348e+67   6.47395e+66   1.39526e+65  -2.49799e+66   3.68318e+65   1.16786e+64   1.02477e+67
    7.7986e+59   1.61556e+58  -7.56534e+58   3.66727e+66 -1.35718e+134  -2.4533e+198   1.22134e+67   6.54509e+66   4.42363e+64  -2.92206e+66  -6.12071e+65  -2.06202e+65   1.07859e+67
   1.26434e+60     6.742e+57   -1.1483e+59   1.55934e+66 -9.01745e+133 -1.77249e+198    9.6232e+66   4.89769e+66   3.18559e+64   -3.3702e+66  -4.75523e+65  -4.18101e+64   8.57258e+66
    1.2871e+60   3.57062e+57  -1.06301e+59    1.8566e+66 -7.79313e+133 -6.41171e+198   9.02099e+66   4.73977e+66   9.50521e+64  -2.97822e+66   3.07464e+65   1.76071e+65   7.99107e+66
   7.49399e+59   2.93717e+58   1.90927e+59   1.11625e+67 -9.41645e+133  2.88166e+199   1.47908e+67   7.97214e+66  -3.23061e+65   3.51346e+66   4.51537e+65   3.96874e+64   1.08747e+67
   7.18842e+59   5.79064e+58    1.8053e+59   1.04752e+67 -1.11593e+134   5.2322e+199   1.48769e+67   7.99244e+66  -4.69194e+65   2.95192e+66  -5.28852e+65  -3.75595e+65   1.13855e+67
   1.21602e+60    3.9559e+58   1.88202e+59   9.45724e+66 -6.49501e+133 -9.01329e+198   1.24254e+67   6.57677e+66   1.44962e+65   2.73551e+66  -3.64965e+65  -1.67892e+65   9.17221e+66
   1.24111e+60   1.98144e+58   2.02995e+59   9.99365e+66 -5.08619e+133 -1.29492e+199   1.22774e+67   6.46969e+66   2.59001e+65   3.26495e+66   4.18022e+65    2.4739e+65   8.61804e+66
   1.26434e+60    -6.742e+57   -1.1483e+59   2.30934e+66 -1.65542e+134 -2.84882e+199   1.30719e+67   5.05714e+66   1.91305e+65   -2.9391e+66   4.75523e+65   2.42965e+65     1.228e+67
    1.2871e+60  -3.57062e+57  -1.06301e+59   2.53076e+66 -1.47393e+134 -3.44829e+199   1.24015e+67    4.8831e+66   2.38378e+65  -2.59071e+66  -3.07464e+65  -7.58036e+64   1.16271e+67
    1.8425e+60   3.35344e+57  -1.39414e+59  -2.20607e+66 -1.03031e+134  1.44824e+199   1.03874e+67   1.52281e+66  -1.31128e+65  -3.59775e+66  -1.97799e+65  -2.26461e+65   9.88602e+66
    1.8273e+60   6.92933e+57  -1.51131e+59  -2.19497e+66 -1.20142e+134  1.66145e+199   1.11786e+67   1.83051e+66  -1.28768e+65  -3.89671e+66   3.45105e+65    9.2307e+64   1.06371e+67
   1.21602e+60   -3.9559e+58   1.88202e+59   7.05756e+66 -1.74754e+134  6.56416e+199   1.49854e+67    6.0666e+66  -3.65207e+65   1.35616e+66   3.64965e+65   4.34322e+65   1.34145e+67
   1.24111e+60  -1.98144e+58   2.02995e+59   7.82094e+66 -1.53641e+134  3.16944e+199   1.46563e+67   6.00778e+66  -2.02913e+65   2.01607e+66  -4.18022e+65   -1.2453e+65   1.28037e+67
   1.82142e+60  -7.65662e+57   2.06735e+59   4.40979e+66 -1.18063e+134 -2.01569e+199   1.17264e+67   2.92933e+66   1.89585e+65   1.29087e+66  -3.50467e+65  -3.73338e+65   1.10626e+67
   1.80299e+60  -1.55722e+58   1.86675e+59   3.87893e+66 -1.36226e+134  -9.7611e+198   1.22993e+67   3.12181e+66   7.67257e+64   6.80392e+65   1.92436e+65   1.85514e+65   1.17716e+67
    1.2871e+60  -3.57062e+57  -1.06301e+59   2.42661e+66 -1.47706e+134 -2.41726e+199   1.23933e+67   4.86095e+66   1.78513e+65  -2.61285e+66   4.22221e+65   1.99058e+65   1.16271e+67
    1.2944e+60  -2.97815e+46  -1.03591e+59   2.44621e+66  -1.4202e+134  -2.4766e+199   1.21657e+67   4.75887e+66    1.8268e+65  -2.49533e+66  -3.45202e+65  -1.28063e+65   1.14203e+67
   1.84747e+60   -4.3954e+46  -1.35504e+59  -2.31097e+66 -9.77409e+133  1.80842e+199   1.01529e+67   1.37018e+66  -1.74447e+65   -3.5067e+66  -2.34797e+65  -1.84741e+65   9.65503e+66
    1.8425e+60   3.35344e+57  -1.39414e+59   -2.2641e+66 -1.02943e+134  1.80391e+199   1.03956e+67   1.51048e+66  -1.64483e+65  -3.61009e+66   2.85364e+65    1.4238e+65   9.88602e+66
   1.24111e+60  -1.98144e+58   2.02995e+59   7.80273e+66 -1.53823e+134  3.47007e+199   1.46528e+67   6.00391e+66   -2.1338e+65    2.0122e+66   3.69093e+65   3.49957e+65   1.28037e+67
   1.24954e+60  -4.47724e+46   2.07746e+59   7.95612e+66  -1.4758e+134  2.79797e+199   1.45217e+67   5.93026e+66  -1.80769e+65   2.20663e+66   -3.9833e+65  -2.24427e+65    1.2609e+67
   1.82777e+60  -6.31706e+46   2.13198e+59   4.56427e+66 -1.12496e+134  -2.6404e+199   1.15468e+67   2.83184e+66   2.46896e+65   1.48553e+66  -2.99962e+65  -3.05334e+65   1.08437e+67
   1.82142e+60  -7.65662e+57   2.06735e+59   4.47734e+66  -1.1769e+134 -2.60419e+199   1.17361e+67   2.94369e+66   2.28415e+65   1.30523e+66   2.20199e+65    2.6905e+65   1.10626e+67
    1.2944e+60  -2.97815e+46  -1.03591e+59   2.44621e+66  -1.4202e+134  -2.4766e+199   1.21657e+67   4.75887e+66    1.8268e+65  -2.49533e+66   3.45202e+65   1.28063e+65   1.14203e+67
    1.2871e+60   3.57062e+57  -1.06301e+59   2.42661e+66 -1.47706e+134 -2.41726e+199   1.23933e+67   4.86095e+66   1.78513e+65  -2.61285e+66  -4.22221e+65  -1.99058e+65   1.16271e+67
    1.8425e+60  -3.35344e+57  -1.39414e+59   -2.2641e+66 -1.02943e+134  1.80391e+199   1.03956e+67   1.51048e+66  -1.64483e+65  -3.61009e+66  -2.85364e+65   -1.4238e+65   9.88602e+66
   1.84747e+60   -4.3954e+46  -1.35504e+59  -2.31097e+66 -9.77409e+133  1.80842e+199   1.01529e+67   1.37018e+66  -1.74447e+65   -3.5067e+66   2.34797e+65   1.84741e+65   9.65503e+66
   1.24954e+60  -4.47724e+46   2.07746e+59   7.95612e+66  -1.4758e+134  2.79797e+199   1.45217e+67   5.93026e+66  -1.80769e+65   2.20663e+66    3.9833e+65   2.24427e+65    1.2609e+67
   1.24111e+60   1.98144e+58   2.02995e+59   7.80273e+66 -1.53823e+134  3.47007e+199   1.46528e+67   6.00391e+66   -2.1338e+65    2.0122e+66  -3.69093e+65  -3.49957e+65   1.28037e+67
   1.82142e+60   7.65662e+57   2.06735e+59   4.47734e+66  -1.1769e+134 -2.60419e+199   1.17361e+67   2.94369e+66   2.28415e+65   1.30523e+66  -2.20199e+65   -2.6905e+65   1.10626e+67
   1.82777e+60  -6.31706e+46   2.13198e+59   4.56427e+66 -1.12496e+134  -2.6404e+199   1.15468e+67   2.83184e+66   2.46896e+65   1.48553e+66   2.99962e+65   3.05334e+65   1.08437e+67
    1.2871e+60   3.57062e+57  -1.06301e+59   2.53076e+66 -1.47393e+134 -3.44829e+199   1.24015e+67    4.8831e+66   2.38378e+65  -2.59071e+66   3.07464e+65   7.58036e+64   1.16271e+67
   1.26434e+60     6.742e+57   -1.1483e+59   2.30934e+66 -1.65542e+134 -2.84882e+199   1.30719e+67   5.05714e+66   1.91305e+65   -2.9391e+66  -4.75523e+65  -2.42965e+65     1.228e+67
    1.8273e+60  -6.92933e+57  -1.51131e+59  -2.19497e+66 -1.20142e+134  1.66145e+199   1.11786e+67   1.83051e+66  -1.28768e+65  -3.89671e+66  -3.45105e+65   -9.2307e+64   1.06371e+67
    1.8425e+60  -3.35344e+57  -1.39414e+59  -2.20607e+66 -1.03031e+134  1.44824e+199   1.03874e+67   1.52281e+66  -1.31128e+65  -3.59775e+66   1.97799e+65   2.26461e+65   9.88602e+66
   1.24111e+60   1.98144e+58   2.02995e+59   7.82094e+66 -1.53641e+134  3.16944e+199   1.46563e+67   6.00778e+66  -2.02913e+65   2.01607e+66   4.18022e+65    1.2453e+65   1.28037e+67
   1.21602e+60    3.9559e+58   1.88202e+59   7.05756e+66 -1.74754e+134  6.56416e+199   1.49854e+67    6.0666e+66  -3.65207e+65   1.35616e+66  -3.64965e+65  -4.34322e+65   1.34145e+67
   1.80299e+60   1.55722e+58   1.86675e+59   3.87893e+66 -1.36226e+134  -9.7611e+198   1.22993e+67   3.12181e+66   7.67257e+64   6.80392e+65  -1.92436e+65  -1.85514e+65   1.17716e+67
   1.82142e+60   7.65662e+57   2.06735e+59   4.40979e+66 -1.18063e+134 -2.01569e+199   1.17264e+67   2.92933e+66   1.89585e+65   1.29087e+66   3.50467e+65   3.73338e+65   1.10626e+67
    1.8273e+60   6.92933e+57  -1.51131e+59   1.05229e+65 -1.75959e+134 -6.05948e+199   1.32654e+67   2.31953e+66   3.60251e+65  -2.57455e+66   3.45105e+65   2.86073e+65   1.30267e+67
    1.8425e+60   3.35344e+57  -1.39414e+59    1.0591e+65 -1.53608e+134 -5.46173e+199   1.23943e+67   2.01434e+66   3.60395e+65  -2.26882e+66  -1.97799e+65  -1.31594e+65   1.22021e+67
   2.44693e+60   1.22855e+58  -1.63664e+59  -7.77356e+66 -1.05877e+134  5.30776e+199    1.2896e+67  -3.35014e+66  -4.79434e+65  -3.94398e+66  -6.25909e+64  -2.84386e+65   1.10681e+67
   2.44084e+60    2.4702e+58  -1.78616e+59  -7.69958e+66 -1.27446e+134  6.14383e+199   1.36649e+67  -3.00204e+66  -4.63706e+65  -4.23384e+66   1.89345e+65   1.33281e+65   1.19774e+67
   1.80299e+60  -1.55722e+58   1.86675e+59   2.90126e+66 -2.21073e+134   3.0965e+199   1.51489e+67   2.91396e+66  -1.31125e+65   1.18424e+65   1.92436e+65    4.7817e+65   1.48578e+67
   1.82142e+60  -7.65662e+57   2.06735e+59    3.3696e+66 -1.95717e+134  8.20739e+198     1.439e+67   2.70819e+66  -3.15567e+64   6.92966e+65  -3.50467e+65  -2.30464e+65   1.40467e+67
   2.46489e+60   7.52533e+57   2.06487e+59  -2.90322e+66 -1.65682e+134 -5.30805e+198   1.31951e+67  -2.31472e+66   5.21208e+64  -6.40626e+65   -2.2878e+65  -4.67951e+65   1.29127e+67
   2.45529e+60   1.46092e+58     1.814e+59   -3.2969e+66 -1.88153e+134  6.21669e+198   1.41075e+67  -2.06603e+66  -3.15755e+64   -1.1993e+66   2.31553e+64   2.40684e+65   1.38085e+67
    1.8425e+60   3.35344e+57  -1.39414e+59   4.78821e+64 -1.53686e+134 -4.84614e+199   1.23971e+67     2.002e+66   3.27041e+65  -2.28116e+66   2.85364e+65   2.37248e+65   1.22021e+67
   1.84747e+60   -4.3954e+46  -1.35504e+59  -2.62243e+64 -1.46906e+134 -4.45754e+199   1.21205e+67   1.85591e+66   3.11286e+65  -2.19342e+66  -2.34797e+65  -1.84741e+65   1.19432e+67
   2.44897e+60  -6.03577e+46  -1.58658e+59  -7.89732e+66 -9.85875e+133  5.37513e+199   1.26868e+67  -3.51239e+66  -5.18119e+65  -3.86681e+66  -9.65508e+64  -2.36485e+65    1.0767e+67
   2.44693e+60   1.22855e+58  -1.63664e+59  -7.80772e+66  -1.0564e+134  5.52246e+199   1.29074e+67  -3.35741e+66  -4.99072e+65  -3.95125e+66   1.28341e+65   1.85503e+65   1.10681e+67
   1.82142e+60  -7.65662e+57   2.06735e+59   3.43715e+66 -1.95578e+134  6.30874e+197   1.44011e+67   2.72255e+66   7.27324e+63   7.07328e+65   2.20199e+65   4.11923e+65   1.40467e+67
   1.82777e+60  -6.31706e+46   2.13198e+59    3.5966e+66 -1.87779e+134 -5.53192e+198   1.41674e+67   2.62612e+66   4.11714e+64   9.29308e+65  -2.99962e+65  -3.05334e+65   1.37907e+67
   2.46837e+60  -8.34655e+46   2.14941e+59  -2.64409e+66 -1.58774e+134 -2.15052e+199    1.2875e+67  -2.39556e+66   1.48925e+65  -3.97453e+65   -1.6452e+65  -3.99376e+65   1.26144e+67
   2.46489e+60   7.52533e+57   2.06487e+59  -2.78806e+66 -1.65776e+134 -1.88321e+199   1.31738e+67  -2.29023e+66   1.18319e+65  -6.16142e+65   6.03714e+64   3.17882e+65   1.29127e+67
   1.84747e+60   -4.3954e+46  -1.35504e+59  -2.62243e+64 -1.46906e+134 -4.45754e+199   1.21205e+67   1.85591e+66   3.11286e+65  -2.19342e+66   2.34797e+65   1.84741e+65   1.19432e+67
    1.8425e+60  -3.35344e+57  -1.39414e+59   4.78821e+64 -1.53686e+134 -4.84614e+199   1.23971e+67     2.002e+66   3.27041e+65  -2.28116e+66  -2.85364e+65  -2.37248e+65   1.22021e+67
   2.44693e+60  -1.22855e+58  -1.63664e+59  -7.80772e+66  -1.0564e+134  5.52246e+199   1.29074e+67  -3.35741e+66  -4.99072e+65  -3.95125e+66  -1.28341e+65  -1.85503e+65   1.10681e+67
   2.44897e+60  -6.03577e+46  -1.58658e+59  -7.89732e+66 -9.85875e+133  5.37513e+199   1.26868e+67  -3.51239e+66  -5.18119e+65  -3.86681e+66   9.65508e+64   2.36485e+65    1.0767e+67
   1.82777e+60  -6.31706e+46   2.13198e+59    3.5966e+66 -1.87779e+134 -5.53192e+198   1.41674e+67   2.62612e+66   4.11714e+64   9.29308e+65   2.99962e+65   3.05334e+65   1.37907e+67
   1.82142e+60   7.65662e+57   2.06735e+59   3.43715e+66 -1.95578e+134  6.30874e+197   1.44011e+67   2.72255e+66   7.27324e+63   7.07328e+65  -2.20199e+65  -4.11923e+65   1.40467e+67
   2.46489e+60  -7.52533e+57   2.06487e+59  -2.78806e+66 -1.65776e+134 -1.88321e+199   1.31738e+67  -2.29023e+66   1.18319e+65  -6.16142e+65  -6.03714e+64  -3.17882e+65   1.29127e+67
   2.46837e+60  -8.34655e+46   2.14941e+59  -2.64409e+66 -1.58774e+134 -2.15052e+199    1.2875e+67  -2.39556e+66   1.48925e+65  -3.97453e+65    1.6452e+65   3.99376e+65   1.26144e+67
    1.8425e+60  -3.35344e+57  -1.39414e+59    1.0591e+65 -1.53608e+134 -5.46173e+199   1.23943e+67   2.01434e+66   3.60395e+65  -2.26882e+66   1.97799e+65   1.31594e+65   1.22021e+67
    1.8273e+60  -6.92933e+57  -1.51131e+59   1.05229e+65 -1.75959e+134 -6.05948e+199   1.32654e+67   2.31953e+66   3.60251e+65  -2.57455e+66  -3.45105e+65  -2.86073e+65   1.30267e+67
   2.44084e+60   -2.4702e+58  -1.78616e+59  -7.69958e+66 -1.27446e+134  6.14383e+199   1.36649e+67  -3.00204e+66  -4.63706e+65  -4.23384e+66  -1.89345e+65  -1.33281e+65   1.19774e+67
   2.44693e+60  -1.22855e+58  -1.63664e+59  -7.77356e+66 -1.05877e+134  5.30776e+199    1.2896e+67  -3.35014e+66  -4.79434e+65  -3.94398e+66   6.25909e+64   2.84386e+65   1.10681e+67
   1.82142e+60   7.65662e+57   2.06735e+59    3.3696e+66 -1.95717e+134  8.20739e+198     1.439e+67   2.70819e+66  -3.15567e+64   6.92966e+65   3.50467e+65   2.30464e+65   1.40467e+67
   1.80299e+60   1.55722e+58   1.86675e+59   2.90126e+66 -2.21073e+134   3.0965e+199   1.51489e+67   2.91396e+66  -1.31125e+65   1.18424e+65  -1.92436e+65   -4.7817e+65   1.48578e+67
   2.45529e+60  -1.46092e+58     1.814e+59   -3.2969e+66 -1.88153e+134  6.21669e+198   1.41075e+67  -2.06603e+66  -3.15755e+64   -1.1993e+66  -2.31553e+64  -2.40684e+65   1.38085e+67
   2.46489e+60  -7.52533e+57   2.06487e+59  -2.90322e+66 -1.65682e+134 -5.30805e+198   1.31951e+67  -2.31472e+66   5.21208e+64  -6.40626e+65    2.2878e+65   4.67951e+65   1.29127e+67
   2.44084e+60    2.4702e+58  -1.78616e+59  -3.21604e+66 -1.57441e+134 -7.44445e+199   1.29531e+67  -2.04884e+66   4.89488e+65  -1.65669e+66   1.89345e+65   2.99294e+65   1.26054e+67
   2.44693e+60   1.22855e+58  -1.63664e+59  -3.51902e+66 -1.32864e+134 -5.53408e+199   1.20519e+67  -2.44563e+66   4.25074e+65  -1.49846e+66  -6.25909e+64  -2.04088e+65   1.16106e+67
   3.06283e+60   2.29173e+58  -1.71605e+59  -1.53716e+67 -6.30557e+133  8.59741e+199   1.73015e+67  -1.02653e+67    -1.088e+66  -4.01829e+66   6.72819e+64  -3.15407e+65   1.09426e+67
   3.06767e+60   4.59887e+58  -1.88913e+59  -1.53686e+67 -8.82237e+133  1.12893e+200   1.80116e+67  -1.00409e+67  -1.08735e+66  -4.24029e+66  -5.47321e+64   1.87975e+65   1.20951e+67
   2.45529e+60   1.46092e+58     1.814e+59  -1.78925e+66 -2.34742e+134 -6.65575e+199   1.54254e+67  -1.74551e+66   2.88949e+65  -3.32692e+65   2.31553e+64   5.80463e+65   1.53096e+67
   2.46489e+60   7.52533e+57   2.06487e+59  -1.22161e+66  -2.0481e+134 -8.14722e+199   1.43632e+67  -1.95721e+66   4.09629e+65   3.25971e+65   -2.2878e+65  -2.96869e+65   1.42605e+67
   3.13689e+60   2.63285e+58   2.12686e+59  -1.10093e+67 -1.69618e+134 -1.03701e+199   1.70535e+67  -9.33787e+66   8.34431e+64  -1.75488e+66  -4.45831e+64   -5.6586e+65   1.35925e+67
   3.13936e+60   5.19826e+58   1.81905e+59  -1.18769e+67 -1.94919e+134  1.92312e+199   1.83298e+67  -9.29859e+66  -1.01009e+65  -2.47731e+66  -1.66597e+65   3.11471e+65   1.47993e+67
   2.44693e+60   1.22855e+58  -1.63664e+59  -3.55318e+66 -1.32805e+134 -5.21679e+199   1.20595e+67   -2.4529e+66   4.05437e+65  -1.50572e+66   1.28341e+65   2.65801e+65   1.16106e+67
   2.44897e+60  -6.03577e+46  -1.58658e+59  -3.68295e+66 -1.25142e+134  -4.6005e+199   1.17773e+67  -2.61643e+66   3.77848e+65  -1.44438e+66  -9.65508e+64  -2.36485e+65   1.12837e+67
   3.06141e+60  -7.84231e+46  -1.65658e+59    -1.548e+67 -5.48787e+133  8.03019e+199   1.71612e+67   -1.0402e+67   -1.1256e+66   -3.9524e+66   6.75194e+64  -2.80953e+65   1.05861e+67
   3.06283e+60   2.29173e+58  -1.71605e+59  -1.54118e+67 -6.25381e+133  8.71627e+199   1.73223e+67  -1.02738e+67  -1.11111e+66  -4.02684e+66  -9.36421e+64   2.21334e+65   1.09426e+67
   2.46489e+60   7.52533e+57   2.06487e+59  -1.10644e+66 -2.05036e+134 -9.57852e+199   1.43618e+67  -1.93272e+66   4.75827e+65   3.50455e+65   6.03714e+64   4.88964e+65   1.42605e+67
   2.46837e+60  -8.34655e+46   2.14941e+59  -1.07288e+66 -1.95814e+134 -9.19734e+199   1.40344e+67  -2.06153e+66   4.82963e+65   5.05687e+65   -1.6452e+65  -3.99376e+65   1.39224e+67
   3.13666e+60  -1.06026e+47   2.22707e+59  -1.07382e+67 -1.62809e+134 -3.08685e+199   1.66769e+67  -9.39386e+66   2.04811e+65  -1.54914e+66   1.07046e+64  -4.73424e+65   1.32248e+67
   3.13689e+60   2.63285e+58   2.12686e+59  -1.08334e+67 -1.71012e+134 -3.12112e+199   1.69816e+67  -9.30046e+66    1.8458e+65  -1.71747e+66  -1.50457e+65   4.14916e+65   1.35925e+67
   2.44897e+60  -6.03577e+46  -1.58658e+59  -3.68295e+66 -1.25142e+134  -4.6005e+199   1.17773e+67  -2.61643e+66   3.77848e+65  -1.44438e+66   9.65508e+64   2.36485e+65   1.12837e+67
   2.44693e+60  -1.22855e+58  -1.63664e+59  -3.55318e+66 -1.32805e+134 -5.21679e+199   1.20595e+67   -2.4529e+66   4.05437e+65  -1.50572e+66  -1.28341e+65  -2.65801e+65   1.16106e+67
   3.06283e+60  -2.29173e+58  -1.71605e+59  -1.54118e+67 -6.25381e+133  8.71627e+199   1.73223e+67  -1.02738e+67  -1.11111e+66  -4.02684e+66   9.36421e+64  -2.21334e+65   1.09426e+67
   3.06141e+60  -7.84231e+46  -1.65658e+59    -1.548e+67 -5.48787e+133  8.03019e+199   1.71612e+67   -1.0402e+67   -1.1256e+66   -3.9524e+66  -6.75194e+64   2.80953e+65   1.05861e+67
   2.46837e+60  -8.34655e+46   2.14941e+59  -1.07288e+66 -1.95814e+134 -9.19734e+199   1.40344e+67  -2.06153e+66   4.82963e+65   5.05687e+65    1.6452e+65   3.99376e+65   1.39224e+67
   2.46489e+60  -7.52533e+57   2.06487e+59  -1.10644e+66 -2.05036e+134 -9.57852e+199   1.43618e+67  -1.93272e+66   4.75827e+65   3.50455e+65  -6.03714e+64  -4.88964e+65   1.42605e+67
   3.13689e+60  -2.63285e+58   2.12686e+59  -1.08334e+67 -1.71012e+134 -3.12112e+199   1.69816e+67  -9.30046e+66    1.8458e+65  -1.71747e+66   1.50457e+65  -4.14916e+65   1.35925e+67
   3.13666e+60  -1.06026e+47   2.22707e+59  -1.07382e+67 -1.62809e+134 -3.08685e+199   1.66769e+67  -9.39386e+66   2.04811e+65  -1.54914e+66  -1.07046e+64   4.73424e+65   1.32248e+67
   2.44693e+60  -1.22855e+58  -1.63664e+59  -3.51902e+66 -1.32864e+134 -5.53408e+199   1.20519e+67  -2.44563e+66   4.25074e+65  -1.49846e+66   6.25909e+64   2.04088e+65   1.16106e+67
   2.44084e+60   -2.4702e+58  -1.78616e+59  -3.21604e+66 -1.57441e+134 -7.44445e+199   1.29531e+67  -2.04884e+66   4.89488e+65  -1.65669e+66  -1.89345e+65  -2.99294e+65   1.26054e+67
   3.06767e+60  -4.59887e+58  -1.88913e+59  -1.53686e+67 -8.82237e+133  1.12893e+200   1.80116e+67  -1.00409e+67  -1.08735e+66  -4.24029e+66   5.47321e+64  -1.87975e+65   1.20951e+67
   3.06283e+60  -2.29173e+58  -1.71605e+59  -1.53716e+67 -6.30557e+133  8.59741e+199   1.73015e+67  -1.02653e+67    -1.088e+66  -4.01829e+66  -6.72819e+64   3.15407e+65   1.09426e+67
   2.46489e+60  -7.52533e+57   2.06487e+59  -1.22161e+66  -2.0481e+134 -8.14722e+199   1.43632e+67  -1.95721e+66   4.09629e+65   3.25971e+65    2.2878e+65   2.96869e+65   1.42605e+67
   2.45529e+60  -1.46092e+58     1.814e+59  -1.78925e+66 -2.34742e+134 -6.65575e+199   1.54254e+67  -1.74551e+66   2.88949e+65  -3.32692e+65  -2.31553e+64  -5.80463e+65   1.53096e+67
   3.13936e+60  -5.19826e+58   1.81905e+59  -1.18769e+67 -1.94919e+134  1.92312e+199   1.83298e+67  -9.29859e+66  -1.01009e+65  -2.47731e+66   1.66597e+65  -3.11471e+65   1.47993e+67
   3.13689e+60  -2.63285e+58   2.12686e+59  -1.10093e+67 -1.69618e+134 -1.03701e+199   1.70535e+67  -9.33787e+66   8.34431e+64  -1.75488e+66   4.45831e+64    5.6586e+65   1.35925e+67
   3.06767e+60   4.59887e+58  -1.88913e+59  -9.23047e+66 -1.01378e+134 -2.12615e+199   1.36594e+67  -8.73596e+66   2.17592e+65    -7.121e+65  -5.47321e+64   2.69555e+65   1.02697e+67
   3.06283e+60   2.29173e+58  -1.71605e+59  -9.59444e+66 -7.71989e+133 -1.02858e+199   1.30097e+67  -9.03707e+66   1.40213e+65  -6.97583e+65   6.72819e+64  -2.70899e+65   9.05871e+66
   3.63887e+60   3.44911e+58    -1.574e+59    -2.418e+67  3.98129e+133    4.845e+198   2.33422e+67  -1.85018e+67  -1.87975e+66  -3.79845e+66   1.53659e+65  -3.16847e+65    8.5006e+66
   3.65586e+60   6.90021e+58  -1.75681e+59  -2.45493e+67  2.17569e+133  4.33052e+199   2.41021e+67  -1.86222e+67  -1.95826e+66  -3.96886e+66  -4.45483e+65   2.23606e+65   9.80525e+66
   3.13936e+60   5.19826e+58   1.81905e+59   -5.9919e+66 -2.00424e+134 -2.20476e+200   1.53729e+67  -8.04745e+66   1.15013e+66    9.0541e+65  -1.66597e+65   5.98335e+65   1.35845e+67
   3.13689e+60   2.63285e+58   2.12686e+59  -5.83898e+66 -1.68342e+134 -1.87155e+200    1.4228e+67  -8.23867e+66   1.18265e+66   1.21704e+66  -4.45831e+64  -4.19246e+65   1.22406e+67
   3.78027e+60    4.8235e+58   2.38704e+59    -1.779e+67 -1.26634e+134 -7.39266e+199   2.10503e+67  -1.71433e+67    6.7705e+65  -1.32372e+66   1.74595e+65  -5.58807e+65   1.16825e+67
   3.79771e+60   9.54279e+58   2.04969e+59  -1.86762e+67 -1.50769e+134 -7.00363e+199    2.2351e+67  -1.73736e+67   4.88641e+65  -1.79125e+66  -4.24547e+65   4.58775e+65     1.312e+67
   3.06283e+60   2.29173e+58  -1.71605e+59  -9.63465e+66 -7.68941e+133 -8.66676e+198   1.30277e+67  -9.04562e+66   1.17099e+65  -7.06131e+65  -9.36421e+64   2.65842e+65   9.05871e+66
   3.06141e+60  -7.84231e+46  -1.65658e+59  -9.84166e+66 -7.05343e+133 -4.69797e+198    1.2938e+67  -9.20326e+66   7.30906e+64  -7.11488e+65   6.75194e+64  -2.80953e+65   8.73351e+66
   3.63463e+60  -9.82409e+46  -1.51044e+59  -2.42932e+67  4.68397e+133  -7.3547e+198   2.33092e+67  -1.86036e+67   -1.9057e+66  -3.78386e+66   2.00248e+65  -3.00279e+65   8.12942e+66
   3.63887e+60   3.44911e+58    -1.574e+59  -2.41852e+67  3.97698e+133  3.69372e+198   2.33485e+67  -1.85029e+67  -1.88273e+66  -3.79955e+66  -4.49072e+65   2.46516e+65    8.5006e+66
   3.13689e+60   2.63285e+58   2.12686e+59  -5.66303e+66 -1.69377e+134 -2.05072e+200   1.41932e+67  -8.20126e+66   1.28378e+66   1.25445e+66  -1.50457e+65    5.6153e+65   1.22406e+67
   3.13666e+60  -1.06026e+47   2.22707e+59  -5.61618e+66   -1.623e+134 -1.96378e+200   1.39227e+67  -8.30493e+66   1.29374e+66   1.39501e+66   1.07046e+64  -4.73424e+65   1.18975e+67
   3.77686e+60   -1.3109e+47   2.50107e+59  -1.73722e+67 -1.24701e+134 -9.08478e+199   2.06518e+67  -1.71323e+67   8.64329e+65  -1.10431e+66    1.6136e+65  -5.38723e+65   1.12934e+67
   3.78027e+60    4.8235e+58   2.38704e+59  -1.75181e+67  -1.3063e+134 -9.68584e+199   2.09168e+67  -1.70855e+67   8.33323e+65  -1.26592e+66   -4.8796e+65    4.9623e+65   1.16825e+67
   3.06141e+60  -7.84231e+46  -1.65658e+59  -9.84166e+66 -7.05343e+133 -4.69797e+198    1.2938e+67  -9.20326e+66   7.30906e+64  -7.11488e+65  -6.75194e+64   2.80953e+65   8.73351e+66
   3.06283e+60  -2.29173e+58  -1.71605e+59  -9.63465e+66 -7.68941e+133 -8.66676e+198   1.30277e+67  -9.04562e+66   1.17099e+65  -7.06131e+65   9.36421e+64  -2.65842e+65   9.05871e+66
   3.63887e+60  -3.44911e+58    -1.574e+59  -2.41852e+67  3.97698e+133  3.69372e+198   2.33485e+67  -1.85029e+67  -1.88273e+66  -3.79955e+66   4.49072e+65  -2.46516e+65    8.5006e+66
   3.63463e+60  -9.82409e+46  -1.51044e+59  -2.42932e+67  4.68397e+133  -7.3547e+198   2.33092e+67  -1.86036e+67   -1.9057e+66  -3.78386e+66  -2.00248e+65   3.00279e+65   8.12942e+66
   3.13666e+60  -1.06026e+47   2.22707e+59  -5.61618e+66   -1.623e+134 -1.96378e+200   1.39227e+67  -8.30493e+66   1.29374e+66   1.39501e+66  -1.07046e+64   4.73424e+65   1.18975e+67
   3.13689e+60  -2.63285e+58   2.12686e+59  -5.66303e+66 -1.69377e+134 -2.05072e+200   1.41932e+67  -8.20126e+66   1.28378e+66   1.25445e+66   1.50457e+65   -5.6153e+65   1.22406e+67
   3.78027e+60   -4.8235e+58   2.38704e+59  -1.75181e+67  -1.3063e+134 -9.68584e+199   2.09168e+67  -1.70855e+67   8.33323e+65  -1.26592e+66    4.8796e+65   -4.9623e+65   1.16825e+67
   3.77686e+60   -1.3109e+47   2.50107e+59  -1.73722e+67 -1.24701e+134 -9.08478e+199   2.06518e+67  -1.71323e+67   8.64329e+65  -1.10431e+66   -1.6136e+65   5.38723e+65   1.12934e+67
   3.06283e+60  -2.29173e+58  -1.71605e+59  -9.59444e+66 -7.71989e+133 -1.02858e+199   1.30097e+67  -9.03707e+66   1.40213e+65  -6.97583e+65  -6.72819e+64   2.70899e+65   9.05871e+66
   3.06767e+60  -4.59887e+58  -1.88913e+59  -9.23047e+66 -1.01378e+134 -2.12615e+199   1.36594e+67  -8.73596e+66   2.17592e+65    -7.121e+65   5.47321e+64  -2.69555e+65   1.02697e+67
   3.65586e+60  -6.90021e+58  -1.75681e+59  -2.45493e+67  2.17569e+133  4.33052e+199   2.41021e+67  -1.86222e+67  -1.95826e+66  -3.96886e+66   4.45483e+65  -2.23606e+65   9.80525e+66
   3.63887e+60  -3.44911e+58    -1.574e+59    -2.418e+67  3.98129e+133    4.845e+198   2.33422e+67  -1.85018e+67  -1.87975e+66  -3.79845e+66  -1.53659e+65   3.16847e+65    8.5006e+66
   3.13689e+60  -2.63285e+58   2.12686e+59  -5.83898e+66 -1.68342e+134 -1.87155e+200    1.4228e+67  -8.23867e+66   1.18265e+66   1.21704e+66   4.45831e+64   4.19246e+65   1.22406e+67
   3.13936e+60  -5.19826e+58   1.81905e+59   -5.9919e+66 -2.00424e+134 -2.20476e+200   1.53729e+67  -8.04745e+66   1.15013e+66    9.0541e+65   1.66597e+65  -5.98335e+65   1.35845e+67
   3.79771e+60  -9.54279e+58   2.04969e+59  -1.86762e+67 -1.50769e+134 -7.00363e+199    2.2351e+67  -1.73736e+67   4.88641e+65  -1.79125e+66   4.24547e+65  -4.58775e+65     1.312e+67
   3.78027e+60   -4.8235e+58   2.38704e+59    -1.779e+67 -1.26634e+134 -7.39266e+199   2.10503e+67  -1.71433e+67    6.7705e+65  -1.32372e+66  -1.74595e+65   5.58807e+65   1.16825e+67
   3.65586e+60   6.90021e+58  -1.75681e+59  -1.89652e+67  7.50104e+132  4.91491e+198   1.87664e+67   -1.7435e+67  -7.71093e+65  -7.59105e+65  -4.45483e+65   2.01506e+65   4.41863e+66
   3.63887e+60   3.44911e+58    -1.574e+59   -1.9061e+67  1.67718e+133 -6.94984e+197   1.86158e+67  -1.74135e+67  -7.91446e+65  -8.56007e+65   1.53659e+65  -2.95851e+65   3.53306e+66
   4.10976e+60   4.65094e+58  -1.23572e+59  -3.18758e+67  1.59175e+134 -2.12797e+200   2.92727e+67  -2.57742e+67  -2.52114e+66  -3.58041e+66  -2.35754e+65  -2.57577e+65   2.64437e+66
   4.13004e+60   9.15478e+58  -1.41043e+59  -3.19714e+67  1.50952e+134 -1.92756e+200   2.95164e+67  -2.59057e+67  -2.54147e+66  -3.52419e+66  -1.36402e+66    2.3978e+65   3.63623e+66
   3.79771e+60   9.54279e+58   2.04969e+59  -1.13367e+67 -1.19165e+134 -1.86093e+200   1.57381e+67  -1.58132e+67     2.049e+66   2.42749e+66  -4.24547e+65    5.4538e+65   7.27143e+66
   3.78027e+60    4.8235e+58   2.38704e+59  -1.08456e+67  -1.1039e+134 -1.74396e+200   1.51002e+67  -1.56669e+67   2.15342e+66   2.66794e+66   1.74595e+65  -4.81101e+65   6.35121e+66
   4.31081e+60   7.17863e+58   2.91342e+59  -2.07387e+67 -9.14293e+133 -8.24324e+199   2.28369e+67  -2.34065e+67   2.10312e+66    5.6468e+65  -1.80165e+65  -5.49116e+65   5.46252e+66
   4.33228e+60   1.40706e+59   2.56168e+59  -2.14212e+67  -9.6534e+133 -9.87843e+199    2.3567e+67  -2.36628e+67   1.95802e+66    2.8355e+65  -1.30843e+66   4.77366e+65   6.48904e+66
   3.63887e+60   3.44911e+58    -1.574e+59  -1.90662e+67  1.66862e+133 -1.37118e+198   1.86234e+67  -1.74146e+67  -7.94433e+65  -8.57111e+65  -4.49072e+65   2.67513e+65   3.53306e+66
   3.63463e+60  -9.82409e+46  -1.51044e+59  -1.92744e+67  1.96126e+133 -2.38062e+198   1.87587e+67  -1.75366e+67  -8.38699e+65  -8.99019e+65   2.00248e+65  -3.00279e+65   3.38894e+66
   4.10751e+60  -1.17484e+47  -1.17191e+59  -3.19599e+67  1.58031e+134 -2.07014e+200   2.93838e+67  -2.59639e+67  -2.40005e+66  -3.59595e+66   1.05921e+65  -3.01458e+65   2.48546e+66
   4.10976e+60   4.65094e+58  -1.23572e+59   -3.1492e+67  1.48803e+134 -1.86288e+200   2.90335e+67  -2.56926e+67  -2.30057e+66  -3.49883e+66  -1.08827e+66   2.66333e+65   2.64437e+66
   3.78027e+60    4.8235e+58   2.38704e+59  -1.05737e+67 -1.13208e+134 -1.90502e+200   1.50004e+67  -1.56091e+67   2.30969e+66   2.72574e+66   -4.8796e+65   5.73936e+65   6.35121e+66
   3.77686e+60   -1.3109e+47   2.50107e+59  -1.07002e+67 -1.11979e+134 -1.83845e+200    1.5049e+67  -1.57138e+67    2.2828e+66   2.73081e+66    1.6136e+65  -5.38723e+65   6.25412e+66
   4.31039e+60  -1.53676e+47   3.03083e+59  -2.03772e+67 -1.00713e+134 -1.01844e+200   2.27143e+67  -2.35015e+67   2.45081e+66   6.73498e+65   2.00019e+64  -5.54702e+65   5.35064e+66
   4.31081e+60   7.17863e+58   2.91342e+59   -1.9991e+67 -1.05403e+134 -1.19109e+200   2.24731e+67  -2.32475e+67   2.53291e+66   7.23644e+65  -1.17419e+66   5.57957e+65   5.46252e+66
   3.63463e+60  -9.82409e+46  -1.51044e+59  -1.92744e+67  1.96126e+133 -2.38062e+198   1.87587e+67  -1.75366e+67  -8.38699e+65  -8.99019e+65  -2.00248e+65   3.00279e+65   3.38894e+66
   3.63887e+60  -3.44911e+58    -1.574e+59  -1.90662e+67  1.66862e+133 -1.37118e+198   1.86234e+67  -1.74146e+67  -7.94433e+65  -8.57111e+65   4.49072e+65  -2.67513e+65   3.53306e+66
   4.10976e+60  -4.65094e+58  -1.23572e+59   -3.1492e+67  1.48803e+134 -1.86288e+200   2.90335e+67  -2.56926e+67  -2.30057e+66  -3.49883e+66   1.08827e+66  -2.66333e+65   2.64437e+66
   4.10751e+60  -1.17484e+47  -1.17191e+59  -3.19599e+67  1.58031e+134 -2.07014e+200   2.93838e+67  -2.59639e+67  -2.40005e+66  -3.59595e+66  -1.05921e+65   3.01458e+65   2.48546e+66
   3.77686e+60   -1.3109e+47   2.50107e+59  -1.07002e+67 -1.11979e+134 -1.83845e+200    1.5049e+67  -1.57138e+67    2.2828e+66   2.73081e+66   -1.6136e+65   5.38723e+65   6.25412e+66
   3.78027e+60   -4.8235e+58   2.38704e+59  -1.05737e+67 -1.13208e+134 -1.90502e+200   1.50004e+67  -1.56091e+67   2.30969e+66   2.72574e+66    4.8796e+65  -5.73936e+65   6.35121e+66
   4.31081e+60  -7.17863e+58   2.91342e+59   -1.9991e+67 -1.05403e+134 -1.19109e+200   2.24731e+67  -2.32475e+67   2.53291e+66   7.23644e+65   1.17419e+66  -5.57957e+65   5.46252e+66
   4.31039e+60  -1.53676e+47   3.03083e+59  -2.03772e+67 -1.00713e+134 -1.01844e+200   2.27143e+67  -2.35015e+67   2.45081e+66   6.73498e+65  -2.00019e+64   5.54702e+65   5.35064e+66
   3.63887e+60  -3.44911e+58    -1.574e+59   -1.9061e+67  1.67718e+133 -6.94984e+197   1.86158e+67  -1.74135e+67  -7.91446e+65  -8.56007e+65  -1.53659e+65   2.95851e+65   3.53306e+66
   3.65586e+60  -6.90021e+58  -1.75681e+59  -1.89652e+67  7.50104e+132  4.91491e+198   1.87664e+67   -1.7435e+67  -7.71093e+65  -7.59105e+65   4.45483e+65  -2.01506e+65   4.41863e+66
   4.13004e+60  -9.15478e+58  -1.41043e+59  -3.19714e+67  1.50952e+134 -1.92756e+200   2.95164e+67  -2.59057e+67  -2.54147e+66  -3.52419e+66   1.36402e+66   -2.3978e+65   3.63623e+66
   4.10976e+60  -4.65094e+58  -1.23572e+59  -3.18758e+67  1.59175e+134 -2.12797e+200   2.92727e+67  -2.57742e+67  -2.52114e+66  -3.58041e+66   2.35754e+65   2.57577e+65   2.64437e+66
   3.78027e+60   -4.8235e+58   2.38704e+59  -1.08456e+67  -1.1039e+134 -1.74396e+200   1.51002e+67  -1.56669e+67   2.15342e+66   2.66794e+66  -1.74595e+65   4.81101e+65   6.35121e+66
   3.79771e+60  -9.54279e+58   2.04969e+59  -1.13367e+67 -1.19165e+134 -1.86093e+200   1.57381e+67  -1.58132e+67     2.049e+66   2.42749e+66   4.24547e+65   -5.4538e+65   7.27143e+66
   4.33228e+60  -1.40706e+59   2.56168e+59  -2.14212e+67  -9.6534e+133 -9.87843e+199    2.3567e+67  -2.36628e+67   1.95802e+66    2.8355e+65   1.30843e+66  -4.77366e+65   6.48904e+66
   4.31081e+60  -7.17863e+58   2.91342e+59  -2.07387e+67 -9.14293e+133 -8.24324e+199   2.28369e+67  -2.34065e+67   2.10312e+66    5.6468e+65   1.80165e+65   5.49116e+65   5.46252e+66
   8.36151e+59   2.24832e+58  -3.13215e+59  -3.14573e+66 -1.63104e+134  -5.9506e+199   1.31529e+67   4.65008e+66   3.85939e+65  -8.18175e+66   5.48462e+65   2.81024e+64   1.11083e+67
   8.63181e+59   1.13208e+58   -3.1331e+59  -3.18197e+66 -1.49235e+134 -5.50004e+199   1.26238e+67   4.47554e+66   3.78234e+65  -8.03574e+66  -3.46605e+65   1.01336e+64   1.05738e+67
    1.3297e+60     1.144e+58  -3.91196e+59  -6.19342e+66 -9.58582e+133  2.29231e+199   1.15852e+67   2.70861e+66  -2.26058e+65  -8.67597e+66  -2.76339e+65  -6.67235e+64   8.58059e+66
   1.30884e+60   2.29827e+58  -3.92727e+59  -6.12423e+66 -1.09199e+134   2.4469e+199   1.21122e+67   2.90209e+66  -2.11348e+65  -8.81497e+66   4.18817e+65  -4.87547e+64   9.20265e+66
    7.7986e+59  -1.61556e+58  -7.56534e+58   2.43433e+66 -1.55509e+134  3.63784e+199   1.27057e+67   5.83639e+66  -2.17885e+65  -3.18418e+66   4.65041e+65   2.06202e+65   1.16657e+67
   8.08655e+59  -8.37237e+57  -7.06045e+58   2.88143e+66 -1.40501e+134  1.78116e+199   1.21985e+67    5.7646e+66  -1.22832e+65  -2.76035e+66  -4.30026e+65  -1.16786e+64   1.11371e+67
    1.2871e+60  -3.57062e+57  -1.06301e+59   9.73839e+65 -9.72744e+133  1.04552e+199   9.91074e+66   4.23236e+66  -9.26214e+64   -3.1659e+66  -3.65727e+65  -1.76071e+65   9.14394e+66
   1.26434e+60    -6.742e+57   -1.1483e+59   5.59684e+65 -1.10991e+134  2.06587e+199   1.05501e+67   4.32308e+66   -1.8067e+65  -3.58273e+66   3.29429e+65   4.18101e+64   9.76004e+66
   8.63181e+59   1.13208e+58   -3.1331e+59  -3.14066e+66 -1.49498e+134 -5.72521e+199   1.26239e+67   4.48432e+66    4.0198e+65  -8.02696e+66   5.24076e+65  -3.97849e+63   1.05738e+67
   8.71781e+59  -7.55212e+45  -3.13107e+59  -3.14521e+66 -1.45692e+134 -5.63879e+199   1.24733e+67   4.44378e+66   4.01013e+65     -7.99e+66  -4.06309e+65  -9.60919e+63   1.04211e+67
   1.33646e+60  -1.58245e+46  -3.90591e+59  -6.25741e+66 -9.19405e+133    2.431e+199   1.14497e+67   2.64361e+66  -2.49375e+65  -8.65165e+66  -3.19508e+65  -2.85705e+64    8.3943e+66
    1.3297e+60     1.144e+58  -3.91196e+59  -6.22024e+66  -9.5801e+133  2.46083e+199   1.15971e+67   2.70291e+66  -2.41471e+65  -8.68167e+66   3.89653e+65  -2.29398e+64   8.58059e+66
   8.08655e+59  -8.37237e+57  -7.06045e+58   2.72773e+66 -1.40942e+134  3.18537e+199   1.21813e+67   5.73193e+66  -2.11179e+65  -2.79302e+66   5.04291e+65   1.51371e+65   1.11371e+67
   8.17674e+59  -1.75689e+46  -6.90068e+58   2.90881e+66  -1.3669e+134  2.46349e+199   1.20479e+67   5.73086e+66  -1.72681e+65  -2.64936e+66  -4.26094e+65  -7.54833e+64   1.09903e+67
    1.2944e+60  -2.97815e+46  -1.03591e+59   1.01814e+66 -9.34049e+133  1.23494e+199    9.7181e+66   4.19039e+66  -1.20925e+65  -3.05132e+66  -3.45202e+65  -1.28063e+65   8.96356e+66
    1.2871e+60  -3.57062e+57  -1.06301e+59   8.69689e+65 -9.73321e+133  1.58352e+199   9.90396e+66   4.21021e+66  -1.52487e+65  -3.18804e+66   3.63959e+65   9.87909e+64   9.14394e+66
   8.71781e+59  -7.55212e+45  -3.13107e+59  -3.14521e+66 -1.45692e+134 -5.63879e+199   1.24733e+67   4.44378e+66   4.01013e+65     -7.99e+66   4.06309e+65   9.60919e+63   1.04211e+67
   8.63181e+59  -1.13208e+58   -3.1331e+59  -3.14066e+66 -1.49498e+134 -5.72521e+199   1.26239e+67   4.48432e+66    4.0198e+65  -8.02696e+66  -5.24076e+65   3.97849e+63   1.05738e+67
    1.3297e+60    -1.144e+58  -3.91196e+59  -6.22024e+66  -9.5801e+133  2.46083e+199   1.15971e+67   2.70291e+66  -2.41471e+65  -8.68167e+66  -3.89653e+65   2.29398e+64   8.58059e+66
   1.33646e+60  -1.58245e+46  -3.90591e+59  -6.25741e+66 -9.19405e+133    2.431e+199   1.14497e+67   2.64361e+66  -2.49375e+65  -8.65165e+66   3.19508e+65   2.85705e+64    8.3943e+66
   8.17674e+59  -1.75689e+46  -6.90068e+58   2.90881e+66  -1.3669e+134  2.46349e+199   1.20479e+67   5.73086e+66  -1.72681e+65  -2.64936e+66   4.26094e+65   7.54833e+64   1.09903e+67
   8.08655e+59   8.37237e+57  -7.06045e+58   2.72773e+66 -1.40942e+134  3.18537e+199   1.21813e+67   5.73193e+66  -2.11179e+65  -2.79302e+66  -5.04291e+65  -1.51371e+65   1.11371e+67
    1.2871e+60   3.57062e+57  -1.06301e+59   8.69689e+65 -9.73321e+133  1.58352e+199   9.90396e+66   4.21021e+66  -1.52487e+65  -3.18804e+66  -3.63959e+65  -9.87909e+64   9.14394e+66
    1.2944e+60  -2.97815e+46  -1.03591e+59   1.01814e+66 -9.34049e+133  1.23494e+199    9.7181e+66   4.19039e+66  -1.20925e+65  -3.05132e+66   3.45202e+65   1.28063e+65   8.96356e+66
   8.63181e+59  -1.13208e+58   -3.1331e+59  -3.18197e+66 -1.49235e+134 -5.50004e+199   1.26238e+67   4.47554e+66   3.78234e+65  -8.03574e+66   3.46605e+65  -1.01336e+64   1.05738e+67
   8.36151e+59  -2.24832e+58  -3.13215e+59  -3.14573e+66 -1.63104e+134  -5.9506e+199   1.31529e+67   4.65008e+66   3.85939e+65  -8.18175e+66  -5.48462e+65  -2.81024e+64   1.11083e+67
   1.30884e+60  -2.29827e+58  -3.92727e+59  -6.12423e+66 -1.09199e+134   2.4469e+199   1.21122e+67   2.90209e+66  -2.11348e+65  -8.81497e+66  -4.18817e+65   4.87547e+64   9.20265e+66
    1.3297e+60    -1.144e+58  -3.91196e+59  -6.19342e+66 -9.58582e+133  2.29231e+199   1.15852e+67   2.70861e+66  -2.26058e+65  -8.67597e+66   2.76339e+65   6.67235e+64   8.58059e+66
   8.08655e+59   8.37237e+57  -7.06045e+58   2.88143e+66 -1.40501e+134  1.78116e+199   1.21985e+67    5.7646e+66  -1.22832e+65  -2.76035e+66   4.30026e+65   1.16786e+64   1.11371e+67
    7.7986e+59   1.61556e+58  -7.56534e+58   2.43433e+66 -1.55509e+134  3.63784e+199   1.27057e+67   5.83639e+66  -2.17885e+65  -3.18418e+66  -4.65041e+65  -2.06202e+65   1.16657e+67
   1.26434e+60     6.742e+57   -1.1483e+59   5.59684e+65 -1.10991e+134  2.06587e+199   1.05501e+67   4.32308e+66   -1.8067e+65  -3.58273e+66  -3.29429e+65  -4.18101e+64   9.76004e+66
    1.2871e+60   3.57062e+57  -1.06301e+59   9.73839e+65 -9.72744e+133  1.04552e+199   9.91074e+66   4.23236e+66  -9.26214e+64   -3.1659e+66   3.65727e+65   1.76071e+65   9.14394e+66
   1.30884e+60   2.29827e+58  -3.92727e+59  -2.84745e+66 -1.81332e+134 -8.51158e+199   1.37637e+67   3.59873e+66    4.8529e+65  -6.93147e+66   4.18817e+65   7.83711e+64   1.24334e+67
    1.3297e+60     1.144e+58  -3.91196e+59  -2.82515e+66 -1.62705e+134 -7.83886e+199   1.30647e+67    3.4247e+66   4.90032e+65  -6.73988e+66  -2.76339e+65   9.78518e+62    1.1744e+67
   1.86317e+60   1.29922e+58  -4.56169e+59    -8.118e+66  -1.0299e+134  5.17783e+199   1.29959e+67   2.27562e+65  -4.80436e+65  -7.86513e+66  -1.71335e+65  -9.24482e+64   1.02388e+67
   1.84991e+60   2.61731e+58  -4.59678e+59  -8.13001e+66 -1.20347e+134  6.04205e+199   1.36544e+67   4.07512e+65  -4.82989e+65  -8.05454e+66   2.82445e+65  -1.50555e+64   1.09854e+67
   1.26434e+60    -6.742e+57   -1.1483e+59   1.30968e+66 -1.95695e+134  6.38201e+198   1.40503e+67   4.48253e+66  -2.12212e+64  -3.15163e+66   3.29429e+65   2.42965e+65   1.34674e+67
    1.2871e+60  -3.57062e+57  -1.06301e+59     1.648e+66 -1.75543e+134 -7.84281e+198   1.33514e+67   4.37568e+66   5.07047e+64  -2.77838e+66  -3.65727e+65  -7.58036e+64     1.278e+67
    1.8425e+60   3.35344e+57  -1.39414e+59  -2.31204e+66   -1.322e+134  2.18615e+199    1.1728e+67    1.4619e+66  -1.53657e+65  -3.62028e+66  -2.62587e+65  -2.26461e+65   1.12747e+67
    1.8273e+60   6.92933e+57  -1.51131e+59  -2.64007e+66 -1.50257e+134  3.42339e+199    1.2539e+67   1.57467e+66  -2.23395e+65  -3.99134e+66   1.91193e+65    9.2307e+64   1.20194e+67
    1.3297e+60     1.144e+58  -3.91196e+59  -2.85196e+66 -1.62718e+134 -7.49793e+199    1.3071e+67     3.419e+66   4.74618e+65  -6.74558e+66   3.89653e+65   4.47622e+64    1.1744e+67
   1.33646e+60  -1.58245e+46  -3.90591e+59  -2.83124e+66 -1.57162e+134 -7.35856e+199   1.28522e+67   3.37201e+66   4.79023e+65  -6.68228e+66  -3.19508e+65  -2.85705e+64     1.153e+67
   1.86751e+60  -2.70435e+46  -4.54941e+59  -8.16923e+66 -9.73232e+133  5.20814e+199   1.28086e+67   1.57059e+65  -5.09158e+65  -7.81713e+66   -2.0499e+65  -5.80173e+64   9.99751e+66
   1.86317e+60   1.29922e+58  -4.56169e+59  -8.16724e+66 -1.02709e+134  5.47738e+199   1.30159e+67   2.17095e+65  -5.08735e+65   -7.8756e+66   2.50383e+65   1.53154e+64   1.02388e+67
    1.2871e+60  -3.57062e+57  -1.06301e+59   1.54385e+66 -1.75706e+134  3.65814e+198    1.3345e+67   4.35354e+66  -9.16073e+63  -2.80053e+66   3.63959e+65   1.99058e+65     1.278e+67
    1.2944e+60  -2.97815e+46  -1.03591e+59   1.71493e+66 -1.69596e+134 -3.25632e+198   1.31354e+67   4.33852e+66   2.72109e+64   -2.6508e+66  -3.45202e+65  -1.28063e+65   1.25701e+67
   1.84747e+60   -4.3954e+46  -1.35504e+59   -2.2217e+66 -1.26554e+134  2.08124e+199   1.14669e+67   1.42149e+66  -1.55468e+65  -3.48772e+66  -2.34797e+65  -1.84741e+65   1.10376e+67
    1.8425e+60   3.35344e+57  -1.39414e+59  -2.37007e+66 -1.32045e+134   2.5613e+199    1.1733e+67   1.44956e+66  -1.87012e+65  -3.63262e+66   2.20576e+65    1.4238e+65   1.12747e+67
   1.33646e+60  -1.58245e+46  -3.90591e+59  -2.83124e+66 -1.57162e+134 -7.35856e+199   1.28522e+67   3.37201e+66   4.79023e+65  -6.68228e+66   3.19508e+65   2.85705e+64     1.153e+67
    1.3297e+60    -1.144e+58  -3.91196e+59  -2.85196e+66 -1.62718e+134 -7.49793e+199    1.3071e+67     3.419e+66   4.74618e+65  -6.74558e+66  -3.89653e+65  -4.47622e+64    1.1744e+67
   1.86317e+60  -1.29922e+58  -4.56169e+59  -8.16724e+66 -1.02709e+134  5.47738e+199   1.30159e+67   2.17095e+65  -5.08735e+65   -7.8756e+66  -2.50383e+65  -1.53154e+64   1.02388e+67
   1.86751e+60  -2.70435e+46  -4.54941e+59  -8.16923e+66 -9.73232e+133  5.20814e+199   1.28086e+67   1.57059e+65  -5.09158e+65  -7.81713e+66    2.0499e+65   5.80173e+64   9.99751e+66
    1.2944e+60  -2.97815e+46  -1.03591e+59   1.71493e+66 -1.69596e+134 -3.25632e+198   1.31354e+67   4.33852e+66   2.72109e+64   -2.6508e+66   3.45202e+65   1.28063e+65   1.25701e+67
    1.2871e+60   3.57062e+57  -1.06301e+59   1.54385e+66 -1.75706e+134  3.65814e+198    1.3345e+67   4.35354e+66  -9.16073e+63  -2.80053e+66  -3.63959e+65  -1.99058e+65     1.278e+67
    1.8425e+60  -3.35344e+57  -1.39414e+59  -2.37007e+66 -1.32045e+134   2.5613e+199    1.1733e+67   1.44956e+66  -1.87012e+65  -3.63262e+66  -2.20576e+65   -1.4238e+65   1.12747e+67
   1.84747e+60   -4.3954e+46  -1.35504e+59   -2.2217e+66 -1.26554e+134  2.08124e+199   1.14669e+67   1.42149e+66  -1.55468e+65  -3.48772e+66   2.34797e+65   1.84741e+65   1.10376e+67
    1.3297e+60    -1.144e+58  -3.91196e+59  -2.82515e+66 -1.62705e+134 -7.83886e+199   1.30647e+67    3.4247e+66   4.90032e+65  -6.73988e+66   2.76339e+65  -9.78518e+62    1.1744e+67
   1.30884e+60  -2.29827e+58  -3.92727e+59  -2.84745e+66 -1.81332e+134 -8.51158e+199   1.37637e+67   3.59873e+66    4.8529e+65  -6.93147e+66  -4.18817e+65  -7.83711e+64   1.24334e+67
   1.84991e+60  -2.61731e+58  -4.59678e+59  -8.13001e+66 -1.20347e+134  6.04205e+199   1.36544e+67   4.07512e+65  -4.82989e+65  -8.05454e+66  -2.82445e+65   1.50555e+64   1.09854e+67
   1.86317e+60  -1.29922e+58  -4.56169e+59    -8.118e+66  -1.0299e+134  5.17783e+199   1.29959e+67   2.27562e+65  -4.80436e+65  -7.86513e+66   1.71335e+65   9.24482e+64   1.02388e+67
    1.2871e+60   3.57062e+57  -1.06301e+59     1.648e+66 -1.75543e+134 -7.84281e+198   1.33514e+67   4.37568e+66   5.07047e+64  -2.77838e+66   3.65727e+65   7.58036e+64     1.278e+67
   1.26434e+60     6.742e+57   -1.1483e+59   1.30968e+66 -1.95695e+134  6.38201e+198   1.40503e+67   4.48253e+66  -2.12212e+64  -3.15163e+66  -3.29429e+65  -2.42965e+65   1.34674e+67
    1.8273e+60  -6.92933e+57  -1.51131e+59  -2.64007e+66 -1.50257e+134  3.42339e+199    1.2539e+67   1.57467e+66  -2.23395e+65  -3.99134e+66  -1.91193e+65   -9.2307e+64   1.20194e+67
    1.8425e+60  -3.35344e+57  -1.39414e+59  -2.31204e+66   -1.322e+134  2.18615e+199    1.1728e+67    1.4619e+66  -1.53657e+65  -3.62028e+66   2.62587e+65   2.26461e+65   1.12747e+67
   1.84991e+60   2.61731e+58  -4.59678e+59  -3.34348e+66  -1.7485e+134 -9.11715e+199   1.36392e+67   1.42512e+66   5.34619e+65  -5.30322e+66   2.82445e+65   1.02175e+65   1.28502e+67
   1.86317e+60   1.29922e+58  -4.56169e+59  -3.38058e+66 -1.53746e+134 -7.95954e+199    1.2852e+67   1.23473e+66   5.26733e+65  -5.14204e+66  -1.71335e+65  -3.33848e+64   1.20544e+67
   2.43508e+60   1.57946e+58  -5.02983e+59  -1.11153e+67 -8.84354e+133  8.24142e+199   1.45598e+67  -3.48236e+66  -8.46548e+65  -6.78644e+66  -5.28844e+64  -1.17918e+65   1.09884e+67
   2.43045e+60   3.18448e+58  -5.08281e+59  -1.12021e+67   -1.081e+134  1.01377e+200   1.52836e+67  -3.36317e+66  -8.64997e+65  -6.97396e+66   1.18788e+65   1.76412e+64   1.18525e+67
    1.8273e+60   6.92933e+57  -1.51131e+59  -3.39868e+65 -2.13407e+134 -5.51069e+199   1.46124e+67   2.06368e+66   2.65624e+65  -2.66918e+66   1.91193e+65   2.86073e+65    1.4409e+67
    1.8425e+60   3.35344e+57  -1.39414e+59  -5.79849e+61 -1.89384e+134 -6.28555e+199   1.37617e+67   1.95342e+66   3.37867e+65  -2.29135e+66  -2.62587e+65  -1.31594e+65   1.35907e+67
   2.44693e+60   1.22855e+58  -1.63664e+59   -6.1771e+66 -1.47351e+134  2.18556e+199   1.36201e+67  -2.43249e+66   -1.4003e+65  -3.60458e+66  -1.21702e+65  -2.84386e+65   1.25247e+67
   2.44084e+60    2.4702e+58  -1.78616e+59  -6.64079e+66  -1.6876e+134  4.08584e+199   1.45897e+67  -2.39344e+66  -2.38608e+65  -4.00874e+66   4.99703e+64   1.33281e+65   1.34113e+67
   1.86317e+60   1.29922e+58  -4.56169e+59  -3.42981e+66 -1.53642e+134 -7.48054e+199    1.2861e+67   1.22426e+66   4.98434e+65  -5.15251e+66   2.50383e+65   7.43788e+64   1.20544e+67
   1.86751e+60  -2.70435e+46  -4.54941e+59  -3.42127e+66 -1.47066e+134  -7.2075e+199   1.26004e+67   1.16647e+66   5.00249e+65  -5.08799e+66   -2.0499e+65  -5.80173e+64   1.17951e+67
   2.43661e+60  -4.03477e+46  -5.01091e+59  -1.11423e+67 -8.18937e+133  7.98504e+199   1.43542e+67  -3.53639e+66  -8.76433e+65  -6.72946e+66  -7.23991e+64  -8.93709e+64   1.07087e+67
   2.43508e+60   1.57946e+58  -5.02983e+59   -1.1182e+67 -8.78647e+133   8.5958e+199   1.45912e+67  -3.49654e+66  -8.84887e+65  -6.80062e+66   9.33811e+64   4.30252e+64   1.09884e+67
    1.8425e+60   3.35344e+57  -1.39414e+59  -5.80862e+64 -1.89395e+134 -5.61821e+199   1.37622e+67   1.94109e+66   3.04512e+65  -2.30369e+66   2.20576e+65   2.37248e+65   1.35907e+67
   1.84747e+60   -4.3954e+46  -1.35504e+59   6.30456e+64 -1.81901e+134 -5.88058e+199   1.34872e+67   1.90723e+66   3.30264e+65  -2.17445e+66  -2.34797e+65  -1.84741e+65   1.33258e+67
   2.44897e+60  -6.03577e+46  -1.58658e+59  -6.05891e+66 -1.40577e+134  1.87085e+199   1.33149e+67  -2.45567e+66  -1.27277e+65  -3.47596e+66  -9.65508e+64  -2.36485e+65   1.22394e+67
   2.44693e+60   1.22855e+58  -1.63664e+59  -6.21127e+66  -1.4713e+134  2.40629e+199   1.36275e+67  -2.43976e+66  -1.59668e+65  -3.61184e+66   6.92294e+64   1.85503e+65   1.25247e+67
   1.86751e+60  -2.70435e+46  -4.54941e+59  -3.42127e+66 -1.47066e+134  -7.2075e+199   1.26004e+67   1.16647e+66   5.00249e+65  -5.08799e+66    2.0499e+65   5.80173e+64   1.17951e+67
   1.86317e+60  -1.29922e+58  -4.56169e+59  -3.42981e+66 -1.53642e+134 -7.48054e+199    1.2861e+67   1.22426e+66   4.98434e+65  -5.15251e+66  -2.50383e+65  -7.43788e+64   1.20544e+67
   2.43508e+60  -1.57946e+58  -5.02983e+59   -1.1182e+67 -8.78647e+133   8.5958e+199   1.45912e+67  -3.49654e+66  -8.84887e+65  -6.80062e+66  -9.33811e+64  -4.30252e+64   1.09884e+67
   2.43661e+60  -4.03477e+46  -5.01091e+59  -1.11423e+67 -8.18937e+133  7.98504e+199   1.43542e+67  -3.53639e+66  -8.76433e+65  -6.72946e+66   7.23991e+64   8.93709e+64   1.07087e+67
   1.84747e+60   -4.3954e+46  -1.35504e+59   6.30456e+64 -1.81901e+134 -5.88058e+199   1.34872e+67   1.90723e+66   3.30264e+65  -2.17445e+66   2.34797e+65   1.84741e+65   1.33258e+67
    1.8425e+60  -3.35344e+57  -1.39414e+59  -5.80862e+64 -1.89395e+134 -5.61821e+199   1.37622e+67   1.94109e+66   3.04512e+65  -2.30369e+66  -2.20576e+65  -2.37248e+65   1.35907e+67
   2.44693e+60  -1.22855e+58  -1.63664e+59  -6.21127e+66  -1.4713e+134  2.40629e+199   1.36275e+67  -2.43976e+66  -1.59668e+65  -3.61184e+66  -6.92294e+64  -1.85503e+65   1.25247e+67
   2.44897e+60  -6.03577e+46  -1.58658e+59  -6.05891e+66 -1.40577e+134  1.87085e+199   1.33149e+67  -2.45567e+66  -1.27277e+65  -3.47596e+66   9.65508e+64   2.36485e+65   1.22394e+67
   1.86317e+60  -1.29922e+58  -4.56169e+59  -3.38058e+66 -1.53746e+134 -7.95954e+199    1.2852e+67   1.23473e+66   5.26733e+65  -5.14204e+66   1.71335e+65   3.33848e+64   1.20544e+67
   1.84991e+60  -2.61731e+58  -4.59678e+59  -3.34348e+66  -1.7485e+134 -9.11715e+199   1.36392e+67   1.42512e+66   5.34619e+65  -5.30322e+66  -2.82445e+65  -1.02175e+65   1.28502e+67
   2.43045e+60  -3.18448e+58  -5.08281e+59  -1.12021e+67   -1.081e+134  1.01377e+200   1.52836e+67  -3.36317e+66  -8.64997e+65  -6.97396e+66  -1.18788e+65  -1.76412e+64   1.18525e+67
   2.43508e+60  -1.57946e+58  -5.02983e+59  -1.11153e+67 -8.84354e+133  8.24142e+199   1.45598e+67  -3.48236e+66  -8.46548e+65  -6.78644e+66   5.28844e+64   1.17918e+65   1.09884e+67
    1.8425e+60  -3.35344e+57  -1.39414e+59  -5.79849e+61 -1.89384e+134 -6.28555e+199   1.37617e+67   1.95342e+66   3.37867e+65  -2.29135e+66   2.62587e+65   1.31594e+65   1.35907e+67
    1.8273e+60  -6.92933e+57  -1.51131e+59  -3.39868e+65 -2.13407e+134 -5.51069e+199   1.46124e+67   2.06368e+66   2.65624e+65  -2.66918e+66  -1.91193e+65  -2.86073e+65    1.4409e+67
   2.44084e+60   -2.4702e+58  -1.78616e+59  -6.64079e+66  -1.6876e+134  4.08584e+199   1.45897e+67  -2.39344e+66  -2.38608e+65  -4.00874e+66  -4.99703e+64  -1.33281e+65   1.34113e+67
   2.44693e+60  -1.22855e+58  -1.63664e+59   -6.1771e+66 -1.47351e+134  2.18556e+199   1.36201e+67  -2.43249e+66   -1.4003e+65  -3.60458e+66   1.21702e+65   2.84386e+65   1.25247e+67
   2.43045e+60   3.18448e+58  -5.08281e+59  -5.03224e+66 -1.39706e+134 -6.09566e+199   1.28464e+67  -2.05146e+66    4.4671e+65  -3.42749e+66   1.18788e+65   9.79736e+64   1.20111e+67
   2.43508e+60   1.57946e+58  -5.02983e+59  -5.11903e+66 -1.18535e+134 -4.96254e+199   1.20308e+67  -2.20755e+66    4.2826e+65  -3.33974e+66  -5.28844e+64  -7.95897e+64   1.11141e+67
   3.00965e+60   1.94082e+58  -5.26811e+59  -1.49236e+67 -4.52298e+133  8.18853e+199    1.6369e+67  -8.19839e+66  -1.30106e+66  -5.42418e+66   5.65142e+64   -1.3269e+65   1.03635e+67
   3.01435e+60   3.92169e+58  -5.33233e+59  -1.52508e+67 -6.27325e+133  1.12012e+200   1.71848e+67  -8.28024e+66  -1.37061e+66  -5.59994e+66  -9.76316e+64    4.4873e+64   1.13187e+67
   2.44084e+60    2.4702e+58  -1.78616e+59  -2.15724e+66 -1.97183e+134 -1.38819e+200   1.42069e+67  -1.44024e+66   7.14586e+65  -1.43159e+66   4.99703e+64   2.99294e+65   1.40393e+67
   2.44693e+60   1.22855e+58  -1.63664e+59  -1.92256e+66 -1.71093e+134 -1.28454e+200   1.32208e+67  -1.52799e+66   7.64479e+65  -1.15906e+66  -1.21702e+65  -2.04088e+65   1.30673e+67
   3.06283e+60   2.29173e+58  -1.71605e+59  -9.92808e+66  -1.3208e+134 -8.86115e+198   1.51871e+67  -7.13635e+66   6.92808e+64  -2.86102e+66   6.26617e+64  -3.15407e+65   1.23167e+67
   3.06767e+60   4.59887e+58  -1.88913e+59  -1.05767e+67 -1.53989e+134  1.04378e+199   1.63051e+67  -7.28654e+66  -6.86147e+64  -3.22155e+66   -9.1484e+64   1.87975e+65   1.33469e+67
   2.43508e+60   1.57946e+58  -5.02983e+59  -5.18573e+66  -1.1826e+134 -4.50456e+199   1.20479e+67  -2.22173e+66    3.8992e+65  -3.35392e+66   9.33811e+64   8.13537e+64   1.11141e+67
   2.43661e+60  -4.03477e+46  -5.01091e+59  -5.19572e+66 -1.11817e+134 -4.23417e+199   1.17819e+67  -2.27216e+66   3.87797e+65  -3.31136e+66  -7.23991e+64  -8.93709e+64   1.08241e+67
   3.00816e+60  -5.53392e+46  -5.24446e+59  -1.49207e+67  -3.8746e+133  7.61264e+199   1.61671e+67  -8.20358e+66  -1.33828e+66  -5.37888e+66   7.04187e+64  -1.11714e+65   1.00515e+67
   3.00965e+60   1.94082e+58  -5.26811e+59  -1.50281e+67 -4.40401e+133  8.52069e+199   1.64281e+67   -8.2206e+66   -1.3611e+66  -5.44639e+66  -9.53631e+64    5.9011e+64   1.03635e+67
   2.44693e+60   1.22855e+58  -1.63664e+59  -1.95673e+66 -1.71051e+134 -1.25255e+200   1.32242e+67  -1.53525e+66   7.44841e+65  -1.16632e+66   6.92294e+64   2.65801e+65   1.30673e+67
   2.44897e+60  -6.03577e+46  -1.58658e+59  -1.84455e+66 -1.63149e+134 -1.23137e+200   1.29055e+67   -1.5597e+66    7.6869e+65  -1.05354e+66  -9.65508e+64  -2.36485e+65   1.27561e+67
   3.06141e+60  -7.84231e+46  -1.65658e+59  -9.73877e+66 -1.25218e+134 -1.16763e+199   1.48345e+67   -7.1019e+66   9.49649e+64  -2.73183e+66   6.75194e+64  -2.80953e+65   1.19834e+67
   3.06283e+60   2.29173e+58  -1.71605e+59   -9.9683e+66  -1.3172e+134  -6.2151e+198   1.52015e+67   -7.1449e+66   4.61673e+64  -2.86957e+66  -9.82623e+64   2.21334e+65   1.23167e+67
   2.43661e+60  -4.03477e+46  -5.01091e+59  -5.19572e+66 -1.11817e+134 -4.23417e+199   1.17819e+67  -2.27216e+66   3.87797e+65  -3.31136e+66   7.23991e+64   8.93709e+64   1.08241e+67
   2.43508e+60  -1.57946e+58  -5.02983e+59  -5.18573e+66  -1.1826e+134 -4.50456e+199   1.20479e+67  -2.22173e+66    3.8992e+65  -3.35392e+66  -9.33811e+64  -8.13537e+64   1.11141e+67
   3.00965e+60  -1.94082e+58  -5.26811e+59  -1.50281e+67 -4.40401e+133  8.52069e+199   1.64281e+67   -8.2206e+66   -1.3611e+66  -5.44639e+66   9.53631e+64   -5.9011e+64   1.03635e+67
   3.00816e+60  -5.53392e+46  -5.24446e+59  -1.49207e+67  -3.8746e+133  7.61264e+199   1.61671e+67  -8.20358e+66  -1.33828e+66  -5.37888e+66  -7.04187e+64   1.11714e+65   1.00515e+67
   2.44897e+60  -6.03577e+46  -1.58658e+59  -1.84455e+66 -1.63149e+134 -1.23137e+200   1.29055e+67   -1.5597e+66    7.6869e+65  -1.05354e+66   9.65508e+64   2.36485e+65   1.27561e+67
   2.44693e+60  -1.22855e+58  -1.63664e+59  -1.95673e+66 -1.71051e+134 -1.25255e+200   1.32242e+67  -1.53525e+66   7.44841e+65  -1.16632e+66  -6.92294e+64  -2.65801e+65   1.30673e+67
   3.06283e+60  -2.29173e+58  -1.71605e+59   -9.9683e+66  -1.3172e+134  -6.2151e+198   1.52015e+67   -7.1449e+66   4.61673e+64  -2.86957e+66   9.82623e+64  -2.21334e+65   1.23167e+67
   3.06141e+60  -7.84231e+46  -1.65658e+59  -9.73877e+66 -1.25218e+134 -1.16763e+199   1.48345e+67   -7.1019e+66   9.49649e+64  -2.73183e+66  -6.75194e+64   2.80953e+65   1.19834e+67
   2.43508e+60  -1.57946e+58  -5.02983e+59  -5.11903e+66 -1.18535e+134 -4.96254e+199   1.20308e+67  -2.20755e+66    4.2826e+65  -3.33974e+66   5.28844e+64   7.95897e+64   1.11141e+67
   2.43045e+60  -3.18448e+58  -5.08281e+59  -5.03224e+66 -1.39706e+134 -6.09566e+199   1.28464e+67  -2.05146e+66    4.4671e+65  -3.42749e+66  -1.18788e+65  -9.79736e+64   1.20111e+67
   3.01435e+60  -3.92169e+58  -5.33233e+59  -1.52508e+67 -6.27325e+133  1.12012e+200   1.71848e+67  -8.28024e+66  -1.37061e+66  -5.59994e+66   9.76316e+64   -4.4873e+64   1.13187e+67
   3.00965e+60  -1.94082e+58  -5.26811e+59  -1.49236e+67 -4.52298e+133  8.18853e+199    1.6369e+67  -8.19839e+66  -1.30106e+66  -5.42418e+66  -5.65142e+64    1.3269e+65   1.03635e+67
   2.44693e+60  -1.22855e+58  -1.63664e+59  -1.92256e+66 -1.71093e+134 -1.28454e+200   1.32208e+67  -1.52799e+66   7.64479e+65  -1.15906e+66   1.21702e+65   2.04088e+65   1.30673e+67
   2.44084e+60   -2.4702e+58  -1.78616e+59  -2.15724e+66 -1.97183e+134 -1.38819e+200   1.42069e+67  -1.44024e+66   7.14586e+65  -1.43159e+66  -4.99703e+64  -2.99294e+65   1.40393e+67
   3.06767e+60  -4.59887e+58  -1.88913e+59  -1.05767e+67 -1.53989e+134  1.04378e+199   1.63051e+67  -7.28654e+66  -6.86147e+64  -3.22155e+66    9.1484e+64  -1.87975e+65   1.33469e+67
   3.06283e+60  -2.29173e+58  -1.71605e+59  -9.92808e+66  -1.3208e+134 -8.86115e+198   1.51871e+67  -7.13635e+66   6.92808e+64  -2.86102e+66  -6.26617e+64   3.15407e+65   1.23167e+67
   3.01435e+60   3.92169e+58  -5.33233e+59  -8.58349e+66 -7.72074e+133 -3.65042e+198   1.22835e+67  -6.86278e+66    4.6848e+64  -1.76755e+66  -9.76316e+64   4.56358e+64   9.42984e+66
   3.00965e+60   1.94082e+58  -5.26811e+59  -8.60098e+66 -5.99188e+133 -2.57089e+198   1.15713e+67  -6.85421e+66    4.3129e+64   -1.7899e+66   5.65142e+64  -1.29213e+65   8.47316e+66
    3.5442e+60   2.30955e+58  -5.26402e+59   -1.8456e+67  1.73115e+133  1.90401e+199   1.79809e+67  -1.28686e+67  -1.70234e+66  -3.88507e+66   1.26318e+65  -1.19897e+65    7.8214e+66
   3.55827e+60   4.66051e+58  -5.32627e+59  -1.91682e+67  7.33455e+132    4.589e+199   1.89759e+67  -1.32966e+67  -1.85375e+66  -4.01784e+66  -3.93433e+65   5.49514e+64   8.83334e+66
   3.06767e+60   4.59887e+58  -1.88913e+59  -4.43862e+66 -1.41679e+134 -1.66524e+200   1.27035e+67  -5.98159e+66   1.23633e+66    3.0664e+65   -9.1484e+64   2.69555e+65   1.15216e+67
   3.06283e+60   2.29173e+58  -1.71605e+59  -4.15096e+66 -1.18706e+134 -1.44669e+200   1.16592e+67  -5.90814e+66   1.29749e+66   4.59694e+65   6.26617e+64  -2.70899e+65   1.04328e+67
   3.63887e+60   3.44911e+58    -1.574e+59  -1.19872e+67 -9.10219e+133 -5.86802e+199   1.53204e+67  -1.14934e+67   7.12414e+65  -1.20629e+66   2.64604e+65  -3.16847e+65   9.78102e+66
   3.65586e+60   6.90021e+58  -1.75681e+59  -1.30045e+67 -1.08018e+134 -5.07604e+199   1.66474e+67  -1.19862e+67   4.96138e+65  -1.51446e+66  -2.55146e+65   2.23606e+65   1.09251e+67
   3.00965e+60   1.94082e+58  -5.26811e+59  -8.70544e+66 -5.91997e+133  9.46041e+197   1.16183e+67  -6.87642e+66  -1.69161e+64  -1.81211e+66  -9.53631e+64   6.24887e+64   8.47316e+66
   3.00816e+60  -5.53392e+46  -5.24446e+59  -8.68172e+66 -5.47065e+133  6.16314e+197   1.14052e+67  -6.87717e+66  -1.18721e+64  -1.79268e+66   7.04187e+64  -1.11714e+65   8.19271e+66
   3.54036e+60  -7.07014e+46  -5.23885e+59  -1.84215e+67  2.17517e+133  1.23642e+199   1.78214e+67   -1.2824e+67  -1.73414e+66  -3.86334e+66   1.81629e+65   -1.1891e+65   7.52882e+66
    3.5442e+60   2.30955e+58  -5.26402e+59  -1.85641e+67  1.87182e+133  1.92725e+199   1.80529e+67  -1.28916e+67  -1.76444e+66  -3.90804e+66  -3.56746e+65   5.52927e+64    7.8214e+66
   3.06283e+60   2.29173e+58  -1.71605e+59  -4.19117e+66 -1.18558e+134  -1.4224e+200   1.16672e+67  -5.91669e+66   1.27438e+66   4.51145e+65  -9.82623e+64   2.65842e+65   1.04328e+67
   3.06141e+60  -7.84231e+46  -1.65658e+59  -4.10046e+66   -1.127e+134 -1.36581e+200   1.13804e+67   -5.9032e+66   1.29366e+66   5.09081e+65   6.75194e+64  -2.80953e+65   1.01308e+67
   3.63463e+60  -9.82409e+46  -1.51044e+59  -1.17829e+67 -8.63753e+133 -5.79638e+199   1.50071e+67  -1.14127e+67   7.53972e+65   -1.1242e+66   2.00248e+65  -3.00279e+65   9.46692e+66
   3.63887e+60   3.44911e+58    -1.574e+59  -1.19924e+67 -9.09762e+133 -5.88182e+199    1.5323e+67  -1.14945e+67   7.09428e+65  -1.20739e+66  -3.38127e+65   2.46516e+65   9.78102e+66
   3.00816e+60  -5.53392e+46  -5.24446e+59  -8.68172e+66 -5.47065e+133  6.16314e+197   1.14052e+67  -6.87717e+66  -1.18721e+64  -1.79268e+66  -7.04187e+64   1.11714e+65   8.19271e+66
   3.00965e+60  -1.94082e+58  -5.26811e+59  -8.70544e+66 -5.91997e+133  9.46041e+197   1.16183e+67  -6.87642e+66  -1.69161e+64  -1.81211e+66   9.53631e+64  -6.24887e+64   8.47316e+66
    3.5442e+60  -2.30955e+58  -5.26402e+59  -1.85641e+67  1.87182e+133  1.92725e+199   1.80529e+67  -1.28916e+67  -1.76444e+66  -3.90804e+66   3.56746e+65  -5.52927e+64    7.8214e+66
   3.54036e+60  -7.07014e+46  -5.23885e+59  -1.84215e+67  2.17517e+133  1.23642e+199   1.78214e+67   -1.2824e+67  -1.73414e+66  -3.86334e+66  -1.81629e+65    1.1891e+65   7.52882e+66
   3.06141e+60  -7.84231e+46  -1.65658e+59  -4.10046e+66   -1.127e+134 -1.36581e+200   1.13804e+67   -5.9032e+66   1.29366e+66   5.09081e+65  -6.75194e+64   2.80953e+65   1.01308e+67
   3.06283e+60  -2.29173e+58  -1.71605e+59  -4.19117e+66 -1.18558e+134  -1.4224e+200   1.16672e+67  -5.91669e+66   1.27438e+66   4.51145e+65   9.82623e+64  -2.65842e+65   1.04328e+67
   3.63887e+60  -3.44911e+58    -1.574e+59  -1.19924e+67 -9.09762e+133 -5.88182e+199    1.5323e+67  -1.14945e+67   7.09428e+65  -1.20739e+66   3.38127e+65  -2.46516e+65   9.78102e+66
   3.63463e+60  -9.82409e+46  -1.51044e+59  -1.17829e+67 -8.63753e+133 -5.79638e+199   1.50071e+67  -1.14127e+67   7.53972e+65   -1.1242e+66  -2.00248e+65   3.00279e+65   9.46692e+66
   3.00965e+60  -1.94082e+58  -5.26811e+59  -8.60098e+66 -5.99188e+133 -2.57089e+198   1.15713e+67  -6.85421e+66    4.3129e+64   -1.7899e+66  -5.65142e+64   1.29213e+65   8.47316e+66
   3.01435e+60  -3.92169e+58  -5.33233e+59  -8.58349e+66 -7.72074e+133 -3.65042e+198   1.22835e+67  -6.86278e+66    4.6848e+64  -1.76755e+66   9.76316e+64  -4.56358e+64   9.42984e+66
   3.55827e+60  -4.66051e+58  -5.32627e+59  -1.91682e+67  7.33455e+132    4.589e+199   1.89759e+67  -1.32966e+67  -1.85375e+66  -4.01784e+66   3.93433e+65  -5.49514e+64   8.83334e+66
    3.5442e+60  -2.30955e+58  -5.26402e+59   -1.8456e+67  1.73115e+133  1.90401e+199   1.79809e+67  -1.28686e+67  -1.70234e+66  -3.88507e+66  -1.26318e+65   1.19897e+65    7.8214e+66
   3.06283e+60  -2.29173e+58  -1.71605e+59  -4.15096e+66 -1.18706e+134 -1.44669e+200   1.16592e+67  -5.90814e+66   1.29749e+66   4.59694e+65  -6.26617e+64   2.70899e+65   1.04328e+67
   3.06767e+60  -4.59887e+58  -1.88913e+59  -4.43862e+66 -1.41679e+134 -1.66524e+200   1.27035e+67  -5.98159e+66   1.23633e+66    3.0664e+65    9.1484e+64  -2.69555e+65   1.15216e+67
   3.65586e+60  -6.90021e+58  -1.75681e+59  -1.30045e+67 -1.08018e+134 -5.07604e+199   1.66474e+67  -1.19862e+67   4.96138e+65  -1.51446e+66   2.55146e+65  -2.23606e+65   1.09251e+67
   3.63887e+60  -3.44911e+58    -1.574e+59  -1.19872e+67 -9.10219e+133 -5.86802e+199   1.53204e+67  -1.14934e+67   7.12414e+65  -1.20629e+66  -2.64604e+65   3.16847e+65   9.78102e+66
   3.55827e+60   4.66051e+58  -5.32627e+59  -1.45739e+67  1.01783e+133  1.79136e+198   1.42204e+67  -1.23199e+67  -8.76999e+65  -1.37701e+66  -3.93433e+65  -2.84031e+64   4.31773e+66
    3.5442e+60   2.30955e+58  -5.26402e+59  -1.41409e+67  1.40678e+133 -2.75148e+198   1.36344e+67  -1.19512e+67  -7.84945e+65   -1.4047e+66   1.26318e+65  -1.20704e+65   3.62948e+66
   3.99003e+60   2.67657e+58  -5.09451e+59   -2.0169e+67  6.82752e+133 -6.36025e+199   1.83987e+67  -1.56008e+67  -1.88191e+66  -2.68626e+66  -1.49376e+65  -6.08338e+64   2.83214e+66
   4.00661e+60    5.2229e+58  -5.14409e+59  -2.08049e+67  6.76564e+133 -5.94636e+199   1.91099e+67  -1.60861e+67   -2.0171e+66  -2.70172e+66  -1.07418e+66   3.14667e+64   3.54198e+66
   3.65586e+60   6.90021e+58  -1.75681e+59  -7.42044e+66 -6.44125e+133 -8.26938e+199   1.09305e+67   -1.0799e+67   1.68331e+66    1.6953e+66  -2.55146e+65   2.01506e+65   5.53848e+66
   3.63887e+60   3.44911e+58    -1.574e+59   -6.8682e+66 -5.70022e+133 -7.42159e+199   1.02066e+67  -1.04051e+67   1.80071e+66   1.73615e+66   2.64604e+65  -2.95851e+65   4.81348e+66
   4.10976e+60   4.65094e+58  -1.23572e+59  -1.06597e+67 -5.39898e+133 -5.63655e+199   1.29467e+67  -1.35791e+67   1.98937e+66   9.30094e+65   2.56628e+64  -2.57577e+65   4.01614e+66
   4.13004e+60   9.15478e+58  -1.41043e+59  -1.14148e+67 -5.96911e+133 -6.52136e+199   1.37837e+67  -1.40898e+67   1.82882e+66   8.46093e+65  -8.99145e+65    2.3978e+65   4.76273e+66
    3.5442e+60   2.30955e+58  -5.26402e+59  -1.42489e+67  1.51436e+133 -3.24592e+198   1.37072e+67  -1.19742e+67   -8.4704e+65  -1.42766e+66  -3.56746e+65   5.44861e+64   3.62948e+66
   3.54036e+60  -7.07014e+46  -5.23885e+59  -1.42139e+67  1.61017e+133 -4.06584e+198   1.36358e+67  -1.19295e+67  -8.39609e+65  -1.44481e+66   1.81629e+65   -1.1891e+65   3.50945e+66
   3.98748e+60  -8.62591e+46  -5.07194e+59  -1.99764e+67  6.56782e+133 -5.88422e+199   1.82587e+67  -1.55886e+67  -1.71791e+66   -2.6699e+66   1.20297e+65  -1.06622e+65   2.69863e+66
   3.99003e+60   2.67657e+58  -5.09451e+59  -1.98292e+67   6.2506e+133 -5.34472e+199   1.81849e+67  -1.55286e+67  -1.68661e+66  -2.61403e+66  -8.12473e+65   6.67742e+64   2.83214e+66
   3.63887e+60   3.44911e+58    -1.574e+59  -6.87339e+66 -5.69991e+133 -7.44356e+199   1.02099e+67  -1.04062e+67   1.79773e+66   1.73505e+66  -3.38127e+65   2.67513e+65   4.81348e+66
   3.63463e+60  -9.82409e+46  -1.51044e+59  -6.76407e+66 -5.63178e+133 -7.35545e+199    1.0103e+67  -1.03457e+67   1.82097e+66   1.76065e+66   2.00248e+65  -3.00279e+65   4.72644e+66
   4.10751e+60  -1.17484e+47  -1.17191e+59  -1.03488e+67 -5.64817e+133 -6.23495e+199   1.27898e+67  -1.35418e+67   2.19444e+66   9.98541e+65   1.05921e+65  -3.01458e+65   3.91563e+66
   4.10976e+60   4.65094e+58  -1.23572e+59  -1.02759e+67 -5.81321e+133 -6.73249e+199   1.27956e+67  -1.34975e+67   2.20994e+66   1.01167e+66  -8.26849e+65   2.66333e+65   4.01614e+66
   3.54036e+60  -7.07014e+46  -5.23885e+59  -1.42139e+67  1.61017e+133 -4.06584e+198   1.36358e+67  -1.19295e+67  -8.39609e+65  -1.44481e+66  -1.81629e+65    1.1891e+65   3.50945e+66
    3.5442e+60  -2.30955e+58  -5.26402e+59  -1.42489e+67  1.51436e+133 -3.24592e+198   1.37072e+67  -1.19742e+67   -8.4704e+65  -1.42766e+66   3.56746e+65  -5.44861e+64   3.62948e+66
   3.99003e+60  -2.67657e+58  -5.09451e+59  -1.98292e+67   6.2506e+133 -5.34472e+199   1.81849e+67  -1.55286e+67  -1.68661e+66  -2.61403e+66   8.12473e+65  -6.67742e+64   2.83214e+66
   3.98748e+60  -8.62591e+46  -5.07194e+59  -1.99764e+67  6.56782e+133 -5.88422e+199   1.82587e+67  -1.55886e+67  -1.71791e+66   -2.6699e+66  -1.20297e+65   1.06622e+65   2.69863e+66
   3.63463e+60  -9.82409e+46  -1.51044e+59  -6.76407e+66 -5.63178e+133 -7.35545e+199    1.0103e+67  -1.03457e+67   1.82097e+66   1.76065e+66  -2.00248e+65   3.00279e+65   4.72644e+66
   3.63887e+60  -3.44911e+58    -1.574e+59  -6.87339e+66 -5.69991e+133 -7.44356e+199   1.02099e+67  -1.04062e+67   1.79773e+66   1.73505e+66   3.38127e+65  -2.67513e+65   4.81348e+66
   4.10976e+60  -4.65094e+58  -1.23572e+59  -1.02759e+67 -5.81321e+133 -6.73249e+199   1.27956e+67  -1.34975e+67   2.20994e+66   1.01167e+66   8.26849e+65  -2.66333e+65   4.01614e+66
   4.10751e+60  -1.17484e+47  -1.17191e+59  -1.03488e+67 -5.64817e+133 -6.23495e+199   1.27898e+67  -1.35418e+67   2.19444e+66   9.98541e+65  -1.05921e+65   3.01458e+65   3.91563e+66
    3.5442e+60  -2.30955e+58  -5.26402e+59  -1.41409e+67  1.40678e+133 -2.75148e+198   1.36344e+67  -1.19512e+67  -7.84945e+65   -1.4047e+66  -1.26318e+65   1.20704e+65   3.62948e+66
   3.55827e+60  -4.66051e+58  -5.32627e+59  -1.45739e+67  1.01783e+133  1.79136e+198   1.42204e+67  -1.23199e+67  -8.76999e+65  -1.37701e+66   3.93433e+65   2.84031e+64   4.31773e+66
   4.00661e+60   -5.2229e+58  -5.14409e+59  -2.08049e+67  6.76564e+133 -5.94636e+199   1.91099e+67  -1.60861e+67   -2.0171e+66  -2.70172e+66   1.07418e+66  -3.14667e+64   3.54198e+66
   3.99003e+60  -2.67657e+58  -5.09451e+59   -2.0169e+67  6.82752e+133 -6.36025e+199   1.83987e+67  -1.56008e+67  -1.88191e+66  -2.68626e+66   1.49376e+65   6.08338e+64   2.83214e+66
   3.63887e+60  -3.44911e+58    -1.574e+59   -6.8682e+66 -5.70022e+133 -7.42159e+199   1.02066e+67  -1.04051e+67   1.80071e+66   1.73615e+66  -2.64604e+65   2.95851e+65   4.81348e+66
   3.65586e+60  -6.90021e+58  -1.75681e+59  -7.42044e+66 -6.44125e+133 -8.26938e+199   1.09305e+67   -1.0799e+67   1.68331e+66    1.6953e+66   2.55146e+65  -2.01506e+65   5.53848e+66
   4.13004e+60  -9.15478e+58  -1.41043e+59  -1.14148e+67 -5.96911e+133 -6.52136e+199   1.37837e+67  -1.40898e+67   1.82882e+66   8.46093e+65   8.99145e+65   -2.3978e+65   4.76273e+66
   4.10976e+60  -4.65094e+58  -1.23572e+59  -1.06597e+67 -5.39898e+133 -5.63655e+199   1.29467e+67  -1.35791e+67   1.98937e+66   9.30094e+65  -2.56628e+64   2.57577e+65   4.01614e+66
    8.8855e+59   5.86145e+58  -5.59638e+59  -9.84338e+66 -1.48867e+134 -8.90845e+199   1.56767e+67   2.85835e+66   6.39578e+65  -1.33413e+67   4.81627e+65  -1.38664e+65   1.01871e+67
   9.14486e+59    2.9698e+58   -5.6501e+59  -1.01306e+67 -1.35398e+134 -7.32614e+199   1.54281e+67   2.69404e+66    5.7852e+65  -1.34031e+67  -3.57147e+65   4.28158e+64    9.6418e+66
   1.37027e+60   2.52329e+58  -6.84066e+59  -1.39324e+67 -6.38002e+133  4.33633e+199   1.60596e+67   8.71692e+65  -5.92701e+65  -1.42114e+67  -2.77668e+65   4.32003e+64   7.69674e+66
    1.3506e+60    5.0308e+58  -6.78686e+59    -1.362e+67 -7.73284e+133  4.52418e+199   1.62121e+67   1.05051e+66  -5.26279e+65  -1.41442e+67   3.61658e+65  -1.38279e+65    8.3193e+66
   8.36151e+59   2.24832e+58  -3.13215e+59  -4.16124e+66 -1.49337e+134 -2.34289e+199   1.29094e+67   4.06636e+66   1.70042e+65  -8.39765e+66       4.3e+65   2.81024e+64   1.06896e+67
   8.63181e+59   1.13208e+58   -3.1331e+59  -4.02194e+66 -1.36807e+134 -2.58248e+199   1.23686e+67   3.99272e+66   1.99659e+65  -8.21432e+66  -4.08775e+65   1.01336e+64   1.01488e+67
    1.3297e+60     1.144e+58  -3.91196e+59  -6.72246e+66 -8.63886e+133   3.1272e+199   1.14708e+67   2.40451e+66  -3.38531e+65  -8.78844e+66  -3.33866e+65  -6.67235e+64   8.20378e+66
   1.30884e+60   2.29827e+58  -3.92727e+59  -6.83654e+66 -9.79209e+133  3.69093e+199   1.20274e+67   2.49266e+66  -3.62783e+65  -8.96641e+66    3.0546e+65  -4.87547e+64   8.82177e+66
   9.14486e+59    2.9698e+58   -5.6501e+59   -9.9267e+66 -1.37173e+134 -8.85879e+199   1.53529e+67   2.73738e+66   6.95709e+65  -1.33598e+67   4.73182e+65  -1.53029e+65    9.6418e+66
   9.22848e+59   2.38728e+45  -5.66236e+59  -1.00754e+67 -1.33243e+134 -8.19925e+199   1.53218e+67   2.68322e+66   6.64099e+65  -1.34227e+67  -3.95032e+65   5.79214e+64   9.48342e+66
   1.37671e+60  -2.99122e+45  -6.85623e+59  -1.40623e+67 -5.98653e+133   4.2096e+199   1.60503e+67    8.1344e+65  -6.05408e+65  -1.42703e+67  -3.04187e+65   7.35719e+64   7.50375e+66
   1.37027e+60   2.52329e+58  -6.84066e+59  -1.38913e+67 -6.43029e+133  4.17893e+199   1.60396e+67    8.8044e+65   -5.6905e+65  -1.42026e+67   3.47447e+65  -1.37378e+65   7.69674e+66
   8.63181e+59   1.13208e+58   -3.1331e+59  -3.98062e+66 -1.36986e+134 -2.86326e+199   1.23625e+67   4.00151e+66   2.23405e+65  -8.20553e+66   4.61906e+65  -3.97849e+63   1.01488e+67
   8.71781e+59  -7.55212e+45  -3.13107e+59  -3.93819e+66 -1.33561e+134 -2.93549e+199   1.22094e+67   3.98797e+66   2.32427e+65  -8.15859e+66  -4.06309e+65  -9.60919e+63   9.99451e+66
   1.33646e+60  -1.58245e+46  -3.90591e+59  -6.72917e+66 -8.28732e+133  3.07602e+199   1.13206e+67   2.37245e+66  -3.49671e+65  -8.75195e+66  -3.19508e+65  -2.85705e+64   8.01483e+66
    1.3297e+60     1.144e+58  -3.91196e+59  -6.74928e+66 -8.62447e+133  3.21316e+199   1.14803e+67   2.39881e+66  -3.53944e+65  -8.79414e+66   3.32126e+65  -2.29398e+64   8.20378e+66
   9.22848e+59   2.38728e+45  -5.66236e+59  -1.00754e+67 -1.33243e+134 -8.19925e+199   1.53218e+67   2.68322e+66   6.64099e+65  -1.34227e+67   3.95032e+65  -5.79214e+64   9.48342e+66
   9.14486e+59   -2.9698e+58   -5.6501e+59   -9.9267e+66 -1.37173e+134 -8.85879e+199   1.53529e+67   2.73738e+66   6.95709e+65  -1.33598e+67  -4.73182e+65   1.53029e+65    9.6418e+66
   1.37027e+60  -2.52329e+58  -6.84066e+59  -1.38913e+67 -6.43029e+133  4.17893e+199   1.60396e+67    8.8044e+65   -5.6905e+65  -1.42026e+67  -3.47447e+65   1.37378e+65   7.69674e+66
   1.37671e+60  -2.99122e+45  -6.85623e+59  -1.40623e+67 -5.98653e+133   4.2096e+199   1.60503e+67    8.1344e+65  -6.05408e+65  -1.42703e+67   3.04187e+65  -7.35719e+64   7.50375e+66
   8.71781e+59  -7.55212e+45  -3.13107e+59  -3.93819e+66 -1.33561e+134 -2.93549e+199   1.22094e+67   3.98797e+66   2.32427e+65  -8.15859e+66   4.06309e+65   9.60919e+63   9.99451e+66
   8.63181e+59  -1.13208e+58   -3.1331e+59  -3.98062e+66 -1.36986e+134 -2.86326e+199   1.23625e+67   4.00151e+66   2.23405e+65  -8.20553e+66  -4.61906e+65   3.97849e+63   1.01488e+67
    1.3297e+60    -1.144e+58  -3.91196e+59  -6.74928e+66 -8.62447e+133  3.21316e+199   1.14803e+67   2.39881e+66  -3.53944e+65  -8.79414e+66  -3.32126e+65   2.29398e+64   8.20378e+66
   1.33646e+60  -1.58245e+46  -3.90591e+59  -6.72917e+66 -8.28732e+133  3.07602e+199   1.13206e+67   2.37245e+66  -3.49671e+65  -8.75195e+66   3.19508e+65   2.85705e+64   8.01483e+66
   9.14486e+59   -2.9698e+58   -5.6501e+59  -1.01306e+67 -1.35398e+134 -7.32614e+199   1.54281e+67   2.69404e+66    5.7852e+65  -1.34031e+67   3.57147e+65  -4.28158e+64    9.6418e+66
    8.8855e+59  -5.86145e+58  -5.59638e+59  -9.84338e+66 -1.48867e+134 -8.90845e+199   1.56767e+67   2.85835e+66   6.39578e+65  -1.33413e+67  -4.81627e+65   1.38664e+65   1.01871e+67
    1.3506e+60   -5.0308e+58  -6.78686e+59    -1.362e+67 -7.73284e+133  4.52418e+199   1.62121e+67   1.05051e+66  -5.26279e+65  -1.41442e+67  -3.61658e+65   1.38279e+65    8.3193e+66
   1.37027e+60  -2.52329e+58  -6.84066e+59  -1.39324e+67 -6.38002e+133  4.33633e+199   1.60596e+67   8.71692e+65  -5.92701e+65  -1.42114e+67   2.77668e+65  -4.32003e+64   7.69674e+66
   8.63181e+59  -1.13208e+58   -3.1331e+59  -4.02194e+66 -1.36807e+134 -2.58248e+199   1.23686e+67   3.99272e+66   1.99659e+65  -8.21432e+66   4.08775e+65  -1.01336e+64   1.01488e+67
   8.36151e+59  -2.24832e+58  -3.13215e+59  -4.16124e+66 -1.49337e+134 -2.34289e+199   1.29094e+67   4.06636e+66   1.70042e+65  -8.39765e+66      -4.3e+65  -2.81024e+64   1.06896e+67
   1.30884e+60  -2.29827e+58  -3.92727e+59  -6.83654e+66 -9.79209e+133  3.69093e+199   1.20274e+67   2.49266e+66  -3.62783e+65  -8.96641e+66   -3.0546e+65   4.87547e+64   8.82177e+66
    1.3297e+60    -1.144e+58  -3.91196e+59  -6.72246e+66 -8.63886e+133   3.1272e+199   1.14708e+67   2.40451e+66  -3.38531e+65  -8.78844e+66   3.33866e+65   6.67235e+64   8.20378e+66
    1.3506e+60    5.0308e+58  -6.78686e+59  -7.84857e+66 -1.56538e+134 -1.04679e+200   1.47695e+67    2.2775e+66   7.00711e+65  -1.08268e+67   3.61658e+65  -8.44576e+64   1.12139e+67
   1.37027e+60   2.52329e+58  -6.84066e+59  -7.92156e+66 -1.39974e+134 -9.14537e+199   1.42382e+67   2.14959e+66   6.85193e+65  -1.07563e+67  -2.77668e+65    7.8393e+64   1.05296e+67
   1.88602e+60   2.15127e+58   -7.8008e+59  -1.34459e+67 -6.35219e+133  6.03672e+199   1.56306e+67  -7.00139e+65  -8.14981e+65  -1.19308e+67  -1.68916e+65   3.54142e+64   9.06308e+66
   1.87392e+60   4.31408e+58   -7.7561e+59  -1.33782e+67  -7.9094e+133  7.13972e+199   1.60646e+67  -5.75239e+65  -8.00578e+65  -1.20024e+67   2.30167e+65  -1.27436e+65   9.79787e+66
   1.30884e+60   2.29827e+58  -3.92727e+59  -3.55976e+66 -1.69251e+134 -5.48199e+199   1.34879e+67    3.1893e+66   3.33855e+65  -7.08291e+66    3.0546e+65   7.83711e+64   1.20525e+67
    1.3297e+60     1.144e+58  -3.91196e+59  -3.35419e+66 -1.52117e+134 -5.61026e+199   1.27815e+67    3.1206e+66   3.77559e+65  -6.85235e+66  -3.33866e+65   9.78518e+62   1.13672e+67
   1.86317e+60   1.29922e+58  -4.56169e+59    -7.552e+66  -9.9775e+133  3.76357e+199   1.25223e+67   5.52902e+65  -3.60105e+65   -7.7448e+66  -2.24164e+65  -9.24482e+64    9.9007e+66
   1.84991e+60   2.61731e+58  -4.59678e+59  -7.76281e+66  -1.1512e+134  4.79964e+199   1.32431e+67   6.18581e+65  -4.04923e+65  -7.97647e+66   1.74918e+65  -1.50555e+64   1.06364e+67
   1.37027e+60   2.52329e+58  -6.84066e+59  -7.88042e+66 -1.40288e+134 -9.45066e+199   1.42264e+67   2.15833e+66   7.08844e+65  -1.07476e+67   3.47447e+65  -1.02186e+65   1.05296e+67
   1.37671e+60  -2.99122e+45  -6.85623e+59  -7.90226e+66 -1.35292e+134 -9.04157e+199   1.40619e+67   2.12305e+66     7.042e+65  -1.07295e+67  -3.04187e+65   7.35719e+64   1.03128e+67
   1.89003e+60  -1.11014e+46  -7.81397e+59  -1.34985e+67 -5.85327e+133  5.80572e+199   1.55159e+67  -7.42178e+65  -8.37069e+65  -1.19193e+67  -1.89559e+65   6.22074e+64   8.82823e+66
   1.88602e+60   2.15127e+58   -7.8008e+59  -1.34761e+67 -6.32401e+133  6.14568e+199   1.56475e+67  -7.06543e+65  -8.32296e+65  -1.19372e+67   2.12984e+65   -1.1355e+65   9.06308e+66
    1.3297e+60     1.144e+58  -3.91196e+59    -3.381e+66 -1.52043e+134 -5.34418e+199   1.27857e+67    3.1149e+66   3.62145e+65  -6.85805e+66   3.32126e+65   4.47622e+64   1.13672e+67
   1.33646e+60  -1.58245e+46  -3.90591e+59    -3.303e+66 -1.46863e+134 -5.41607e+199   1.25608e+67   3.10084e+66   3.78728e+65  -6.78257e+66  -3.19508e+65  -2.85705e+64   1.11505e+67
   1.86751e+60  -2.70435e+46  -4.54941e+59  -7.52384e+66 -9.48713e+133  3.68108e+199   1.23077e+67   5.28028e+65   -3.7195e+65  -7.67992e+66   -2.0499e+65  -5.80173e+64   9.66596e+66
   1.86317e+60   1.29922e+58  -4.56169e+59  -7.60123e+66 -9.94685e+133  4.00693e+199   1.25398e+67   5.42436e+65  -3.88404e+65  -7.75527e+66   1.97554e+65   1.53154e+64    9.9007e+66
   1.37671e+60  -2.99122e+45  -6.85623e+59  -7.90226e+66 -1.35292e+134 -9.04157e+199   1.40619e+67   2.12305e+66     7.042e+65  -1.07295e+67   3.04187e+65  -7.35719e+64   1.03128e+67
   1.37027e+60  -2.52329e+58  -6.84066e+59  -7.88042e+66 -1.40288e+134 -9.45066e+199   1.42264e+67   2.15833e+66   7.08844e+65  -1.07476e+67  -3.47447e+65   1.02186e+65   1.05296e+67
   1.88602e+60  -2.15127e+58   -7.8008e+59  -1.34761e+67 -6.32401e+133  6.14568e+199   1.56475e+67  -7.06543e+65  -8.32296e+65  -1.19372e+67  -2.12984e+65    1.1355e+65   9.06308e+66
   1.89003e+60  -1.11014e+46  -7.81397e+59  -1.34985e+67 -5.85327e+133  5.80572e+199   1.55159e+67  -7.42178e+65  -8.37069e+65  -1.19193e+67   1.89559e+65  -6.22074e+64   8.82823e+66
   1.33646e+60  -1.58245e+46  -3.90591e+59    -3.303e+66 -1.46863e+134 -5.41607e+199   1.25608e+67   3.10084e+66   3.78728e+65  -6.78257e+66   3.19508e+65   2.85705e+64   1.11505e+67
    1.3297e+60    -1.144e+58  -3.91196e+59    -3.381e+66 -1.52043e+134 -5.34418e+199   1.27857e+67    3.1149e+66   3.62145e+65  -6.85805e+66  -3.32126e+65  -4.47622e+64   1.13672e+67
   1.86317e+60  -1.29922e+58  -4.56169e+59  -7.60123e+66 -9.94685e+133  4.00693e+199   1.25398e+67   5.42436e+65  -3.88404e+65  -7.75527e+66  -1.97554e+65  -1.53154e+64    9.9007e+66
   1.86751e+60  -2.70435e+46  -4.54941e+59  -7.52384e+66 -9.48713e+133  3.68108e+199   1.23077e+67   5.28028e+65   -3.7195e+65  -7.67992e+66    2.0499e+65   5.80173e+64   9.66596e+66
   1.37027e+60  -2.52329e+58  -6.84066e+59  -7.92156e+66 -1.39974e+134 -9.14537e+199   1.42382e+67   2.14959e+66   6.85193e+65  -1.07563e+67   2.77668e+65   -7.8393e+64   1.05296e+67
    1.3506e+60   -5.0308e+58  -6.78686e+59  -7.84857e+66 -1.56538e+134 -1.04679e+200   1.47695e+67    2.2775e+66   7.00711e+65  -1.08268e+67  -3.61658e+65   8.44576e+64   1.12139e+67
   1.87392e+60  -4.31408e+58   -7.7561e+59  -1.33782e+67  -7.9094e+133  7.13972e+199   1.60646e+67  -5.75239e+65  -8.00578e+65  -1.20024e+67  -2.30167e+65   1.27436e+65   9.79787e+66
   1.88602e+60  -2.15127e+58   -7.8008e+59  -1.34459e+67 -6.35219e+133  6.03672e+199   1.56306e+67  -7.00139e+65  -8.14981e+65  -1.19308e+67   1.68916e+65  -3.54142e+64   9.06308e+66
    1.3297e+60    -1.144e+58  -3.91196e+59  -3.35419e+66 -1.52117e+134 -5.61026e+199   1.27815e+67    3.1206e+66   3.77559e+65  -6.85235e+66   3.33866e+65  -9.78518e+62   1.13672e+67
   1.30884e+60  -2.29827e+58  -3.92727e+59  -3.55976e+66 -1.69251e+134 -5.48199e+199   1.34879e+67    3.1893e+66   3.33855e+65  -7.08291e+66   -3.0546e+65  -7.83711e+64   1.20525e+67
   1.84991e+60  -2.61731e+58  -4.59678e+59  -7.76281e+66  -1.1512e+134  4.79964e+199   1.32431e+67   6.18581e+65  -4.04923e+65  -7.97647e+66  -1.74918e+65   1.50555e+64   1.06364e+67
   1.86317e+60  -1.29922e+58  -4.56169e+59    -7.552e+66  -9.9775e+133  3.76357e+199   1.25223e+67   5.52902e+65  -3.60105e+65   -7.7448e+66   2.24164e+65   9.24482e+64    9.9007e+66
   1.87392e+60   4.31408e+58   -7.7561e+59  -6.52094e+66  -1.4014e+134 -8.88382e+199   1.35153e+67     8.826e+65   6.57262e+65  -8.06081e+66   2.30167e+65   -5.5931e+64   1.13248e+67
   1.88602e+60   2.15127e+58   -7.8008e+59   -6.4943e+66 -1.22544e+134 -7.81112e+199   1.28343e+67   7.77767e+65   6.62925e+65    -7.935e+66  -1.68916e+65   7.38178e+64   1.05638e+67
   2.43353e+60   1.86053e+58  -8.49447e+59  -1.35746e+67 -4.78503e+133  6.78771e+199   1.52355e+67  -3.03254e+66  -1.10184e+66  -9.44027e+66  -5.46131e+64    1.3745e+64   9.49832e+66
   2.42956e+60   3.74871e+58  -8.46248e+59  -1.37338e+67 -6.26492e+133  8.72862e+199   1.58513e+67  -3.00385e+66  -1.13567e+66  -9.59424e+66   7.91612e+64  -1.16004e+65   1.02838e+67
   1.84991e+60   2.61731e+58  -4.59678e+59  -2.97628e+66 -1.67072e+134 -1.00401e+200   1.32639e+67   1.63619e+66   6.12686e+65  -5.22516e+66   1.74918e+65   1.02175e+65   1.25013e+67
   1.86317e+60   1.29922e+58  -4.56169e+59  -2.81458e+66 -1.47398e+134 -9.34674e+199   1.24627e+67   1.56007e+66   6.47064e+65  -5.02171e+66  -2.24164e+65  -3.33848e+64   1.17163e+67
   2.43508e+60   1.57946e+58  -5.02983e+59  -8.42995e+66 -9.91635e+133  2.82353e+199   1.30471e+67  -1.93878e+66  -2.75637e+65  -6.21553e+66   -8.5871e+64  -1.17918e+65   1.06508e+67
   2.43045e+60   3.18448e+58  -5.08281e+59  -8.72413e+66 -1.16005e+134  4.02234e+199   1.38606e+67  -1.93881e+66  -3.38178e+65  -6.44714e+66   4.79033e+64   1.76412e+64   1.14603e+67
   1.88602e+60   2.15127e+58   -7.8008e+59  -6.52443e+66   -1.224e+134 -7.59835e+199    1.2844e+67   7.71363e+65   6.45611e+65   -7.9414e+66   2.12984e+65  -7.51465e+64   1.05638e+67
   1.89003e+60  -1.11014e+46  -7.81397e+59  -6.49609e+66  -1.1707e+134 -7.31888e+199   1.26202e+67   7.46527e+65   6.51636e+65  -7.89425e+66  -1.89559e+65   6.22074e+64   1.03189e+67
    2.4349e+60  -2.16126e+46  -8.50328e+59  -1.35748e+67 -4.27463e+133  6.40434e+199   1.50673e+67  -3.04765e+66    -1.128e+66  -9.39918e+66  -6.48617e+64   4.16443e+64   9.24261e+66
   2.43353e+60   1.86053e+58  -8.49447e+59  -1.36468e+67 -4.71174e+133  7.01449e+199   1.52758e+67  -3.04787e+66  -1.14329e+66   -9.4556e+66   6.79319e+64  -9.57096e+64   9.49832e+66
   1.86317e+60   1.29922e+58  -4.56169e+59  -2.86381e+66  -1.4727e+134 -8.92323e+199   1.24688e+67    1.5496e+66   6.18765e+65  -5.03218e+66   1.97554e+65   7.43788e+64   1.17163e+67
   1.86751e+60  -2.70435e+46  -4.54941e+59  -2.77589e+66 -1.41245e+134 -8.81461e+199   1.22045e+67   1.53744e+66   6.37457e+65  -4.95078e+66   -2.0499e+65  -5.80173e+64   1.14635e+67
   2.43661e+60  -4.03477e+46  -5.01091e+59  -8.36515e+66 -9.36869e+133  2.76354e+199   1.27931e+67  -1.94008e+66  -2.86018e+65  -6.13905e+66  -7.23991e+64  -8.93709e+64   1.03872e+67
   2.43508e+60   1.57946e+58  -5.02983e+59  -8.49665e+66 -9.87104e+133  3.18793e+199    1.3073e+67  -1.95296e+66  -3.13976e+65  -6.22971e+66   6.03945e+64   4.30252e+64   1.06508e+67
   1.89003e+60  -1.11014e+46  -7.81397e+59  -6.49609e+66  -1.1707e+134 -7.31888e+199   1.26202e+67   7.46527e+65   6.51636e+65  -7.89425e+66   1.89559e+65  -6.22074e+64   1.03189e+67
   1.88602e+60  -2.15127e+58   -7.8008e+59  -6.52443e+66   -1.224e+134 -7.59835e+199    1.2844e+67   7.71363e+65   6.45611e+65   -7.9414e+66  -2.12984e+65   7.51465e+64   1.05638e+67
   2.43353e+60  -1.86053e+58  -8.49447e+59  -1.36468e+67 -4.71174e+133  7.01449e+199   1.52758e+67  -3.04787e+66  -1.14329e+66   -9.4556e+66  -6.79319e+64   9.57096e+64   9.49832e+66
    2.4349e+60  -2.16126e+46  -8.50328e+59  -1.35748e+67 -4.27463e+133  6.40434e+199   1.50673e+67  -3.04765e+66    -1.128e+66  -9.39918e+66   6.48617e+64  -4.16443e+64   9.24261e+66
   1.86751e+60  -2.70435e+46  -4.54941e+59  -2.77589e+66 -1.41245e+134 -8.81461e+199   1.22045e+67   1.53744e+66   6.37457e+65  -4.95078e+66    2.0499e+65   5.80173e+64   1.14635e+67
   1.86317e+60  -1.29922e+58  -4.56169e+59  -2.86381e+66  -1.4727e+134 -8.92323e+199   1.24688e+67    1.5496e+66   6.18765e+65  -5.03218e+66  -1.97554e+65  -7.43788e+64   1.17163e+67
   2.43508e+60  -1.57946e+58  -5.02983e+59  -8.49665e+66 -9.87104e+133  3.18793e+199    1.3073e+67  -1.95296e+66  -3.13976e+65  -6.22971e+66  -6.03945e+64  -4.30252e+64   1.06508e+67
   2.43661e+60  -4.03477e+46  -5.01091e+59  -8.36515e+66 -9.36869e+133  2.76354e+199   1.27931e+67  -1.94008e+66  -2.86018e+65  -6.13905e+66   7.23991e+64   8.93709e+64   1.03872e+67
   1.88602e+60  -2.15127e+58   -7.8008e+59   -6.4943e+66 -1.22544e+134 -7.81112e+199   1.28343e+67   7.77767e+65   6.62925e+65    -7.935e+66   1.68916e+65  -7.38178e+64   1.05638e+67
   1.87392e+60  -4.31408e+58   -7.7561e+59  -6.52094e+66  -1.4014e+134 -8.88382e+199   1.35153e+67     8.826e+65   6.57262e+65  -8.06081e+66  -2.30167e+65    5.5931e+64   1.13248e+67
   2.42956e+60  -3.74871e+58  -8.46248e+59  -1.37338e+67 -6.26492e+133  8.72862e+199   1.58513e+67  -3.00385e+66  -1.13567e+66  -9.59424e+66  -7.91612e+64   1.16004e+65   1.02838e+67
   2.43353e+60  -1.86053e+58  -8.49447e+59  -1.35746e+67 -4.78503e+133  6.78771e+199   1.52355e+67  -3.03254e+66  -1.10184e+66  -9.44027e+66   5.46131e+64   -1.3745e+64   9.49832e+66
   1.86317e+60  -1.29922e+58  -4.56169e+59  -2.81458e+66 -1.47398e+134 -9.34674e+199   1.24627e+67   1.56007e+66   6.47064e+65  -5.02171e+66   2.24164e+65   3.33848e+64   1.17163e+67
   1.84991e+60  -2.61731e+58  -4.59678e+59  -2.97628e+66 -1.67072e+134 -1.00401e+200   1.32639e+67   1.63619e+66   6.12686e+65  -5.22516e+66  -1.74918e+65  -1.02175e+65   1.25013e+67
   2.43045e+60  -3.18448e+58  -5.08281e+59  -8.72413e+66 -1.16005e+134  4.02234e+199   1.38606e+67  -1.93881e+66  -3.38178e+65  -6.44714e+66  -4.79033e+64  -1.76412e+64   1.14603e+67
   2.43508e+60  -1.57946e+58  -5.02983e+59  -8.42995e+66 -9.91635e+133  2.82353e+199   1.30471e+67  -1.93878e+66  -2.75637e+65  -6.21553e+66    8.5871e+64   1.17918e+65   1.06508e+67
   2.42956e+60   3.74871e+58  -8.46248e+59   -6.1696e+66 -9.98559e+133  -4.5733e+199   1.17439e+67  -1.39572e+66    4.7246e+65  -5.24634e+66   7.91612e+64   -4.8241e+64   1.01996e+67
   2.43353e+60   1.86053e+58  -8.49447e+59  -6.07803e+66 -8.47228e+133  -4.0116e+199   1.10302e+67  -1.43877e+66   4.91927e+65  -5.13119e+66  -5.46131e+64   4.82916e+64   9.42699e+66
   2.97953e+60   1.64293e+58  -8.90076e+59  -1.40628e+67 -1.69724e+133  4.85252e+199   1.46539e+67   -5.8354e+66   -1.3987e+66  -6.82875e+66   4.30393e+64   4.50146e+62   8.63321e+66
   2.98342e+60   3.32678e+58  -8.87891e+59  -1.45397e+67 -2.67746e+133  6.97758e+199    1.5433e+67  -6.01381e+66  -1.50008e+66  -7.02581e+66  -9.72823e+64  -9.60824e+64   9.41107e+66
   2.43045e+60   3.18448e+58  -5.08281e+59  -2.55424e+66 -1.36626e+134 -1.29533e+200   1.19645e+67  -6.27101e+65   9.73529e+65  -2.90067e+66   4.79033e+64   9.79736e+64   1.16189e+67
   2.43508e+60   1.57946e+58  -5.02983e+59  -2.43363e+66 -1.17739e+134 -1.14028e+200   1.11203e+67  -6.63976e+65   9.99171e+65  -2.76883e+66   -8.5871e+64  -7.95897e+64   1.07765e+67
   3.00965e+60   1.94082e+58  -5.26811e+59  -8.90496e+66 -7.98478e+133  1.61496e+198   1.26153e+67  -4.73884e+66  -2.14964e+64  -4.14462e+66   8.15575e+64   -1.3269e+65   9.98275e+66
   3.01435e+60   3.92169e+58  -5.33233e+59  -9.41086e+66 -9.46466e+133  1.23358e+199   1.35355e+67  -4.92343e+66  -1.29049e+65  -4.35838e+66  -5.87641e+64    4.4873e+64   1.08304e+67
   2.43353e+60   1.86053e+58  -8.49447e+59  -6.15014e+66 -8.43664e+133 -3.67109e+199    1.1054e+67   -1.4541e+66   4.50475e+65  -5.14652e+66   6.79319e+64  -6.11631e+64   9.42699e+66
    2.4349e+60  -2.16126e+46  -8.50328e+59  -6.08953e+66 -7.97676e+133  -3.5577e+199   1.08097e+67  -1.45629e+66    4.6336e+65  -5.09661e+66  -6.48617e+64   4.16443e+64   9.17319e+66
    2.9783e+60  -3.39237e+46  -8.90566e+59  -1.39984e+67 -1.29619e+133  4.39828e+199    1.4454e+67  -5.79671e+66  -1.42366e+66  -6.77802e+66   5.79244e+64   2.31306e+64   8.37558e+66
   2.97953e+60   1.64293e+58  -8.90076e+59  -1.41696e+67 -1.58523e+133  5.04183e+199   1.47184e+67   -5.8581e+66  -1.46006e+66  -6.85144e+66   -8.2814e+64  -7.96767e+64   8.63321e+66
   2.43508e+60   1.57946e+58  -5.02983e+59  -2.50033e+66 -1.17582e+134 -1.09651e+200   1.11281e+67  -6.78156e+65   9.60831e+65  -2.78301e+66   6.03945e+64   8.13537e+64   1.07765e+67
   2.43661e+60  -4.03477e+46  -5.01091e+59  -2.41858e+66 -1.11804e+134 -1.05949e+200   1.08468e+67  -6.75851e+65   9.78211e+65  -2.72094e+66  -7.23991e+64  -8.93709e+64   1.05027e+67
   3.00816e+60  -5.53392e+46  -5.24446e+59  -8.81706e+66 -7.46872e+133  2.97566e+198   1.23462e+67  -4.69517e+66  -4.06459e+64  -4.08125e+66   7.04187e+64  -1.11714e+65   9.70508e+66
   3.00965e+60   1.94082e+58  -5.26811e+59  -9.00942e+66 -7.90971e+133  6.46271e+198   1.26597e+67  -4.76105e+66  -8.15415e+64  -4.16683e+66  -7.03197e+64    5.9011e+64   9.98275e+66
    2.4349e+60  -2.16126e+46  -8.50328e+59  -6.08953e+66 -7.97676e+133  -3.5577e+199   1.08097e+67  -1.45629e+66    4.6336e+65  -5.09661e+66   6.48617e+64  -4.16443e+64   9.17319e+66
   2.43353e+60  -1.86053e+58  -8.49447e+59  -6.15014e+66 -8.43664e+133 -3.67109e+199    1.1054e+67   -1.4541e+66   4.50475e+65  -5.14652e+66  -6.79319e+64   6.11631e+64   9.42699e+66
   2.97953e+60  -1.64293e+58  -8.90076e+59  -1.41696e+67 -1.58523e+133  5.04183e+199   1.47184e+67   -5.8581e+66  -1.46006e+66  -6.85144e+66    8.2814e+64   7.96767e+64   8.63321e+66
    2.9783e+60  -3.39237e+46  -8.90566e+59  -1.39984e+67 -1.29619e+133  4.39828e+199    1.4454e+67  -5.79671e+66  -1.42366e+66  -6.77802e+66  -5.79244e+64  -2.31306e+64   8.37558e+66
   2.43661e+60  -4.03477e+46  -5.01091e+59  -2.41858e+66 -1.11804e+134 -1.05949e+200   1.08468e+67  -6.75851e+65   9.78211e+65  -2.72094e+66   7.23991e+64   8.93709e+64   1.05027e+67
   2.43508e+60  -1.57946e+58  -5.02983e+59  -2.50033e+66 -1.17582e+134 -1.09651e+200   1.11281e+67  -6.78156e+65   9.60831e+65  -2.78301e+66  -6.03945e+64  -8.13537e+64   1.07765e+67
   3.00965e+60  -1.94082e+58  -5.26811e+59  -9.00942e+66 -7.90971e+133  6.46271e+198   1.26597e+67  -4.76105e+66  -8.15415e+64  -4.16683e+66   7.03197e+64   -5.9011e+64   9.98275e+66
   3.00816e+60  -5.53392e+46  -5.24446e+59  -8.81706e+66 -7.46872e+133  2.97566e+198   1.23462e+67  -4.69517e+66  -4.06459e+64  -4.08125e+66  -7.04187e+64   1.11714e+65   9.70508e+66
   2.43353e+60  -1.86053e+58  -8.49447e+59  -6.07803e+66 -8.47228e+133  -4.0116e+199   1.10302e+67  -1.43877e+66   4.91927e+65  -5.13119e+66   5.46131e+64  -4.82916e+64   9.42699e+66
   2.42956e+60  -3.74871e+58  -8.46248e+59   -6.1696e+66 -9.98559e+133  -4.5733e+199   1.17439e+67  -1.39572e+66    4.7246e+65  -5.24634e+66  -7.91612e+64    4.8241e+64   1.01996e+67
   2.98342e+60  -3.32678e+58  -8.87891e+59  -1.45397e+67 -2.67746e+133  6.97758e+199    1.5433e+67  -6.01381e+66  -1.50008e+66  -7.02581e+66   9.72823e+64   9.60824e+64   9.41107e+66
   2.97953e+60  -1.64293e+58  -8.90076e+59  -1.40628e+67 -1.69724e+133  4.85252e+199   1.46539e+67   -5.8354e+66   -1.3987e+66  -6.82875e+66  -4.30393e+64  -4.50146e+62   8.63321e+66
   2.43508e+60  -1.57946e+58  -5.02983e+59  -2.43363e+66 -1.17739e+134 -1.14028e+200   1.11203e+67  -6.63976e+65   9.99171e+65  -2.76883e+66    8.5871e+64   7.95897e+64   1.07765e+67
   2.43045e+60  -3.18448e+58  -5.08281e+59  -2.55424e+66 -1.36626e+134 -1.29533e+200   1.19645e+67  -6.27101e+65   9.73529e+65  -2.90067e+66  -4.79033e+64  -9.79736e+64   1.16189e+67
   3.01435e+60  -3.92169e+58  -5.33233e+59  -9.41086e+66 -9.46466e+133  1.23358e+199   1.35355e+67  -4.92343e+66  -1.29049e+65  -4.35838e+66   5.87641e+64   -4.4873e+64   1.08304e+67
   3.00965e+60  -1.94082e+58  -5.26811e+59  -8.90496e+66 -7.98478e+133  1.61496e+198   1.26153e+67  -4.73884e+66  -2.14964e+64  -4.14462e+66  -8.15575e+64    1.3269e+65   9.98275e+66
   2.98342e+60   3.32678e+58  -8.87891e+59  -7.15224e+66 -4.71657e+133 -3.11512e+198   9.91566e+66  -4.44325e+66   7.04854e+64  -2.77948e+66  -9.72823e+64  -7.91328e+64   7.68055e+66
   2.97953e+60   1.64293e+58  -8.90076e+59  -6.94346e+66 -3.73523e+133 -4.18434e+198   9.25008e+66  -4.32183e+66   1.14872e+65   -2.7365e+66   4.30393e+64   1.22096e+64   6.95458e+66
      3.49e+60   1.45021e+58  -9.03415e+59  -1.37306e+67  1.23017e+133  9.34725e+198   1.32751e+67   -8.0404e+66  -1.51074e+66  -4.17944e+66   9.70836e+64   1.29171e+64   6.30509e+66
   3.50065e+60   2.94072e+58  -9.01214e+59  -1.46191e+67  9.89006e+132  2.11503e+199   1.42768e+67  -8.55254e+66  -1.69964e+66  -4.36692e+66  -3.09429e+65  -7.84253e+64   7.02244e+66
   3.01435e+60   3.92169e+58  -5.33233e+59  -2.74356e+66 -8.33061e+133 -1.00671e+200   9.53065e+66  -3.50597e+66   1.28841e+66  -5.25994e+65  -5.87641e+64   4.56358e+64   8.94147e+66
   3.00965e+60   1.94082e+58  -5.26811e+59  -2.58231e+66 -6.89429e+133 -8.44379e+199   8.69547e+66  -3.39466e+66   1.32269e+66  -5.10344e+65   8.15575e+64  -1.29213e+65    8.0924e+66
    3.5442e+60   2.30955e+58  -5.26402e+59  -7.89959e+66 -4.88944e+133 -2.42286e+199   1.05498e+67  -6.80074e+66    5.4194e+65  -1.64079e+66   2.58704e+65  -1.19897e+65   7.44291e+66
   3.55827e+60   4.66051e+58  -5.32627e+59  -8.74058e+66 -5.87931e+133 -2.02142e+199   1.16272e+67  -7.30278e+66   3.63148e+65  -1.80095e+66  -1.47809e+65   5.49514e+64   8.28337e+66
   2.97953e+60   1.64293e+58  -8.90076e+59  -7.05023e+66 -3.67703e+133 -1.82921e+198   9.29925e+66  -4.34453e+66    5.3504e+64   -2.7592e+66   -8.2814e+64  -6.79173e+64   6.95458e+66
    2.9783e+60  -3.39237e+46  -8.90566e+59  -6.94217e+66 -3.41123e+133 -2.53799e+198   9.07227e+66  -4.29657e+66   7.64767e+64  -2.72208e+66   5.79244e+64   2.31306e+64   6.72809e+66
   3.48684e+60  -4.73869e+46  -9.03755e+59  -1.36196e+67  1.44138e+133  6.24059e+198   1.30798e+67  -7.95268e+66  -1.52523e+66  -4.14169e+66   1.49566e+65   1.60555e+64   6.07848e+66
      3.49e+60   1.45021e+58  -9.03415e+59  -1.38357e+67  1.33223e+133  9.79654e+198   1.33456e+67  -8.06275e+66  -1.57118e+66  -4.20179e+66  -2.56423e+65  -7.49924e+64   6.30509e+66
   3.00965e+60   1.94082e+58  -5.26811e+59  -2.68677e+66 -6.86628e+133 -8.04443e+199     8.711e+66  -3.41686e+66   1.26264e+66  -5.32552e+65  -7.03197e+64   6.24887e+64    8.0924e+66
   3.00816e+60  -5.53392e+46  -5.24446e+59  -2.57805e+66 -6.48828e+133 -7.70926e+199   8.45749e+66  -3.36876e+66   1.28576e+66  -4.95046e+65   7.04187e+64  -1.11714e+65   7.84635e+66
   3.54036e+60  -7.07014e+46  -5.23885e+59  -7.79084e+66 -4.54505e+133 -2.17417e+199   1.03028e+67   -6.7135e+66   5.25931e+65  -1.60328e+66   1.81629e+65   -1.1891e+65   7.19673e+66
    3.5442e+60   2.30955e+58  -5.26402e+59  -8.00762e+66 -4.81699e+133 -2.12143e+199   1.05968e+67  -6.82371e+66   4.79844e+65  -1.66376e+66   -2.2436e+65   5.52927e+64   7.44291e+66
    2.9783e+60  -3.39237e+46  -8.90566e+59  -6.94217e+66 -3.41123e+133 -2.53799e+198   9.07227e+66  -4.29657e+66   7.64767e+64  -2.72208e+66  -5.79244e+64  -2.31306e+64   6.72809e+66
   2.97953e+60  -1.64293e+58  -8.90076e+59  -7.05023e+66 -3.67703e+133 -1.82921e+198   9.29925e+66  -4.34453e+66    5.3504e+64   -2.7592e+66    8.2814e+64   6.79173e+64   6.95458e+66
      3.49e+60  -1.45021e+58  -9.03415e+59  -1.38357e+67  1.33223e+133  9.79654e+198   1.33456e+67  -8.06275e+66  -1.57118e+66  -4.20179e+66   2.56423e+65   7.49924e+64   6.30509e+66
   3.48684e+60  -4.73869e+46  -9.03755e+59  -1.36196e+67  1.44138e+133  6.24059e+198   1.30798e+67  -7.95268e+66  -1.52523e+66  -4.14169e+66  -1.49566e+65  -1.60555e+64   6.07848e+66
   3.00816e+60  -5.53392e+46  -5.24446e+59  -2.57805e+66 -6.48828e+133 -7.70926e+199   8.45749e+66  -3.36876e+66   1.28576e+66  -4.95046e+65  -7.04187e+64   1.11714e+65   7.84635e+66
   3.00965e+60  -1.94082e+58  -5.26811e+59  -2.68677e+66 -6.86628e+133 -8.04443e+199     8.711e+66  -3.41686e+66   1.26264e+66  -5.32552e+65   7.03197e+64  -6.24887e+64    8.0924e+66
    3.5442e+60  -2.30955e+58  -5.26402e+59  -8.00762e+66 -4.81699e+133 -2.12143e+199   1.05968e+67  -6.82371e+66   4.79844e+65  -1.66376e+66    2.2436e+65  -5.52927e+64   7.44291e+66
   3.54036e+60  -7.07014e+46  -5.23885e+59  -7.79084e+66 -4.54505e+133 -2.17417e+199   1.03028e+67   -6.7135e+66   5.25931e+65  -1.60328e+66  -1.81629e+65    1.1891e+65   7.19673e+66
   2.97953e+60  -1.64293e+58  -8.90076e+59  -6.94346e+66 -3.73523e+133 -4.18434e+198   9.25008e+66  -4.32183e+66   1.14872e+65   -2.7365e+66  -4.30393e+64  -1.22096e+64   6.95458e+66
   2.98342e+60  -3.32678e+58  -8.87891e+59  -7.15224e+66 -4.71657e+133 -3.11512e+198   9.91566e+66  -4.44325e+66   7.04854e+64  -2.77948e+66   9.72823e+64   7.91328e+64   7.68055e+66
   3.50065e+60  -2.94072e+58  -9.01214e+59  -1.46191e+67  9.89006e+132  2.11503e+199   1.42768e+67  -8.55254e+66  -1.69964e+66  -4.36692e+66   3.09429e+65   7.84253e+64   7.02244e+66
      3.49e+60  -1.45021e+58  -9.03415e+59  -1.37306e+67  1.23017e+133  9.34725e+198   1.32751e+67   -8.0404e+66  -1.51074e+66  -4.17944e+66  -9.70836e+64  -1.29171e+64   6.30509e+66
   3.00965e+60  -1.94082e+58  -5.26811e+59  -2.58231e+66 -6.89429e+133 -8.44379e+199   8.69547e+66  -3.39466e+66   1.32269e+66  -5.10344e+65  -8.15575e+64   1.29213e+65    8.0924e+66
   3.01435e+60  -3.92169e+58  -5.33233e+59  -2.74356e+66 -8.33061e+133 -1.00671e+200   9.53065e+66  -3.50597e+66   1.28841e+66  -5.25994e+65   5.87641e+64  -4.56358e+64   8.94147e+66
   3.55827e+60  -4.66051e+58  -5.32627e+59  -8.74058e+66 -5.87931e+133 -2.02142e+199   1.16272e+67  -7.30278e+66   3.63148e+65  -1.80095e+66   1.47809e+65  -5.49514e+64   8.28337e+66
    3.5442e+60  -2.30955e+58  -5.26402e+59  -7.89959e+66 -4.88944e+133 -2.42286e+199   1.05498e+67  -6.80074e+66    5.4194e+65  -1.64079e+66  -2.58704e+65   1.19897e+65   7.44291e+66
   3.50065e+60   2.94072e+58  -9.01214e+59  -1.00175e+67  6.12772e+132  1.03139e+198   9.70679e+66  -7.57424e+66  -7.21339e+65  -1.72188e+66  -3.09429e+65  -1.55367e+65   3.67423e+66
      3.49e+60   1.45021e+58  -9.03415e+59  -9.42464e+66  7.19005e+132 -1.12802e+198   9.03515e+66  -7.12497e+66  -5.95308e+65  -1.70437e+66   9.70836e+64   1.74118e+64   3.19374e+66
   3.93461e+60     1.267e+58  -9.00247e+59  -1.06948e+67  1.98346e+133 -1.01037e+199    9.7234e+66  -7.50951e+66   -1.2109e+66  -1.97441e+66  -8.04372e+64    7.1672e+64   2.54257e+66
   3.94701e+60    2.3918e+58  -8.96898e+59  -1.14879e+67  2.06903e+133 -8.40787e+198    1.0549e+67  -8.07391e+66  -1.37952e+66   -2.0345e+66  -7.52029e+65  -1.01107e+65   3.01746e+66
   3.55827e+60   4.66051e+58  -5.32627e+59  -4.14625e+66 -2.68826e+133 -2.61218e+199   6.63883e+66  -6.32603e+66   1.33989e+66   8.39881e+65  -1.47809e+65  -2.84031e+64   3.76776e+66
    3.5442e+60   2.30955e+58  -5.26402e+59  -3.58442e+66 -2.29506e+133 -2.28057e+199   5.98319e+66  -5.88334e+66   1.45934e+66   8.39588e+65   2.58704e+65  -1.20704e+65   3.25099e+66
   3.99003e+60   2.67657e+58  -5.09451e+59  -3.39089e+66 -2.05763e+133 -2.02573e+199   5.66343e+66   -5.9567e+66   1.68508e+66   8.80732e+65   1.17457e+65  -6.08338e+64   2.59982e+66
   4.00661e+60    5.2229e+58  -5.14409e+59  -4.15302e+66 -2.40933e+133  -2.3419e+199   6.42969e+66  -6.51452e+66   1.52306e+66   8.38443e+65  -5.54135e+65   3.14667e+64   3.11098e+66
      3.49e+60   1.45021e+58  -9.03415e+59  -9.52978e+66  7.88981e+132 -1.13972e+198   9.10642e+66  -7.14732e+66  -6.55741e+65  -1.72672e+66  -2.56423e+65  -7.04978e+64   3.19374e+66
   3.48684e+60  -4.73869e+46  -9.03755e+59  -9.40554e+66  8.12492e+132 -1.59654e+198   8.96321e+66  -7.05678e+66  -6.29327e+65  -1.71943e+66   1.49566e+65   1.60555e+64    3.0837e+66
   3.93198e+60  -5.91416e+46  -9.00789e+59  -1.04006e+67   1.7968e+133 -8.53424e+198   9.49763e+66  -7.45565e+66  -1.01399e+66  -1.93098e+66   1.24641e+65   2.56175e+64   2.43526e+66
   3.93461e+60     1.267e+58  -9.00247e+59  -1.03238e+67   1.6628e+133 -6.85184e+198   9.48439e+66  -7.43064e+66  -9.97663e+65  -1.89554e+66  -5.41296e+65  -6.09357e+64   2.54257e+66
    3.5442e+60   2.30955e+58  -5.26402e+59  -3.69245e+66  -2.2557e+133 -2.16097e+199   6.01591e+66  -5.90631e+66   1.39724e+66   8.16621e+65   -2.2436e+65   5.44861e+64   3.25099e+66
   3.54036e+60  -7.07014e+46  -5.23885e+59  -3.58325e+66 -2.19943e+133 -2.11609e+199   5.90203e+66  -5.81897e+66   1.42046e+66   8.15259e+65   1.81629e+65   -1.1891e+65   3.17736e+66
   3.98748e+60  -8.62591e+46  -5.07194e+59  -3.14297e+66 -2.11065e+133 -2.19116e+199   5.56639e+66  -5.91268e+66   1.86085e+66   9.08863e+65   1.20297e+65  -1.06622e+65   2.52892e+66
   3.99003e+60   2.67657e+58  -5.09451e+59  -3.05113e+66 -2.19421e+133 -2.37011e+199    5.5903e+66  -5.88447e+66   1.88038e+66   9.52964e+65   -5.4564e+65   6.67742e+64   2.59982e+66
   3.48684e+60  -4.73869e+46  -9.03755e+59  -9.40554e+66  8.12492e+132 -1.59654e+198   8.96321e+66  -7.05678e+66  -6.29327e+65  -1.71943e+66  -1.49566e+65  -1.60555e+64    3.0837e+66
      3.49e+60  -1.45021e+58  -9.03415e+59  -9.52978e+66  7.88981e+132 -1.13972e+198   9.10642e+66  -7.14732e+66  -6.55741e+65  -1.72672e+66   2.56423e+65   7.04978e+64   3.19374e+66
   3.93461e+60    -1.267e+58  -9.00247e+59  -1.03238e+67   1.6628e+133 -6.85184e+198   9.48439e+66  -7.43064e+66  -9.97663e+65  -1.89554e+66   5.41296e+65   6.09357e+64   2.54257e+66
   3.93198e+60  -5.91416e+46  -9.00789e+59  -1.04006e+67   1.7968e+133 -8.53424e+198   9.49763e+66  -7.45565e+66  -1.01399e+66  -1.93098e+66  -1.24641e+65  -2.56175e+64   2.43526e+66
   3.54036e+60  -7.07014e+46  -5.23885e+59  -3.58325e+66 -2.19943e+133 -2.11609e+199   5.90203e+66  -5.81897e+66   1.42046e+66   8.15259e+65  -1.81629e+65    1.1891e+65   3.17736e+66
    3.5442e+60  -2.30955e+58  -5.26402e+59  -3.69245e+66  -2.2557e+133 -2.16097e+199   6.01591e+66  -5.90631e+66   1.39724e+66   8.16621e+65    2.2436e+65  -5.44861e+64   3.25099e+66
   3.99003e+60  -2.67657e+58  -5.09451e+59  -3.05113e+66 -2.19421e+133 -2.37011e+199    5.5903e+66  -5.88447e+66   1.88038e+66   9.52964e+65    5.4564e+65  -6.67742e+64   2.59982e+66
   3.98748e+60  -8.62591e+46  -5.07194e+59  -3.14297e+66 -2.11065e+133 -2.19116e+199   5.56639e+66  -5.91268e+66   1.86085e+66   9.08863e+65  -1.20297e+65   1.06622e+65   2.52892e+66
      3.49e+60  -1.45021e+58  -9.03415e+59  -9.42464e+66  7.19005e+132 -1.12802e+198   9.03515e+66  -7.12497e+66  -5.95308e+65  -1.70437e+66  -9.70836e+64  -1.74118e+64   3.19374e+66
   3.50065e+60  -2.94072e+58  -9.01214e+59  -1.00175e+67  6.12772e+132  1.03139e+198   9.70679e+66  -7.57424e+66  -7.21339e+65  -1.72188e+66   3.09429e+65   1.55367e+65   3.67423e+66
   3.94701e+60   -2.3918e+58  -8.96898e+59  -1.14879e+67  2.06903e+133 -8.40787e+198    1.0549e+67  -8.07391e+66  -1.37952e+66   -2.0345e+66   7.52029e+65   1.01107e+65   3.01746e+66
   3.93461e+60    -1.267e+58  -9.00247e+59  -1.06948e+67  1.98346e+133 -1.01037e+199    9.7234e+66  -7.50951e+66   -1.2109e+66  -1.97441e+66   8.04372e+64   -7.1672e+64   2.54257e+66
    3.5442e+60  -2.30955e+58  -5.26402e+59  -3.58442e+66 -2.29506e+133 -2.28057e+199   5.98319e+66  -5.88334e+66   1.45934e+66   8.39588e+65  -2.58704e+65   1.20704e+65   3.25099e+66
   3.55827e+60  -4.66051e+58  -5.32627e+59  -4.14625e+66 -2.68826e+133 -2.61218e+199   6.63883e+66  -6.32603e+66   1.33989e+66   8.39881e+65   1.47809e+65   2.84031e+64   3.76776e+66
   4.00661e+60   -5.2229e+58  -5.14409e+59  -4.15302e+66 -2.40933e+133  -2.3419e+199   6.42969e+66  -6.51452e+66   1.52306e+66   8.38443e+65   5.54135e+65  -3.14667e+64   3.11098e+66
   3.99003e+60  -2.67657e+58  -5.09451e+59  -3.39089e+66 -2.05763e+133 -2.02573e+199   5.66343e+66   -5.9567e+66   1.68508e+66   8.80732e+65  -1.17457e+65   6.08338e+64   2.59982e+66
    9.4052e+59   9.37887e+58  -8.43761e+59  -1.66654e+67 -1.03654e+134 -7.28531e+199   1.95292e+67   1.36752e+66   8.35125e+65   -1.8868e+67   4.37843e+65  -3.19234e+65   7.93362e+66
   9.66426e+59   4.74531e+58  -8.54246e+59   -1.7102e+67 -9.21949e+133 -5.60537e+199   1.96131e+67   1.27184e+66     7.423e+65  -1.91162e+67  -3.85105e+65   6.90173e+64   7.38128e+66
    1.4119e+60    3.8429e+58  -1.01808e+60  -2.19357e+67  9.03649e+132  1.50871e+199   2.17287e+67  -7.30068e+65  -1.06183e+66  -2.01438e+67  -2.89743e+65   1.46659e+65   5.26583e+66
   1.39257e+60   7.65465e+58  -1.00595e+60   -2.1418e+67  -3.7584e+132  2.31822e+199   2.15055e+67  -5.87754e+65  -9.51764e+65  -1.98784e+67   3.26434e+65  -2.41593e+65   5.89543e+66
    8.8855e+59   5.86145e+58  -5.59638e+59  -9.95512e+66 -1.14725e+134 -6.50379e+199   1.46229e+67   2.79412e+66   6.15822e+65  -1.33651e+67   4.36413e+65  -1.38664e+65   8.40607e+66
   9.14486e+59    2.9698e+58   -5.6501e+59  -9.96514e+66  -1.0584e+134 -5.91446e+199   1.43229e+67   2.78913e+66   6.13691e+65   -1.3368e+67  -3.86536e+65   4.28158e+64   7.86842e+66
   1.37027e+60   2.52329e+58  -6.84066e+59  -1.36571e+67  -4.0759e+133  2.66356e+199   1.50756e+67   1.02995e+66  -5.34166e+65  -1.41529e+67  -3.05865e+65   4.32003e+64   5.75297e+66
    1.3506e+60    5.0308e+58  -6.78686e+59  -1.35659e+67 -4.92322e+133  2.95372e+199   1.52731e+67   1.08157e+66  -5.14789e+65  -1.41327e+67   3.10312e+65  -1.38279e+65   6.36787e+66
   9.66426e+59   4.74531e+58  -8.54246e+59  -1.68105e+67 -9.63161e+133 -7.11625e+199   1.94656e+67   1.33382e+66   9.09881e+65  -1.90542e+67   4.42002e+65   -3.1492e+65   7.38128e+66
   9.74826e+59   1.18413e+46  -8.56604e+59  -1.70056e+67 -9.27856e+133 -6.45847e+199   1.95442e+67   1.29592e+66   8.68395e+65  -1.91699e+67  -3.96824e+65   1.11419e+65   7.22851e+66
    1.4182e+60   9.06839e+45  -1.02122e+60  -2.20961e+67  1.21386e+133  1.22164e+199   2.18197e+67  -7.77445e+65  -1.06652e+66  -2.02522e+67  -2.97552e+65    1.4855e+65   5.09158e+66
    1.4119e+60    3.8429e+58  -1.01808e+60  -2.18545e+67  7.58858e+132  1.48245e+199   2.16801e+67  -7.12797e+65  -1.01514e+66  -2.01265e+67   3.25886e+65  -2.77788e+65   5.26583e+66
   9.14486e+59    2.9698e+58   -5.6501e+59  -9.76126e+66 -1.07542e+134 -7.13456e+199   1.42417e+67   2.83247e+66    7.3088e+65  -1.33246e+67   4.43793e+65  -1.53029e+65   7.86842e+66
   9.22848e+59   2.38728e+45  -5.66236e+59  -9.83779e+66 -1.05068e+134 -6.78564e+199   1.42074e+67   2.81978e+66   7.14611e+65  -1.33722e+67  -3.95032e+65   5.79214e+64   7.72408e+66
   1.37671e+60  -2.99122e+45  -6.85623e+59   -1.3739e+67 -3.84199e+133  2.54277e+199   1.50725e+67    9.9927e+65  -5.36677e+65  -1.42016e+67  -3.04187e+65   7.35719e+64   5.58714e+66
   1.37027e+60   2.52329e+58  -6.84066e+59  -1.36159e+67 -4.12184e+133  2.53139e+199   1.50536e+67    1.0387e+66  -5.10515e+65  -1.41441e+67    3.1925e+65  -1.37378e+65   5.75297e+66
   9.74826e+59   1.18413e+46  -8.56604e+59  -1.70056e+67 -9.27856e+133 -6.45847e+199   1.95442e+67   1.29592e+66   8.68395e+65  -1.91699e+67   3.96824e+65  -1.11419e+65   7.22851e+66
   9.66426e+59  -4.74531e+58  -8.54246e+59  -1.68105e+67 -9.63161e+133 -7.11625e+199   1.94656e+67   1.33382e+66   9.09881e+65  -1.90542e+67  -4.42002e+65    3.1492e+65   7.38128e+66
    1.4119e+60   -3.8429e+58  -1.01808e+60  -2.18545e+67  7.58858e+132  1.48245e+199   2.16801e+67  -7.12797e+65  -1.01514e+66  -2.01265e+67  -3.25886e+65   2.77788e+65   5.26583e+66
    1.4182e+60   9.06839e+45  -1.02122e+60  -2.20961e+67  1.21386e+133  1.22164e+199   2.18197e+67  -7.77445e+65  -1.06652e+66  -2.02522e+67   2.97552e+65   -1.4855e+65   5.09158e+66
   9.22848e+59   2.38728e+45  -5.66236e+59  -9.83779e+66 -1.05068e+134 -6.78564e+199   1.42074e+67   2.81978e+66   7.14611e+65  -1.33722e+67   3.95032e+65  -5.79214e+64   7.72408e+66
   9.14486e+59   -2.9698e+58   -5.6501e+59  -9.76126e+66 -1.07542e+134 -7.13456e+199   1.42417e+67   2.83247e+66    7.3088e+65  -1.33246e+67  -4.43793e+65   1.53029e+65   7.86842e+66
   1.37027e+60  -2.52329e+58  -6.84066e+59  -1.36159e+67 -4.12184e+133  2.53139e+199   1.50536e+67    1.0387e+66  -5.10515e+65  -1.41441e+67   -3.1925e+65   1.37378e+65   5.75297e+66
   1.37671e+60  -2.99122e+45  -6.85623e+59   -1.3739e+67 -3.84199e+133  2.54277e+199   1.50725e+67    9.9927e+65  -5.36677e+65  -1.42016e+67   3.04187e+65  -7.35719e+64   5.58714e+66
   9.66426e+59  -4.74531e+58  -8.54246e+59   -1.7102e+67 -9.21949e+133 -5.60537e+199   1.96131e+67   1.27184e+66     7.423e+65  -1.91162e+67   3.85105e+65  -6.90173e+64   7.38128e+66
    9.4052e+59  -9.37887e+58  -8.43761e+59  -1.66654e+67 -1.03654e+134 -7.28531e+199   1.95292e+67   1.36752e+66   8.35125e+65   -1.8868e+67  -4.37843e+65   3.19234e+65   7.93362e+66
   1.39257e+60  -7.65465e+58  -1.00595e+60   -2.1418e+67  -3.7584e+132  2.31822e+199   2.15055e+67  -5.87754e+65  -9.51764e+65  -1.98784e+67  -3.26434e+65   2.41593e+65   5.89543e+66
    1.4119e+60   -3.8429e+58  -1.01808e+60  -2.19357e+67  9.03649e+132  1.50871e+199   2.17287e+67  -7.30068e+65  -1.06183e+66  -2.01438e+67   2.89743e+65  -1.46659e+65   5.26583e+66
   9.14486e+59   -2.9698e+58   -5.6501e+59  -9.96514e+66  -1.0584e+134 -5.91446e+199   1.43229e+67   2.78913e+66   6.13691e+65   -1.3368e+67   3.86536e+65  -4.28158e+64   7.86842e+66
    8.8855e+59  -5.86145e+58  -5.59638e+59  -9.95512e+66 -1.14725e+134 -6.50379e+199   1.46229e+67   2.79412e+66   6.15822e+65  -1.33651e+67  -4.36413e+65   1.38664e+65   8.40607e+66
    1.3506e+60   -5.0308e+58  -6.78686e+59  -1.35659e+67 -4.92322e+133  2.95372e+199   1.52731e+67   1.08157e+66  -5.14789e+65  -1.41327e+67  -3.10312e+65   1.38279e+65   6.36787e+66
   1.37027e+60  -2.52329e+58  -6.84066e+59  -1.36571e+67  -4.0759e+133  2.66356e+199   1.50756e+67   1.02995e+66  -5.34166e+65  -1.41529e+67   3.05865e+65  -4.32003e+64   5.75297e+66
   1.39257e+60   7.65465e+58  -1.00595e+60  -1.26443e+67 -1.05594e+134 -8.49999e+199   1.62933e+67    1.2775e+66   9.13491e+65  -1.48353e+67   3.26434e+65  -2.68113e+65   8.60687e+66
    1.4119e+60    3.8429e+58  -1.01808e+60  -1.27083e+67 -9.33023e+133 -7.22858e+199   1.59625e+67   1.23167e+66   8.99901e+65  -1.48398e+67  -2.89743e+65    1.4336e+65   7.91669e+66
   1.91348e+60    2.9335e+58  -1.14654e+60  -1.86749e+67  2.18066e+132  2.23654e+199   1.86165e+67  -1.37505e+66  -1.19155e+66  -1.61083e+67  -1.72297e+65   1.38814e+65   6.38377e+66
   1.90201e+60    5.8743e+58  -1.13451e+60  -1.85366e+67 -9.81103e+132  3.46877e+199   1.87993e+67  -1.28642e+66  -1.16213e+66   -1.6088e+67   1.95258e+65  -2.72658e+65   7.11238e+66
    1.3506e+60    5.0308e+58  -6.78686e+59  -7.79453e+66 -1.16923e+134 -7.83449e+199   1.33296e+67   2.30856e+66     7.122e+65  -1.08153e+67   3.10312e+65  -8.44576e+64   9.26249e+66
   1.37027e+60   2.52329e+58  -6.84066e+59  -7.64623e+66 -1.04744e+134 -7.26115e+199   1.27753e+67   2.30785e+66   7.43728e+65  -1.06978e+67  -3.05865e+65    7.8393e+64    8.5858e+66
   1.88602e+60   2.15127e+58   -7.8008e+59  -1.22401e+67 -4.31777e+133  2.81167e+199   1.38924e+67  -7.01105e+63  -5.58619e+65  -1.16745e+67  -2.01902e+65   3.54142e+64   7.05288e+66
   1.87392e+60   4.31408e+58   -7.7561e+59  -1.23139e+67 -5.40731e+133  3.48968e+199   1.43425e+67   3.65017e+64  -5.74318e+65  -1.17761e+67   1.65652e+65  -1.27436e+65     7.768e+66
    1.4119e+60    3.8429e+58  -1.01808e+60   -1.2627e+67 -9.42204e+133 -7.68258e+199   1.59268e+67   1.24894e+66   9.46597e+65  -1.48226e+67   3.25886e+65  -2.81087e+65   7.91669e+66
    1.4182e+60   9.06839e+45  -1.02122e+60   -1.2664e+67 -9.07724e+133 -7.25172e+199   1.58477e+67    1.2278e+66   9.38733e+65  -1.48306e+67  -2.97552e+65    1.4855e+65    7.7255e+66
   1.91732e+60   4.27612e+45  -1.14969e+60  -1.87397e+67  5.64164e+132  1.90791e+199   1.85886e+67  -1.40526e+66  -1.21223e+66  -1.61222e+67  -1.81343e+65   1.48614e+65   6.18115e+66
   1.91348e+60    2.9335e+58  -1.14654e+60   -1.8694e+67  2.38747e+132  2.22891e+199     1.863e+67  -1.37911e+66  -1.20251e+66  -1.61124e+67   1.88214e+65  -2.81023e+65   6.38377e+66
   1.37027e+60   2.52329e+58  -6.84066e+59  -7.60509e+66 -1.05015e+134  -7.5065e+199   1.27614e+67    2.3166e+66   7.67379e+65  -1.06891e+67    3.1925e+65  -1.02186e+65    8.5858e+66
   1.37671e+60  -2.99122e+45  -6.85623e+59  -7.57897e+66 -1.01664e+134 -7.29157e+199   1.26137e+67   2.30888e+66   7.72931e+65  -1.06608e+67  -3.04187e+65   7.35719e+64   8.39619e+66
   1.89003e+60  -1.11014e+46  -7.81397e+59  -1.22528e+67 -3.99987e+133  2.69481e+199   1.37888e+67   -2.6152e+64  -5.72238e+65  -1.16544e+67  -1.89559e+65   6.22074e+64   6.85184e+66
   1.88602e+60   2.15127e+58   -7.8008e+59  -1.22702e+67 -4.28965e+133  2.86488e+199   1.39088e+67   -1.3415e+64  -5.75933e+65  -1.16809e+67   1.79998e+65   -1.1355e+65   7.05288e+66
    1.4182e+60   9.06839e+45  -1.02122e+60   -1.2664e+67 -9.07724e+133 -7.25172e+199   1.58477e+67    1.2278e+66   9.38733e+65  -1.48306e+67   2.97552e+65   -1.4855e+65    7.7255e+66
    1.4119e+60   -3.8429e+58  -1.01808e+60   -1.2627e+67 -9.42204e+133 -7.68258e+199   1.59268e+67   1.24894e+66   9.46597e+65  -1.48226e+67  -3.25886e+65   2.81087e+65   7.91669e+66
   1.91348e+60   -2.9335e+58  -1.14654e+60   -1.8694e+67  2.38747e+132  2.22891e+199     1.863e+67  -1.37911e+66  -1.20251e+66  -1.61124e+67  -1.88214e+65   2.81023e+65   6.38377e+66
   1.91732e+60   4.27612e+45  -1.14969e+60  -1.87397e+67  5.64164e+132  1.90791e+199   1.85886e+67  -1.40526e+66  -1.21223e+66  -1.61222e+67   1.81343e+65  -1.48614e+65   6.18115e+66
   1.37671e+60  -2.99122e+45  -6.85623e+59  -7.57897e+66 -1.01664e+134 -7.29157e+199   1.26137e+67   2.30888e+66   7.72931e+65  -1.06608e+67   3.04187e+65  -7.35719e+64   8.39619e+66
   1.37027e+60  -2.52329e+58  -6.84066e+59  -7.60509e+66 -1.05015e+134  -7.5065e+199   1.27614e+67    2.3166e+66   7.67379e+65  -1.06891e+67   -3.1925e+65   1.02186e+65    8.5858e+66
   1.88602e+60  -2.15127e+58   -7.8008e+59  -1.22702e+67 -4.28965e+133  2.86488e+199   1.39088e+67   -1.3415e+64  -5.75933e+65  -1.16809e+67  -1.79998e+65    1.1355e+65   7.05288e+66
   1.89003e+60  -1.11014e+46  -7.81397e+59  -1.22528e+67 -3.99987e+133  2.69481e+199   1.37888e+67   -2.6152e+64  -5.72238e+65  -1.16544e+67   1.89559e+65  -6.22074e+64   6.85184e+66
    1.4119e+60   -3.8429e+58  -1.01808e+60  -1.27083e+67 -9.33023e+133 -7.22858e+199   1.59625e+67   1.23167e+66   8.99901e+65  -1.48398e+67   2.89743e+65   -1.4336e+65   7.91669e+66
   1.39257e+60  -7.65465e+58  -1.00595e+60  -1.26443e+67 -1.05594e+134 -8.49999e+199   1.62933e+67    1.2775e+66   9.13491e+65  -1.48353e+67  -3.26434e+65   2.68113e+65   8.60687e+66
   1.90201e+60   -5.8743e+58  -1.13451e+60  -1.85366e+67 -9.81103e+132  3.46877e+199   1.87993e+67  -1.28642e+66  -1.16213e+66   -1.6088e+67  -1.95258e+65   2.72658e+65   7.11238e+66
   1.91348e+60   -2.9335e+58  -1.14654e+60  -1.86749e+67  2.18066e+132  2.23654e+199   1.86165e+67  -1.37505e+66  -1.19155e+66  -1.61083e+67   1.72297e+65  -1.38814e+65   6.38377e+66
   1.37027e+60  -2.52329e+58  -6.84066e+59  -7.64623e+66 -1.04744e+134 -7.26115e+199   1.27753e+67   2.30785e+66   7.43728e+65  -1.06978e+67   3.05865e+65   -7.8393e+64    8.5858e+66
    1.3506e+60   -5.0308e+58  -6.78686e+59  -7.79453e+66 -1.16923e+134 -7.83449e+199   1.33296e+67   2.30856e+66     7.122e+65  -1.08153e+67  -3.10312e+65   8.44576e+64   9.26249e+66
   1.87392e+60  -4.31408e+58   -7.7561e+59  -1.23139e+67 -5.40731e+133  3.48968e+199   1.43425e+67   3.65017e+64  -5.74318e+65  -1.17761e+67  -1.65652e+65   1.27436e+65     7.768e+66
   1.88602e+60  -2.15127e+58   -7.8008e+59  -1.22401e+67 -4.31777e+133  2.81167e+199   1.38924e+67  -7.01105e+63  -5.58619e+65  -1.16745e+67   2.01902e+65  -3.54142e+64   7.05288e+66
   1.90201e+60    5.8743e+58  -1.13451e+60  -8.98256e+66  -8.8292e+133 -6.95833e+199   1.29992e+67   7.44746e+65   8.69036e+65  -1.05963e+67   1.95258e+65  -2.23032e+65   8.47061e+66
   1.91348e+60    2.9335e+58  -1.14654e+60   -8.7905e+66 -7.62259e+133 -6.14327e+199   1.23895e+67   7.26365e+65   9.09867e+65  -1.04267e+67  -1.72297e+65   1.68747e+65   7.73098e+66
   2.44358e+60   2.08745e+58  -1.23711e+60  -1.54961e+67  9.38031e+131  2.27149e+199   1.54658e+67   -2.3445e+66   -1.2993e+66  -1.18523e+67  -5.23039e+64    1.0436e+65    6.7292e+66
   2.44021e+60   4.19899e+58  -1.22644e+60  -1.56976e+67 -8.50293e+132  3.71547e+199   1.59662e+67  -2.33154e+66  -1.34214e+66   -1.2024e+67   5.32204e+64   -2.8742e+65   7.46451e+66
   1.87392e+60   4.31408e+58   -7.7561e+59  -5.45668e+66 -1.03736e+134 -8.66385e+199   1.15547e+67   1.49434e+66   8.83522e+65  -7.83454e+66   1.65652e+65   -5.5931e+64   9.29495e+66
   1.88602e+60   2.15127e+58   -7.8008e+59  -5.28845e+66 -9.02117e+133 -7.75919e+199    1.0871e+67    1.4709e+66   9.19288e+65  -7.67863e+66  -2.01902e+65   7.38178e+64   8.55361e+66
   2.43353e+60   1.86053e+58  -8.49447e+59  -1.05472e+67 -4.10453e+133  2.09631e+199   1.23406e+67  -1.29237e+66  -4.58218e+65  -8.79664e+66  -8.02009e+64    1.3745e+64   7.55183e+66
   2.42956e+60   3.74871e+58  -8.46248e+59  -1.07249e+67 -5.22344e+133  2.83913e+199   1.29328e+67  -1.27435e+66  -4.95989e+65  -8.95456e+66   2.53234e+64  -1.16004e+65   8.28885e+66
   1.91348e+60    2.9335e+58  -1.14654e+60  -8.80957e+66 -7.61279e+133 -6.09053e+199    1.2399e+67   7.22311e+65   8.98907e+65  -1.04308e+67   1.88214e+65  -2.51091e+65   7.73098e+66
   1.91732e+60   4.27612e+45  -1.14969e+60  -8.76205e+66 -7.28958e+133 -5.83016e+199   1.22339e+67   7.15981e+65   9.09009e+65   -1.0387e+67  -1.81343e+65   1.48614e+65   7.52415e+66
   2.44487e+60  -4.45362e+45   -1.2399e+60  -1.54879e+67  3.96923e+132  1.94084e+199   1.53592e+67  -2.35063e+66   -1.3203e+66  -1.18169e+67  -6.09159e+64   1.31793e+65   6.51862e+66
   2.44358e+60   2.08745e+58  -1.23711e+60   -1.5559e+67  1.61596e+132  2.31365e+199    1.5507e+67  -2.35786e+66  -1.33542e+66  -1.18657e+67   4.62899e+64  -2.67912e+65    6.7292e+66
   1.88602e+60   2.15127e+58   -7.8008e+59  -5.31857e+66 -9.00678e+133 -7.61343e+199   1.08791e+67   1.46449e+66   9.01973e+65  -7.68504e+66   1.79998e+65  -7.51465e+64   8.55361e+66
   1.89003e+60  -1.11014e+46  -7.81397e+59   -5.2504e+66 -8.64474e+133 -7.39384e+199   1.06777e+67   1.46255e+66   9.16467e+65  -7.62942e+66  -1.89559e+65   6.22074e+64   8.34251e+66
    2.4349e+60  -2.16126e+46  -8.50328e+59  -1.05276e+67 -3.76704e+133   2.0401e+199   1.21861e+67  -1.29608e+66  -4.80163e+65  -8.75134e+66  -6.48617e+64   4.16443e+64   7.33698e+66
   2.43353e+60   1.86053e+58  -8.49447e+59  -1.06193e+67 -4.04611e+133  2.27049e+199   1.23787e+67   -1.3077e+66   -4.9967e+65  -8.81197e+66   4.23441e+64  -9.57096e+64   7.55183e+66
   1.91732e+60   4.27612e+45  -1.14969e+60  -8.76205e+66 -7.28958e+133 -5.83016e+199   1.22339e+67   7.15981e+65   9.09009e+65   -1.0387e+67   1.81343e+65  -1.48614e+65   7.52415e+66
   1.91348e+60   -2.9335e+58  -1.14654e+60  -8.80957e+66 -7.61279e+133 -6.09053e+199    1.2399e+67   7.22311e+65   8.98907e+65  -1.04308e+67  -1.88214e+65   2.51091e+65   7.73098e+66
   2.44358e+60  -2.08745e+58  -1.23711e+60   -1.5559e+67  1.61596e+132  2.31365e+199    1.5507e+67  -2.35786e+66  -1.33542e+66  -1.18657e+67  -4.62899e+64   2.67912e+65    6.7292e+66
   2.44487e+60  -4.45362e+45   -1.2399e+60  -1.54879e+67  3.96923e+132  1.94084e+199   1.53592e+67  -2.35063e+66   -1.3203e+66  -1.18169e+67   6.09159e+64  -1.31793e+65   6.51862e+66
   1.89003e+60  -1.11014e+46  -7.81397e+59   -5.2504e+66 -8.64474e+133 -7.39384e+199   1.06777e+67   1.46255e+66   9.16467e+65  -7.62942e+66   1.89559e+65  -6.22074e+64   8.34251e+66
   1.88602e+60  -2.15127e+58   -7.8008e+59  -5.31857e+66 -9.00678e+133 -7.61343e+199   1.08791e+67   1.46449e+66   9.01973e+65  -7.68504e+66  -1.79998e+65   7.51465e+64   8.55361e+66
   2.43353e+60  -1.86053e+58  -8.49447e+59  -1.06193e+67 -4.04611e+133  2.27049e+199   1.23787e+67   -1.3077e+66   -4.9967e+65  -8.81197e+66  -4.23441e+64   9.57096e+64   7.55183e+66
    2.4349e+60  -2.16126e+46  -8.50328e+59  -1.05276e+67 -3.76704e+133   2.0401e+199   1.21861e+67  -1.29608e+66  -4.80163e+65  -8.75134e+66   6.48617e+64  -4.16443e+64   7.33698e+66
   1.91348e+60   -2.9335e+58  -1.14654e+60   -8.7905e+66 -7.62259e+133 -6.14327e+199   1.23895e+67   7.26365e+65   9.09867e+65  -1.04267e+67   1.72297e+65  -1.68747e+65   7.73098e+66
   1.90201e+60   -5.8743e+58  -1.13451e+60  -8.98256e+66  -8.8292e+133 -6.95833e+199   1.29992e+67   7.44746e+65   8.69036e+65  -1.05963e+67  -1.95258e+65   2.23032e+65   8.47061e+66
   2.44021e+60  -4.19899e+58  -1.22644e+60  -1.56976e+67 -8.50293e+132  3.71547e+199   1.59662e+67  -2.33154e+66  -1.34214e+66   -1.2024e+67  -5.32204e+64    2.8742e+65   7.46451e+66
   2.44358e+60  -2.08745e+58  -1.23711e+60  -1.54961e+67  9.38031e+131  2.27149e+199   1.54658e+67   -2.3445e+66   -1.2993e+66  -1.18523e+67   5.23039e+64   -1.0436e+65    6.7292e+66
   1.88602e+60  -2.15127e+58   -7.8008e+59  -5.28845e+66 -9.02117e+133 -7.75919e+199    1.0871e+67    1.4709e+66   9.19288e+65  -7.67863e+66   2.01902e+65  -7.38178e+64   8.55361e+66
   1.87392e+60  -4.31408e+58   -7.7561e+59  -5.45668e+66 -1.03736e+134 -8.66385e+199   1.15547e+67   1.49434e+66   8.83522e+65  -7.83454e+66  -1.65652e+65    5.5931e+64   9.29495e+66
   2.42956e+60  -3.74871e+58  -8.46248e+59  -1.07249e+67 -5.22344e+133  2.83913e+199   1.29328e+67  -1.27435e+66  -4.95989e+65  -8.95456e+66  -2.53234e+64   1.16004e+65   8.28885e+66
   2.43353e+60  -1.86053e+58  -8.49447e+59  -1.05472e+67 -4.10453e+133  2.09631e+199   1.23406e+67  -1.29237e+66  -4.58218e+65  -8.79664e+66   8.02009e+64   -1.3745e+64   7.55183e+66
   2.44021e+60   4.19899e+58  -1.22644e+60  -6.33743e+66 -5.52865e+133 -3.29627e+199   9.76982e+66  -3.41577e+65   6.47828e+65  -6.64368e+66   5.32204e+64  -1.60403e+65   7.28025e+66
   2.44358e+60   2.08745e+58  -1.23711e+60  -5.95766e+66 -4.63919e+133 -3.03183e+199   9.04907e+66  -3.16635e+65   7.28565e+65  -6.36959e+66  -5.23039e+64   1.70553e+65   6.59588e+66
   2.97086e+60   1.38152e+58  -1.29112e+60  -1.26698e+67  7.19708e+132  1.12071e+199   1.23825e+67  -3.51285e+66  -1.36033e+66  -7.79657e+66   4.83956e+64   7.38803e+64   5.96388e+66
    2.9745e+60   2.79254e+58  -1.28249e+60  -1.32692e+67  3.64549e+132  2.11137e+199   1.31311e+67  -3.66405e+66  -1.48776e+66  -8.11736e+66  -8.05039e+64  -2.57076e+65   6.59942e+66
   2.42956e+60   3.74871e+58  -8.46248e+59  -3.16074e+66 -7.36088e+133 -7.65928e+199   9.14325e+66   3.33781e+65   1.11214e+66  -4.60666e+66   2.53234e+64   -4.8241e+64   8.20464e+66
   2.43353e+60   1.86053e+58  -8.49447e+59  -3.05061e+66 -6.20727e+133 -6.51086e+199   8.44861e+66     3.014e+65   1.13555e+66  -4.48756e+66  -8.02009e+64   4.82916e+64   7.48049e+66
   2.97953e+60   1.64293e+58  -8.90076e+59  -8.46827e+66  -3.0404e+133  6.74544e+198   1.01052e+67  -2.61962e+66    -2.093e+65  -5.63935e+66    6.0279e+64   4.50146e+62    6.8485e+66
   2.98342e+60   3.32678e+58  -8.87891e+59  -8.79806e+66 -3.84893e+133  1.15671e+199   1.07655e+67   -2.7135e+66  -2.79411e+65  -5.80514e+66  -6.86205e+64  -9.60824e+64   7.52381e+66
   2.44358e+60   2.08745e+58  -1.23711e+60   -6.0205e+66 -4.60905e+133  -2.8763e+199   9.07396e+66  -3.29992e+65   6.92449e+65  -6.38295e+66   4.62899e+64  -2.01719e+65   6.59588e+66
   2.44487e+60  -4.45362e+45   -1.2399e+60  -5.93443e+66 -4.36329e+133 -2.77137e+199   8.87977e+66  -3.19587e+65   7.10746e+65  -6.32559e+66  -6.09159e+64   1.31793e+65   6.39612e+66
   2.96983e+60  -1.29797e+46  -1.29349e+60  -1.25879e+67  9.03643e+132  8.79509e+198   1.22236e+67  -3.47697e+66  -1.37078e+66   -7.7401e+66     4.869e+64   1.12261e+65   5.76514e+66
   2.97086e+60   1.38152e+58  -1.29112e+60  -1.27467e+67  7.88172e+132  1.16424e+199   1.24337e+67  -3.52921e+66  -1.40455e+66  -7.81293e+66  -7.48087e+64  -2.21251e+65   5.96388e+66
   2.43353e+60   1.86053e+58  -8.49447e+59  -3.12273e+66 -6.18651e+133 -6.26645e+199   8.46265e+66   2.86069e+65    1.0941e+66  -4.50289e+66   4.23441e+64  -6.11631e+64   7.48049e+66
    2.4349e+60  -2.16126e+46  -8.50328e+59  -3.04229e+66 -5.87524e+133 -6.01715e+199   8.24669e+66   2.95279e+65    1.1112e+66  -4.44877e+66  -6.48617e+64   4.16443e+64   7.26756e+66
    2.9783e+60  -3.39237e+46  -8.90566e+59  -8.42182e+66  -2.7608e+133  7.07423e+198   9.92648e+66  -2.59128e+66  -2.38094e+65  -5.59245e+66   5.79244e+64   2.31306e+64   6.63658e+66
   2.97953e+60   1.64293e+58  -8.90076e+59  -8.57503e+66 -2.97039e+133  8.75807e+198   1.01605e+67  -2.64232e+66  -2.70668e+65  -5.66205e+66  -6.55743e+64  -7.96767e+64    6.8485e+66
   2.44487e+60  -4.45362e+45   -1.2399e+60  -5.93443e+66 -4.36329e+133 -2.77137e+199   8.87977e+66  -3.19587e+65   7.10746e+65  -6.32559e+66   6.09159e+64  -1.31793e+65   6.39612e+66
   2.44358e+60  -2.08745e+58  -1.23711e+60   -6.0205e+66 -4.60905e+133  -2.8763e+199   9.07396e+66  -3.29992e+65   6.92449e+65  -6.38295e+66  -4.62899e+64   2.01719e+65   6.59588e+66
   2.97086e+60  -1.38152e+58  -1.29112e+60  -1.27467e+67  7.88172e+132  1.16424e+199   1.24337e+67  -3.52921e+66  -1.40455e+66  -7.81293e+66   7.48087e+64   2.21251e+65   5.96388e+66
   2.96983e+60  -1.29797e+46  -1.29349e+60  -1.25879e+67  9.03643e+132  8.79509e+198   1.22236e+67  -3.47697e+66  -1.37078e+66   -7.7401e+66    -4.869e+64  -1.12261e+65   5.76514e+66
    2.4349e+60  -2.16126e+46  -8.50328e+59  -3.04229e+66 -5.87524e+133 -6.01715e+199   8.24669e+66   2.95279e+65    1.1112e+66  -4.44877e+66   6.48617e+64  -4.16443e+64   7.26756e+66
   2.43353e+60  -1.86053e+58  -8.49447e+59  -3.12273e+66 -6.18651e+133 -6.26645e+199   8.46265e+66   2.86069e+65    1.0941e+66  -4.50289e+66  -4.23441e+64   6.11631e+64   7.48049e+66
   2.97953e+60  -1.64293e+58  -8.90076e+59  -8.57503e+66 -2.97039e+133  8.75807e+198   1.01605e+67  -2.64232e+66  -2.70668e+65  -5.66205e+66   6.55743e+64   7.96767e+64    6.8485e+66
    2.9783e+60  -3.39237e+46  -8.90566e+59  -8.42182e+66  -2.7608e+133  7.07423e+198   9.92648e+66  -2.59128e+66  -2.38094e+65  -5.59245e+66  -5.79244e+64  -2.31306e+64   6.63658e+66
   2.44358e+60  -2.08745e+58  -1.23711e+60  -5.95766e+66 -4.63919e+133 -3.03183e+199   9.04907e+66  -3.16635e+65   7.28565e+65  -6.36959e+66   5.23039e+64  -1.70553e+65   6.59588e+66
   2.44021e+60  -4.19899e+58  -1.22644e+60  -6.33743e+66 -5.52865e+133 -3.29627e+199   9.76982e+66  -3.41577e+65   6.47828e+65  -6.64368e+66  -5.32204e+64   1.60403e+65   7.28025e+66
    2.9745e+60  -2.79254e+58  -1.28249e+60  -1.32692e+67  3.64549e+132  2.11137e+199   1.31311e+67  -3.66405e+66  -1.48776e+66  -8.11736e+66   8.05039e+64   2.57076e+65   6.59942e+66
   2.97086e+60  -1.38152e+58  -1.29112e+60  -1.26698e+67  7.19708e+132  1.12071e+199   1.23825e+67  -3.51285e+66  -1.36033e+66  -7.79657e+66  -4.83956e+64  -7.38803e+64   5.96388e+66
   2.43353e+60  -1.86053e+58  -8.49447e+59  -3.05061e+66 -6.20727e+133 -6.51086e+199   8.44861e+66     3.014e+65   1.13555e+66  -4.48756e+66   8.02009e+64  -4.82916e+64   7.48049e+66
   2.42956e+60  -3.74871e+58  -8.46248e+59  -3.16074e+66 -7.36088e+133 -7.65928e+199   9.14325e+66   3.33781e+65   1.11214e+66  -4.60666e+66  -2.53234e+64    4.8241e+64   8.20464e+66
   2.98342e+60  -3.32678e+58  -8.87891e+59  -8.79806e+66 -3.84893e+133  1.15671e+199   1.07655e+67   -2.7135e+66  -2.79411e+65  -5.80514e+66   6.86205e+64   9.60824e+64   7.52381e+66
   2.97953e+60  -1.64293e+58  -8.90076e+59  -8.46827e+66  -3.0404e+133  6.74544e+198   1.01052e+67  -2.61962e+66    -2.093e+65  -5.63935e+66   -6.0279e+64  -4.50146e+62    6.8485e+66
    2.9745e+60   2.79254e+58  -1.28249e+60  -5.11562e+66 -1.99533e+133 -4.43328e+198   6.79138e+66  -1.93062e+66   2.45669e+65  -3.43067e+66  -8.05039e+64  -1.14552e+65   5.02393e+66
   2.97086e+60   1.38152e+58  -1.29112e+60  -4.66703e+66 -1.61745e+133 -4.81309e+198   6.16082e+66  -1.81149e+66   3.41038e+65  -3.19659e+66   4.83956e+64   1.48627e+65   4.49807e+66
   3.46711e+60   8.33802e+57  -1.31445e+60  -9.82971e+66  1.30004e+133 -2.49606e+198   9.14455e+66  -4.25265e+66   -1.2829e+66  -4.29416e+66   1.02403e+65   7.92704e+64   4.02605e+66
   3.47544e+60   1.68775e+58  -1.30729e+60  -1.08171e+67  1.54943e+133 -1.79244e+198   1.00754e+67  -4.68147e+66  -1.49281e+66  -4.64279e+66  -1.98333e+65  -1.83909e+65   4.48184e+66
   2.98342e+60   3.32678e+58  -8.87891e+59   -1.4106e+66   -3.528e+133 -4.09561e+199    6.1049e+66  -1.14294e+66   1.29115e+66  -1.55881e+66  -6.86205e+64  -7.91328e+64   5.79329e+66
   2.97953e+60   1.64293e+58  -8.90076e+59  -1.34889e+66 -2.84805e+133 -3.26146e+199   5.50455e+66  -1.10605e+66   1.30427e+66  -1.54711e+66    6.0279e+64   1.22096e+64   5.16987e+66
      3.49e+60   1.45021e+58  -9.03415e+59  -5.56273e+66 -1.52485e+133 -3.00098e+198    6.7965e+66   -3.3455e+66   2.25728e+65  -2.44296e+66   2.11857e+65   1.29171e+64   4.69784e+66
   3.50065e+60   2.94072e+58  -9.01214e+59   -6.1632e+66 -1.87176e+133 -1.65782e+198   7.53011e+66  -3.69206e+66   9.80695e+64  -2.56921e+66  -8.88797e+64  -7.84253e+64   5.25121e+66
   2.97086e+60   1.38152e+58  -1.29112e+60  -4.74398e+66 -1.58831e+133 -4.10637e+198   6.19584e+66  -1.82784e+66   2.96812e+65  -3.21295e+66  -7.48087e+64  -1.46504e+65   4.49807e+66
   2.96983e+60  -1.29797e+46  -1.29349e+60  -4.63053e+66 -1.46984e+133 -4.12504e+198   6.01167e+66  -1.78526e+66   3.20931e+65   -3.1662e+66     4.869e+64   1.12261e+65   4.32976e+66
    3.4644e+60  -2.41301e+46  -1.31658e+60  -9.70004e+66   1.3543e+133 -3.39752e+198   8.97483e+66   -4.1817e+66  -1.27437e+66  -4.24397e+66   1.27873e+65   1.00949e+65   3.86197e+66
   3.46711e+60   8.33802e+57  -1.31445e+60  -9.88228e+66  1.33488e+133 -2.39214e+198   9.18208e+66  -4.26383e+66  -1.31311e+66  -4.30534e+66  -1.63343e+65  -1.57816e+65   4.02605e+66
   2.97953e+60   1.64293e+58  -8.90076e+59  -1.45566e+66 -2.83185e+133 -3.09593e+199   5.51702e+66  -1.12875e+66    1.2429e+66  -1.56981e+66  -6.55743e+64  -6.79173e+64   5.16987e+66
    2.9783e+60  -3.39237e+46  -8.90566e+59   -1.3656e+66 -2.65346e+133 -2.92787e+199   5.32912e+66  -1.09114e+66   1.26205e+66  -1.53651e+66   5.79244e+64   2.31306e+64   4.98909e+66
   3.48684e+60  -4.73869e+46  -9.03755e+59  -5.50902e+66 -1.36462e+133 -2.40917e+198   6.63291e+66  -3.29069e+66   1.99066e+65  -2.41739e+66   1.49566e+65   1.60555e+64   4.52131e+66
      3.49e+60   1.45021e+58  -9.03415e+59  -5.66787e+66 -1.47568e+133 -2.10739e+198   6.84701e+66  -3.36785e+66   1.65295e+65  -2.46532e+66   -1.4165e+65  -7.49924e+64   4.69784e+66
   2.96983e+60  -1.29797e+46  -1.29349e+60  -4.63053e+66 -1.46984e+133 -4.12504e+198   6.01167e+66  -1.78526e+66   3.20931e+65   -3.1662e+66    -4.869e+64  -1.12261e+65   4.32976e+66
   2.97086e+60  -1.38152e+58  -1.29112e+60  -4.74398e+66 -1.58831e+133 -4.10637e+198   6.19584e+66  -1.82784e+66   2.96812e+65  -3.21295e+66   7.48087e+64   1.46504e+65   4.49807e+66
   3.46711e+60  -8.33802e+57  -1.31445e+60  -9.88228e+66  1.33488e+133 -2.39214e+198   9.18208e+66  -4.26383e+66  -1.31311e+66  -4.30534e+66   1.63343e+65   1.57816e+65   4.02605e+66
    3.4644e+60  -2.41301e+46  -1.31658e+60  -9.70004e+66   1.3543e+133 -3.39752e+198   8.97483e+66   -4.1817e+66  -1.27437e+66  -4.24397e+66  -1.27873e+65  -1.00949e+65   3.86197e+66
    2.9783e+60  -3.39237e+46  -8.90566e+59   -1.3656e+66 -2.65346e+133 -2.92787e+199   5.32912e+66  -1.09114e+66   1.26205e+66  -1.53651e+66  -5.79244e+64  -2.31306e+64   4.98909e+66
   2.97953e+60  -1.64293e+58  -8.90076e+59  -1.45566e+66 -2.83185e+133 -3.09593e+199   5.51702e+66  -1.12875e+66    1.2429e+66  -1.56981e+66   6.55743e+64   6.79173e+64   5.16987e+66
      3.49e+60  -1.45021e+58  -9.03415e+59  -5.66787e+66 -1.47568e+133 -2.10739e+198   6.84701e+66  -3.36785e+66   1.65295e+65  -2.46532e+66    1.4165e+65   7.49924e+64   4.69784e+66
   3.48684e+60  -4.73869e+46  -9.03755e+59  -5.50902e+66 -1.36462e+133 -2.40917e+198   6.63291e+66  -3.29069e+66   1.99066e+65  -2.41739e+66  -1.49566e+65  -1.60555e+64   4.52131e+66
   2.97086e+60  -1.38152e+58  -1.29112e+60  -4.66703e+66 -1.61745e+133 -4.81309e+198   6.16082e+66  -1.81149e+66   3.41038e+65  -3.19659e+66  -4.83956e+64  -1.48627e+65   4.49807e+66
    2.9745e+60  -2.79254e+58  -1.28249e+60  -5.11562e+66 -1.99533e+133 -4.43328e+198   6.79138e+66  -1.93062e+66   2.45669e+65  -3.43067e+66   8.05039e+64   1.14552e+65   5.02393e+66
   3.47544e+60  -1.68775e+58  -1.30729e+60  -1.08171e+67  1.54943e+133 -1.79244e+198   1.00754e+67  -4.68147e+66  -1.49281e+66  -4.64279e+66   1.98333e+65   1.83909e+65   4.48184e+66
   3.46711e+60  -8.33802e+57  -1.31445e+60  -9.82971e+66  1.30004e+133 -2.49606e+198   9.14455e+66  -4.25265e+66   -1.2829e+66  -4.29416e+66  -1.02403e+65  -7.92704e+64   4.02605e+66
   2.97953e+60  -1.64293e+58  -8.90076e+59  -1.34889e+66 -2.84805e+133 -3.26146e+199   5.50455e+66  -1.10605e+66   1.30427e+66  -1.54711e+66   -6.0279e+64  -1.22096e+64   5.16987e+66
   2.98342e+60  -3.32678e+58  -8.87891e+59   -1.4106e+66   -3.528e+133 -4.09561e+199    6.1049e+66  -1.14294e+66   1.29115e+66  -1.55881e+66   6.86205e+64   7.91328e+64   5.79329e+66
   3.50065e+60  -2.94072e+58  -9.01214e+59   -6.1632e+66 -1.87176e+133 -1.65782e+198   7.53011e+66  -3.69206e+66   9.80695e+64  -2.56921e+66   8.88797e+64   7.84253e+64   5.25121e+66
      3.49e+60  -1.45021e+58  -9.03415e+59  -5.56273e+66 -1.52485e+133 -3.00098e+198    6.7965e+66   -3.3455e+66   2.25728e+65  -2.44296e+66  -2.11857e+65  -1.29171e+64   4.69784e+66
   3.47544e+60   1.68775e+58  -1.30729e+60    -5.637e+66  2.70158e+132 -3.18884e+196   5.39205e+66  -3.58019e+66  -3.91535e+65  -1.66528e+66  -1.98333e+65  -1.29717e+65   2.29304e+66
   3.46711e+60   8.33802e+57  -1.31445e+60  -5.02404e+66  2.13794e+132 -1.25752e+197   4.80657e+66  -3.23097e+66   -2.6122e+65  -1.53185e+66   1.02403e+65   1.22032e+65   2.00754e+66
   3.92064e+60   3.76596e+57  -1.31936e+60  -4.08926e+66  2.25483e+132 -1.13968e+197   3.80358e+66  -2.19016e+66  -5.65987e+65  -1.33312e+66   2.43913e+64   1.20477e+65   1.62601e+66
   3.93006e+60   6.97678e+57  -1.31223e+60  -4.87334e+66  3.41097e+132  2.68258e+196   4.50982e+66  -2.63774e+66  -7.32681e+65  -1.50292e+66  -3.55316e+65  -1.31272e+65   1.85571e+66
   3.50065e+60   2.94072e+58  -9.01214e+59  -1.56156e+66  -6.6986e+132 -4.00199e+198   3.02276e+66  -2.71376e+66   1.07637e+66   7.58311e+64  -8.88797e+64  -1.55367e+65   1.90299e+66
      3.49e+60   1.45021e+58  -9.03415e+59  -1.25679e+66 -5.37663e+132  -2.9503e+198   2.63745e+66  -2.43006e+66   1.14116e+66   3.21029e+64   2.11857e+65   1.74118e+64    1.5865e+66
   3.93461e+60     1.267e+58  -9.00247e+59   1.14043e+65 -2.96145e+132   -2.008e+198   1.72466e+66  -1.29654e+66   1.08704e+66   3.23541e+65   1.64835e+65    7.1672e+64   1.20497e+66
   3.94701e+60    2.3918e+58  -8.96898e+59  -3.61843e+65 -4.08865e+132 -2.59982e+198   2.05416e+66   -1.6786e+66   9.85871e+65   3.30889e+65  -2.14872e+65  -1.01107e+65   1.46566e+66
   3.46711e+60   8.33802e+57  -1.31445e+60  -5.07661e+66  2.32717e+132 -1.23883e+197   4.84198e+66  -3.24215e+66  -2.91435e+65  -1.54303e+66  -1.63343e+65  -1.15054e+65   2.00754e+66
    3.4644e+60  -2.41301e+46  -1.31658e+60  -4.95982e+66  2.38997e+132 -2.04112e+197   4.71274e+66  -3.17393e+66  -2.66607e+65  -1.51928e+66   1.27873e+65   1.00949e+65   1.91229e+66
   3.91771e+60  -3.62206e+46   -1.3215e+60  -4.02247e+66  2.26702e+132 -1.77127e+197   3.73005e+66  -2.20313e+66  -4.99332e+65     -1.32e+66   1.38229e+65   1.01492e+65   1.53978e+66
   3.92064e+60   3.76596e+57  -1.31936e+60  -3.94444e+66  1.74651e+132   1.5614e+197   3.71646e+66  -2.15937e+66  -4.82743e+65  -1.30233e+66  -2.82436e+65  -1.14511e+65   1.62601e+66
      3.49e+60   1.45021e+58  -9.03415e+59  -1.36193e+66 -5.20578e+132 -2.70233e+198   2.65719e+66  -2.45241e+66   1.08073e+66   9.75097e+63   -1.4165e+65  -7.04978e+64    1.5865e+66
   3.48684e+60  -4.73869e+46  -9.03755e+59  -1.29495e+66 -4.98146e+132 -2.55652e+198   2.58038e+66  -2.39479e+66   1.09497e+66   4.86753e+63   1.49566e+65   1.60555e+64   1.52653e+66
   3.93198e+60  -5.91416e+46  -9.00789e+59   3.57194e+65   -2.967e+132 -2.26951e+198   1.75914e+66  -1.27202e+66   1.27311e+66    3.5611e+65   1.24641e+65   2.56175e+64   1.15402e+66
   3.93461e+60     1.267e+58  -9.00247e+59   4.85022e+65 -3.09338e+132 -2.51238e+198   1.82445e+66  -1.21767e+66   1.30028e+66    4.0241e+65  -2.96024e+65  -6.09357e+64   1.20497e+66
    3.4644e+60  -2.41301e+46  -1.31658e+60  -4.95982e+66  2.38997e+132 -2.04112e+197   4.71274e+66  -3.17393e+66  -2.66607e+65  -1.51928e+66  -1.27873e+65  -1.00949e+65   1.91229e+66
   3.46711e+60  -8.33802e+57  -1.31445e+60  -5.07661e+66  2.32717e+132 -1.23883e+197   4.84198e+66  -3.24215e+66  -2.91435e+65  -1.54303e+66   1.63343e+65   1.15054e+65   2.00754e+66
   3.92064e+60  -3.76596e+57  -1.31936e+60  -3.94444e+66  1.74651e+132   1.5614e+197   3.71646e+66  -2.15937e+66  -4.82743e+65  -1.30233e+66   2.82436e+65   1.14511e+65   1.62601e+66
   3.91771e+60  -3.62206e+46   -1.3215e+60  -4.02247e+66  2.26702e+132 -1.77127e+197   3.73005e+66  -2.20313e+66  -4.99332e+65     -1.32e+66  -1.38229e+65  -1.01492e+65   1.53978e+66
   3.48684e+60  -4.73869e+46  -9.03755e+59  -1.29495e+66 -4.98146e+132 -2.55652e+198   2.58038e+66  -2.39479e+66   1.09497e+66   4.86753e+63  -1.49566e+65  -1.60555e+64   1.52653e+66
      3.49e+60  -1.45021e+58  -9.03415e+59  -1.36193e+66 -5.20578e+132 -2.70233e+198   2.65719e+66  -2.45241e+66   1.08073e+66   9.75097e+63    1.4165e+65   7.04978e+64    1.5865e+66
   3.93461e+60    -1.267e+58  -9.00247e+59   4.85022e+65 -3.09338e+132 -2.51238e+198   1.82445e+66  -1.21767e+66   1.30028e+66    4.0241e+65   2.96024e+65   6.09357e+64   1.20497e+66
   3.93198e+60  -5.91416e+46  -9.00789e+59   3.57194e+65   -2.967e+132 -2.26951e+198   1.75914e+66  -1.27202e+66   1.27311e+66    3.5611e+65  -1.24641e+65  -2.56175e+64   1.15402e+66
   3.46711e+60  -8.33802e+57  -1.31445e+60  -5.02404e+66  2.13794e+132 -1.25752e+197   4.80657e+66  -3.23097e+66   -2.6122e+65  -1.53185e+66  -1.02403e+65  -1.22032e+65   2.00754e+66
   3.47544e+60  -1.68775e+58  -1.30729e+60    -5.637e+66  2.70158e+132 -3.18884e+196   5.39205e+66  -3.58019e+66  -3.91535e+65  -1.66528e+66   1.98333e+65   1.29717e+65   2.29304e+66
   3.93006e+60  -6.97678e+57  -1.31223e+60  -4.87334e+66  3.41097e+132  2.68258e+196   4.50982e+66  -2.63774e+66  -7.32681e+65  -1.50292e+66   3.55316e+65   1.31272e+65   1.85571e+66
   3.92064e+60  -3.76596e+57  -1.31936e+60  -4.08926e+66  2.25483e+132 -1.13968e+197   3.80358e+66  -2.19016e+66  -5.65987e+65  -1.33312e+66  -2.43913e+64  -1.20477e+65   1.62601e+66
      3.49e+60  -1.45021e+58  -9.03415e+59  -1.25679e+66 -5.37663e+132  -2.9503e+198   2.63745e+66  -2.43006e+66   1.14116e+66   3.21029e+64  -2.11857e+65  -1.74118e+64    1.5865e+66
   3.50065e+60  -2.94072e+58  -9.01214e+59  -1.56156e+66  -6.6986e+132 -4.00199e+198   3.02276e+66  -2.71376e+66   1.07637e+66   7.58311e+64   8.88797e+64   1.55367e+65   1.90299e+66
   3.94701e+60   -2.3918e+58  -8.96898e+59  -3.61843e+65 -4.08865e+132 -2.59982e+198   2.05416e+66   -1.6786e+66   9.85871e+65   3.30889e+65   2.14872e+65   1.01107e+65   1.46566e+66
   3.93461e+60    -1.267e+58  -9.00247e+59   1.14043e+65 -2.96145e+132   -2.008e+198   1.72466e+66  -1.29654e+66   1.08704e+66   3.23541e+65  -1.64835e+65   -7.1672e+64   1.20497e+66
   9.99284e+59   1.29774e+59  -1.19861e+60  -2.44517e+67 -4.94167e+133 -2.11411e+199   2.54421e+67   3.54166e+65   9.11252e+65  -2.57171e+67   4.35577e+65   -7.0668e+65   4.06293e+66
   1.02605e+60   6.51139e+58  -1.21035e+60  -2.47949e+67  -4.4521e+133 -1.40483e+199   2.56769e+67   3.62407e+65   8.38296e+65  -2.59956e+67  -4.30163e+65  -9.22076e+64    3.6631e+66
   1.45969e+60   5.14222e+58  -1.42969e+60  -3.12737e+67  1.09366e+134 -9.86738e+199   2.94734e+67  -2.13272e+66  -1.76805e+66   -2.7373e+67   -3.1013e+65   1.05389e+64   1.04114e+66
   1.44014e+60   1.03076e+59  -1.41577e+60   -3.0766e+67  1.01071e+134 -8.52608e+199   2.90771e+67   -2.0464e+66  -1.66011e+66  -2.70595e+67   3.29389e+65  -6.03934e+65   1.46608e+66
    9.4052e+59   9.37887e+58  -8.43761e+59  -1.48929e+67 -8.50598e+133 -7.64811e+199   1.75174e+67   2.38634e+66   1.21195e+66  -1.84912e+67   4.76175e+65  -3.19234e+65     4.592e+66
   9.66426e+59   4.74531e+58  -8.54246e+59  -1.50975e+67 -8.22932e+133 -7.11677e+199   1.76133e+67   2.42405e+66   1.16846e+66    -1.869e+67  -3.89565e+65   6.90173e+64   4.22196e+66
    1.4119e+60    3.8429e+58  -1.01808e+60  -2.03272e+67  7.59243e+132  6.24482e+198   2.01396e+67    1.9449e+65  -7.19874e+65  -1.98018e+67  -2.99326e+65   1.46659e+65   1.60001e+66
   1.39257e+60   7.65465e+58  -1.00595e+60  -1.99582e+67  3.31699e+132   7.6299e+198   1.98749e+67   2.51343e+65  -6.41413e+65  -1.95681e+67   3.40193e+65  -2.41593e+65   1.99515e+66
   1.02605e+60   6.51139e+58  -1.21035e+60  -2.46765e+67 -4.71845e+133  -1.8498e+199   2.56148e+67   3.87558e+65   9.06298e+65  -2.59704e+67   4.26242e+65  -5.77743e+65    3.6631e+66
   1.03469e+60   2.19993e+46  -1.21182e+60   -2.4784e+67 -4.58782e+133 -1.62116e+199   2.56929e+67   3.87303e+65   8.83444e+65  -2.60548e+67  -4.08124e+65   6.91073e+64   3.59722e+66
   1.46604e+60   2.13991e+46   -1.4318e+60  -3.14909e+67  1.13134e+134 -1.05499e+200   2.96403e+67  -2.17414e+66  -1.83613e+66  -2.74807e+67  -2.99931e+65   9.98753e+64   9.81623e+65
   1.45969e+60   5.14222e+58  -1.42969e+60  -3.13342e+67  1.10516e+134 -1.00993e+200   2.95181e+67  -2.14558e+66  -1.80281e+66  -2.73858e+67   3.13924e+65  -5.46975e+65   1.04114e+66
   9.66426e+59   4.74531e+58  -8.54246e+59  -1.48059e+67 -8.59918e+133 -8.35307e+199   1.74702e+67   2.48603e+66   1.33604e+66   -1.8628e+67   4.37542e+65   -3.1492e+65   4.22196e+66
   9.74826e+59   1.18413e+46  -8.56604e+59  -1.49486e+67 -8.51658e+133 -8.07181e+199   1.75677e+67   2.47831e+66   1.30572e+66  -1.87326e+67  -3.96824e+65   1.11419e+65     4.165e+66
    1.4182e+60   9.06839e+45  -1.02122e+60  -2.04379e+67  8.07427e+132  5.83167e+198   2.02394e+67   1.75723e+65  -7.13975e+65  -1.98996e+67  -2.97552e+65    1.4855e+65   1.54941e+66
    1.4119e+60    3.8429e+58  -1.01808e+60   -2.0246e+67  6.24916e+132  6.22559e+198    2.0091e+67   2.11761e+65  -6.73179e+65  -1.97846e+67   3.16303e+65  -2.77788e+65   1.60001e+66
   1.03469e+60   2.19993e+46  -1.21182e+60   -2.4784e+67 -4.58782e+133 -1.62116e+199   2.56929e+67   3.87303e+65   8.83444e+65  -2.60548e+67   4.08124e+65  -6.91073e+64   3.59722e+66
   1.02605e+60  -6.51139e+58  -1.21035e+60  -2.46765e+67 -4.71845e+133  -1.8498e+199   2.56148e+67   3.87558e+65   9.06298e+65  -2.59704e+67  -4.26242e+65   5.77743e+65    3.6631e+66
   1.45969e+60  -5.14222e+58  -1.42969e+60  -3.13342e+67  1.10516e+134 -1.00993e+200   2.95181e+67  -2.14558e+66  -1.80281e+66  -2.73858e+67  -3.13924e+65   5.46975e+65   1.04114e+66
   1.46604e+60   2.13991e+46   -1.4318e+60  -3.14909e+67  1.13134e+134 -1.05499e+200   2.96403e+67  -2.17414e+66  -1.83613e+66  -2.74807e+67   2.99931e+65  -9.98753e+64   9.81623e+65
   9.74826e+59   1.18413e+46  -8.56604e+59  -1.49486e+67 -8.51658e+133 -8.07181e+199   1.75677e+67   2.47831e+66   1.30572e+66  -1.87326e+67   3.96824e+65  -1.11419e+65     4.165e+66
   9.66426e+59  -4.74531e+58  -8.54246e+59  -1.48059e+67 -8.59918e+133 -8.35307e+199   1.74702e+67   2.48603e+66   1.33604e+66   -1.8628e+67  -4.37542e+65    3.1492e+65   4.22196e+66
    1.4119e+60   -3.8429e+58  -1.01808e+60   -2.0246e+67  6.24916e+132  6.22559e+198    2.0091e+67   2.11761e+65  -6.73179e+65  -1.97846e+67  -3.16303e+65   2.77788e+65   1.60001e+66
    1.4182e+60   9.06839e+45  -1.02122e+60  -2.04379e+67  8.07427e+132  5.83167e+198   2.02394e+67   1.75723e+65  -7.13975e+65  -1.98996e+67   2.97552e+65   -1.4855e+65   1.54941e+66
   1.02605e+60  -6.51139e+58  -1.21035e+60  -2.47949e+67  -4.4521e+133 -1.40483e+199   2.56769e+67   3.62407e+65   8.38296e+65  -2.59956e+67   4.30163e+65   9.22076e+64    3.6631e+66
   9.99284e+59  -1.29774e+59  -1.19861e+60  -2.44517e+67 -4.94167e+133 -2.11411e+199   2.54421e+67   3.54166e+65   9.11252e+65  -2.57171e+67  -4.35577e+65    7.0668e+65   4.06293e+66
   1.44014e+60  -1.03076e+59  -1.41577e+60   -3.0766e+67  1.01071e+134 -8.52608e+199   2.90771e+67   -2.0464e+66  -1.66011e+66  -2.70595e+67  -3.29389e+65   6.03934e+65   1.46608e+66
   1.45969e+60  -5.14222e+58  -1.42969e+60  -3.12737e+67  1.09366e+134 -9.86738e+199   2.94734e+67  -2.13272e+66  -1.76805e+66   -2.7373e+67    3.1013e+65  -1.05389e+64   1.04114e+66
   9.66426e+59  -4.74531e+58  -8.54246e+59  -1.50975e+67 -8.22932e+133 -7.11677e+199   1.76133e+67   2.42405e+66   1.16846e+66    -1.869e+67   3.89565e+65  -6.90173e+64   4.22196e+66
    9.4052e+59  -9.37887e+58  -8.43761e+59  -1.48929e+67 -8.50598e+133 -7.64811e+199   1.75174e+67   2.38634e+66   1.21195e+66  -1.84912e+67  -4.76175e+65   3.19234e+65     4.592e+66
   1.39257e+60  -7.65465e+58  -1.00595e+60  -1.99582e+67  3.31699e+132   7.6299e+198   1.98749e+67   2.51343e+65  -6.41413e+65  -1.95681e+67  -3.40193e+65   2.41593e+65   1.99515e+66
    1.4119e+60   -3.8429e+58  -1.01808e+60  -2.03272e+67  7.59243e+132  6.24482e+198   2.01396e+67    1.9449e+65  -7.19874e+65  -1.98018e+67   2.99326e+65  -1.46659e+65   1.60001e+66
   1.44014e+60   1.03076e+59  -1.41577e+60  -1.72327e+67 -5.55682e+133 -3.98163e+199   1.87759e+67   8.30765e+65   1.21705e+66  -1.92805e+67   3.29389e+65  -7.27044e+65     4.057e+66
   1.45969e+60   5.14222e+58  -1.42969e+60  -1.72177e+67 -5.18942e+133 -3.38271e+199   1.86639e+67   8.55577e+65   1.22025e+66  -1.92935e+67   -3.1013e+65  -3.11898e+64   3.57647e+66
     1.947e+60   3.68473e+58  -1.59514e+60  -2.47838e+67  8.15025e+133 -7.16025e+199    2.3081e+67  -2.10176e+66  -1.78001e+66   -2.0902e+67  -1.72934e+65  -2.31138e+64   1.82899e+66
   1.93583e+60   7.37724e+58  -1.58105e+60  -2.46619e+67  7.69574e+133  -6.4329e+199   2.30489e+67  -2.04783e+66  -1.75409e+66    -2.086e+67   1.82205e+65  -7.18968e+65   2.32214e+66
   1.39257e+60   7.65465e+58  -1.00595e+60  -1.11845e+67  -6.8269e+133 -6.40655e+199   1.39055e+67    2.1166e+66   1.22384e+66   -1.4525e+67   3.40193e+65  -2.68113e+65   4.70659e+66
    1.4119e+60    3.8429e+58  -1.01808e+60  -1.10998e+67 -6.47673e+133 -6.03719e+199   1.37103e+67   2.15623e+66   1.24186e+66  -1.44979e+67  -2.99326e+65    1.4336e+65   4.25087e+66
   1.91348e+60    2.9335e+58  -1.14654e+60  -1.70957e+67   1.4947e+133 -5.13837e+197   1.66528e+67  -4.67276e+65  -8.55797e+65  -1.57726e+67   -1.8694e+65   1.38814e+65   2.50339e+66
   1.90201e+60    5.8743e+58  -1.13451e+60  -1.70434e+67  1.15014e+133  1.96144e+198   1.67026e+67  -4.28156e+65  -8.44691e+65  -1.57706e+67   1.68198e+65  -2.72658e+65   2.97173e+66
   1.45969e+60   5.14222e+58  -1.42969e+60  -1.72781e+67 -5.13945e+133 -3.41629e+199   1.87064e+67    8.4272e+65   1.18549e+66  -1.93063e+67   3.13924e+65  -5.88704e+65   3.57647e+66
   1.46604e+60   2.13991e+46   -1.4318e+60  -1.72472e+67 -5.08227e+133 -3.27452e+199   1.86625e+67   8.54063e+65   1.19207e+66  -1.92933e+67  -2.99931e+65   9.98753e+64   3.50203e+66
   1.95075e+60   1.86987e+46  -1.59718e+60  -2.48113e+67  8.23873e+133 -7.31803e+199   2.30914e+67  -2.11668e+66  -1.79321e+66  -2.09014e+67  -1.76809e+65   9.66448e+64   1.75784e+66
     1.947e+60   3.68473e+58  -1.59514e+60  -2.48041e+67  8.15341e+133 -7.18796e+199   2.31022e+67  -2.10608e+66  -1.79168e+66  -2.09064e+67   1.78104e+65  -5.91934e+65   1.82899e+66
    1.4119e+60    3.8429e+58  -1.01808e+60  -1.10185e+67 -6.55809e+133 -6.33184e+199   1.36744e+67    2.1735e+66   1.28856e+66  -1.44806e+67   3.16303e+65  -2.81087e+65   4.25087e+66
    1.4182e+60   9.06839e+45  -1.02122e+60  -1.10058e+67 -6.50659e+133 -6.25073e+199   1.36452e+67   2.18097e+66   1.29127e+66   -1.4478e+67  -2.97552e+65    1.4855e+65   4.18333e+66
   1.91732e+60   4.27612e+45  -1.14969e+60  -1.71401e+67  1.58506e+133  -1.0996e+198   1.66713e+67  -4.85793e+65  -8.72154e+65  -1.57822e+67  -1.81343e+65   1.48614e+65   2.43915e+66
   1.91348e+60    2.9335e+58  -1.14654e+60  -1.71147e+67   1.5143e+133 -7.44974e+197   1.66665e+67  -4.71329e+65  -8.66757e+65  -1.57766e+67   1.73571e+65  -2.81023e+65   2.50339e+66
   1.46604e+60   2.13991e+46   -1.4318e+60  -1.72472e+67 -5.08227e+133 -3.27452e+199   1.86625e+67   8.54063e+65   1.19207e+66  -1.92933e+67   2.99931e+65  -9.98753e+64   3.50203e+66
   1.45969e+60  -5.14222e+58  -1.42969e+60  -1.72781e+67 -5.13945e+133 -3.41629e+199   1.87064e+67    8.4272e+65   1.18549e+66  -1.93063e+67  -3.13924e+65   5.88704e+65   3.57647e+66
     1.947e+60  -3.68473e+58  -1.59514e+60  -2.48041e+67  8.15341e+133 -7.18796e+199   2.31022e+67  -2.10608e+66  -1.79168e+66  -2.09064e+67  -1.78104e+65   5.91934e+65   1.82899e+66
   1.95075e+60   1.86987e+46  -1.59718e+60  -2.48113e+67  8.23873e+133 -7.31803e+199   2.30914e+67  -2.11668e+66  -1.79321e+66  -2.09014e+67   1.76809e+65  -9.66448e+64   1.75784e+66
    1.4182e+60   9.06839e+45  -1.02122e+60  -1.10058e+67 -6.50659e+133 -6.25073e+199   1.36452e+67   2.18097e+66   1.29127e+66   -1.4478e+67   2.97552e+65   -1.4855e+65   4.18333e+66
    1.4119e+60   -3.8429e+58  -1.01808e+60  -1.10185e+67 -6.55809e+133 -6.33184e+199   1.36744e+67    2.1735e+66   1.28856e+66  -1.44806e+67  -3.16303e+65   2.81087e+65   4.25087e+66
   1.91348e+60   -2.9335e+58  -1.14654e+60  -1.71147e+67   1.5143e+133 -7.44974e+197   1.66665e+67  -4.71329e+65  -8.66757e+65  -1.57766e+67  -1.73571e+65   2.81023e+65   2.50339e+66
   1.91732e+60   4.27612e+45  -1.14969e+60  -1.71401e+67  1.58506e+133  -1.0996e+198   1.66713e+67  -4.85793e+65  -8.72154e+65  -1.57822e+67   1.81343e+65  -1.48614e+65   2.43915e+66
   1.45969e+60  -5.14222e+58  -1.42969e+60  -1.72177e+67 -5.18942e+133 -3.38271e+199   1.86639e+67   8.55577e+65   1.22025e+66  -1.92935e+67    3.1013e+65   3.11898e+64   3.57647e+66
   1.44014e+60  -1.03076e+59  -1.41577e+60  -1.72327e+67 -5.55682e+133 -3.98163e+199   1.87759e+67   8.30765e+65   1.21705e+66  -1.92805e+67  -3.29389e+65   7.27044e+65     4.057e+66
   1.93583e+60  -7.37724e+58  -1.58105e+60  -2.46619e+67  7.69574e+133  -6.4329e+199   2.30489e+67  -2.04783e+66  -1.75409e+66    -2.086e+67  -1.82205e+65   7.18968e+65   2.32214e+66
     1.947e+60  -3.68473e+58  -1.59514e+60  -2.47838e+67  8.15025e+133 -7.16025e+199    2.3081e+67  -2.10176e+66  -1.78001e+66   -2.0902e+67   1.72934e+65   2.31138e+64   1.82899e+66
    1.4119e+60   -3.8429e+58  -1.01808e+60  -1.10998e+67 -6.47673e+133 -6.03719e+199   1.37103e+67   2.15623e+66   1.24186e+66  -1.44979e+67   2.99326e+65   -1.4336e+65   4.25087e+66
   1.39257e+60  -7.65465e+58  -1.00595e+60  -1.11845e+67  -6.8269e+133 -6.40655e+199   1.39055e+67    2.1166e+66   1.22384e+66   -1.4525e+67  -3.40193e+65   2.68113e+65   4.70659e+66
   1.90201e+60   -5.8743e+58  -1.13451e+60  -1.70434e+67  1.15014e+133  1.96144e+198   1.67026e+67  -4.28156e+65  -8.44691e+65  -1.57706e+67  -1.68198e+65   2.72658e+65   2.97173e+66
   1.91348e+60   -2.9335e+58  -1.14654e+60  -1.70957e+67   1.4947e+133 -5.13837e+197   1.66528e+67  -4.67276e+65  -8.55797e+65  -1.57726e+67    1.8694e+65  -1.38814e+65   2.50339e+66
   1.93583e+60   7.37724e+58  -1.58105e+60  -9.80787e+66 -4.30731e+133 -3.86847e+199   1.18012e+67   1.11011e+66   1.40385e+66  -1.23218e+67   1.82205e+65  -6.85697e+65   3.62651e+66
     1.947e+60   3.68473e+58  -1.59514e+60  -9.51748e+66 -3.97722e+133 -3.42963e+199   1.14173e+67   1.14383e+66   1.46559e+66  -1.21269e+67  -1.72934e+65   3.88755e+63   3.12642e+66
   2.46177e+60   2.28439e+58  -1.70206e+60   -1.7324e+67  4.63144e+133 -3.38561e+199   1.59313e+67  -1.96418e+66  -1.57323e+66  -1.37865e+67   -3.1726e+64  -6.27091e+64   2.35361e+66
   2.45913e+60   4.51728e+58  -1.68939e+60  -1.74998e+67  4.38603e+133  -2.9344e+199   1.61983e+67  -1.93209e+66  -1.61062e+66  -1.39571e+67   2.56065e+64  -7.52294e+65   2.85149e+66
   1.90201e+60    5.8743e+58  -1.13451e+60  -7.48941e+66 -4.55975e+133 -4.19083e+199   1.00841e+67   1.60301e+66   1.18648e+66  -1.02789e+67   1.68198e+65  -2.23032e+65   4.32996e+66
   1.91348e+60    2.9335e+58  -1.14654e+60  -7.21122e+66 -4.19146e+133 -3.89462e+199   9.69104e+66   1.63414e+66   1.24562e+66   -1.0091e+67   -1.8694e+65   1.68747e+65    3.8506e+66
   2.44358e+60   2.08745e+58  -1.23711e+60  -1.33733e+67  1.39511e+133 -2.81669e+198   1.28411e+67  -1.12428e+66  -8.47986e+65   -1.1401e+67  -6.64688e+64    1.0436e+65    3.0778e+66
   2.44021e+60   4.19899e+58  -1.22644e+60   -1.3537e+67  1.10514e+133  1.42221e+197   1.31224e+67  -1.08959e+66  -8.82786e+65  -1.15646e+67   -9.1363e+63   -2.8742e+65   3.55494e+66
     1.947e+60   3.68473e+58  -1.59514e+60  -9.53779e+66 -3.99301e+133 -3.49178e+199   1.14411e+67   1.13952e+66   1.45392e+66  -1.21312e+67   1.78104e+65  -5.64933e+65   3.12642e+66
   1.95075e+60   1.86987e+46  -1.59718e+60  -9.51199e+66 -3.91397e+133 -3.34304e+199    1.1385e+67   1.13593e+66    1.4594e+66  -1.21073e+67  -1.76809e+65   9.66448e+64   3.05522e+66
   2.46291e+60   1.46479e+46  -1.70391e+60  -1.71789e+67   4.5003e+133 -3.22077e+199   1.58149e+67  -1.94789e+66  -1.49373e+66  -1.37373e+67  -5.36469e+64   8.74402e+64    2.2748e+66
   2.46177e+60   2.28439e+58  -1.70206e+60  -1.71896e+67  4.42374e+133  -3.0999e+199   1.58507e+67  -1.93562e+66  -1.49601e+66   -1.3758e+67   3.93939e+64  -5.74138e+65   2.35361e+66
   1.91348e+60    2.9335e+58  -1.14654e+60  -7.23029e+66 -4.18274e+133  -3.8758e+199   9.70075e+66   1.63009e+66   1.23466e+66   -1.0095e+67   1.73571e+65  -2.51091e+65    3.8506e+66
   1.91732e+60   4.27612e+45  -1.14969e+60  -7.16243e+66 -4.12976e+133 -3.83013e+199   9.62279e+66   1.63545e+66   1.24909e+66   -1.0047e+67  -1.81343e+65   1.48614e+65   3.78215e+66
   2.44487e+60  -4.45362e+45   -1.2399e+60  -1.33834e+67   1.4861e+133 -3.44444e+198   1.28162e+67  -1.14096e+66  -8.72888e+65  -1.13695e+67  -6.09159e+64   1.31793e+65   3.00172e+66
   2.44358e+60   2.08745e+58  -1.23711e+60  -1.34361e+67  1.45371e+133 -3.06504e+198   1.28838e+67  -1.13764e+66  -8.84102e+65  -1.14144e+67    3.2125e+64  -2.67912e+65    3.0778e+66
   1.95075e+60   1.86987e+46  -1.59718e+60  -9.51199e+66 -3.91397e+133 -3.34304e+199    1.1385e+67   1.13593e+66    1.4594e+66  -1.21073e+67   1.76809e+65  -9.66448e+64   3.05522e+66
     1.947e+60  -3.68473e+58  -1.59514e+60  -9.53779e+66 -3.99301e+133 -3.49178e+199   1.14411e+67   1.13952e+66   1.45392e+66  -1.21312e+67  -1.78104e+65   5.64933e+65   3.12642e+66
   2.46177e+60  -2.28439e+58  -1.70206e+60  -1.71896e+67  4.42374e+133  -3.0999e+199   1.58507e+67  -1.93562e+66  -1.49601e+66   -1.3758e+67  -3.93939e+64   5.74138e+65   2.35361e+66
   2.46291e+60   1.46479e+46  -1.70391e+60  -1.71789e+67   4.5003e+133 -3.22077e+199   1.58149e+67  -1.94789e+66  -1.49373e+66  -1.37373e+67   5.36469e+64  -8.74402e+64    2.2748e+66
   1.91732e+60   4.27612e+45  -1.14969e+60  -7.16243e+66 -4.12976e+133 -3.83013e+199   9.62279e+66   1.63545e+66   1.24909e+66   -1.0047e+67   1.81343e+65  -1.48614e+65   3.78215e+66
   1.91348e+60   -2.9335e+58  -1.14654e+60  -7.23029e+66 -4.18274e+133  -3.8758e+199   9.70075e+66   1.63009e+66   1.23466e+66   -1.0095e+67  -1.73571e+65   2.51091e+65    3.8506e+66
   2.44358e+60  -2.08745e+58  -1.23711e+60  -1.34361e+67  1.45371e+133 -3.06504e+198   1.28838e+67  -1.13764e+66  -8.84102e+65  -1.14144e+67   -3.2125e+64   2.67912e+65    3.0778e+66
   2.44487e+60  -4.45362e+45   -1.2399e+60  -1.33834e+67   1.4861e+133 -3.44444e+198   1.28162e+67  -1.14096e+66  -8.72888e+65  -1.13695e+67   6.09159e+64  -1.31793e+65   3.00172e+66
     1.947e+60  -3.68473e+58  -1.59514e+60  -9.51748e+66 -3.97722e+133 -3.42963e+199   1.14173e+67   1.14383e+66   1.46559e+66  -1.21269e+67   1.72934e+65  -3.88755e+63   3.12642e+66
   1.93583e+60  -7.37724e+58  -1.58105e+60  -9.80787e+66 -4.30731e+133 -3.86847e+199   1.18012e+67   1.11011e+66   1.40385e+66  -1.23218e+67  -1.82205e+65   6.85697e+65   3.62651e+66
   2.45913e+60  -4.51728e+58  -1.68939e+60  -1.74998e+67  4.38603e+133  -2.9344e+199   1.61983e+67  -1.93209e+66  -1.61062e+66  -1.39571e+67  -2.56065e+64   7.52294e+65   2.85149e+66
   2.46177e+60  -2.28439e+58  -1.70206e+60   -1.7324e+67  4.63144e+133 -3.38561e+199   1.59313e+67  -1.96418e+66  -1.57323e+66  -1.37865e+67    3.1726e+64   6.27091e+64   2.35361e+66
   1.91348e+60   -2.9335e+58  -1.14654e+60  -7.21122e+66 -4.19146e+133 -3.89462e+199   9.69104e+66   1.63414e+66   1.24562e+66   -1.0091e+67    1.8694e+65  -1.68747e+65    3.8506e+66
   1.90201e+60   -5.8743e+58  -1.13451e+60  -7.48941e+66 -4.55975e+133 -4.19083e+199   1.00841e+67   1.60301e+66   1.18648e+66  -1.02789e+67  -1.68198e+65   2.23032e+65   4.32996e+66
   2.44021e+60  -4.19899e+58  -1.22644e+60   -1.3537e+67  1.10514e+133  1.42221e+197   1.31224e+67  -1.08959e+66  -8.82786e+65  -1.15646e+67    9.1363e+63    2.8742e+65   3.55494e+66
   2.44358e+60  -2.08745e+58  -1.23711e+60  -1.33733e+67  1.39511e+133 -2.81669e+198   1.28411e+67  -1.12428e+66  -8.47986e+65   -1.1401e+67   6.64688e+64   -1.0436e+65    3.0778e+66
   2.45913e+60   4.51728e+58  -1.68939e+60  -3.53748e+66 -2.03648e+133 -1.86069e+199   5.73398e+66   1.03629e+66   1.35776e+66  -5.93152e+66   2.56065e+64  -5.17031e+65    2.7025e+66
   2.46177e+60   2.28439e+58  -1.70206e+60  -3.09813e+66  -1.7752e+133 -1.61803e+199   5.22976e+66   1.06021e+66   1.45116e+66  -5.60949e+66   -3.1726e+64   5.31766e+64   2.28018e+66
   2.97499e+60   1.12934e+58  -1.75446e+60  -9.91474e+66  1.65526e+133 -7.45019e+198   9.04153e+66  -1.71759e+66  -1.13845e+66  -7.05869e+66   8.36172e+64  -6.11334e+64   2.35626e+66
   2.97928e+60    2.1553e+58   -1.7442e+60  -1.03755e+67  1.62211e+133  -5.4765e+198   9.56191e+66  -1.75382e+66  -1.23641e+66  -7.38528e+66  -9.83014e+64  -6.31341e+65   2.76095e+66
   2.44021e+60   4.19899e+58  -1.22644e+60  -4.17678e+66 -2.28058e+133 -1.87569e+199   6.34439e+66   9.00371e+65   1.10718e+66  -6.18433e+66   -9.1363e+63  -1.60403e+65   3.37068e+66
   2.44358e+60   2.08745e+58  -1.23711e+60  -3.83482e+66 -1.99678e+133  -1.6606e+199   5.88843e+66   9.03586e+65   1.17988e+66  -5.91828e+66  -6.64688e+64   1.70553e+65   2.94447e+66
   2.97086e+60   1.38152e+58  -1.29112e+60  -9.33034e+66  7.80467e+132 -1.35784e+198   8.90228e+66  -1.59335e+66  -6.50374e+65  -7.08662e+66   5.27549e+64   7.38803e+64   3.02056e+66
    2.9745e+60   2.79254e+58  -1.28249e+60  -9.69373e+66   6.5192e+132  4.00066e+197   9.35143e+66  -1.60888e+66   -7.2763e+65  -7.35722e+66  -1.29164e+65  -2.57076e+65   3.42913e+66
   2.46177e+60   2.28439e+58  -1.70206e+60  -2.96379e+66 -1.83528e+133 -1.75356e+199    5.2093e+66   1.08877e+66   1.52838e+66  -5.58093e+66   3.93939e+64  -4.58252e+65   2.28018e+66
   2.46291e+60   1.46479e+46  -1.70391e+60  -3.02998e+66 -1.77579e+133 -1.64672e+199   5.19025e+66   1.06015e+66   1.51431e+66  -5.60445e+66  -5.36469e+64   8.74402e+64   2.21909e+66
   2.97389e+60   7.80526e+45  -1.75641e+60  -9.68818e+66  1.52257e+133 -6.50204e+198   8.86765e+66  -1.67562e+66  -9.92598e+65  -7.01997e+66   5.17866e+64   9.21595e+64   2.27093e+66
   2.97499e+60   1.12934e+58  -1.75446e+60  -9.64503e+66  1.43798e+133 -5.45416e+198    8.8683e+66  -1.66025e+66  -9.83423e+65  -7.00135e+66  -6.73528e+64  -4.53532e+65   2.35626e+66
   2.44358e+60   2.08745e+58  -1.23711e+60  -3.89765e+66 -1.97583e+133 -1.60243e+199   5.91185e+66   8.90228e+65   1.14376e+66  -5.93164e+66    3.2125e+64  -2.01719e+65   2.94447e+66
   2.44487e+60  -4.45362e+45   -1.2399e+60  -3.82993e+66 -1.93201e+133 -1.57005e+199   5.82996e+66   8.90086e+65   1.15816e+66  -5.87818e+66  -6.09159e+64   1.31793e+65   2.87922e+66
   2.96983e+60  -1.29797e+46  -1.29349e+60  -9.31653e+66  8.47691e+132 -1.72503e+198   8.84991e+66   -1.5966e+66  -6.75306e+65  -7.04462e+66     4.869e+64   1.12261e+65   2.93105e+66
   2.97086e+60   1.38152e+58  -1.29112e+60  -9.40728e+66  8.30786e+132 -1.39627e+198   8.95484e+66  -1.60971e+66    -6.946e+65  -7.10298e+66  -7.04494e+64  -2.21251e+65   3.02056e+66
   2.46291e+60   1.46479e+46  -1.70391e+60  -3.02998e+66 -1.77579e+133 -1.64672e+199   5.19025e+66   1.06015e+66   1.51431e+66  -5.60445e+66   5.36469e+64  -8.74402e+64   2.21909e+66
   2.46177e+60  -2.28439e+58  -1.70206e+60  -2.96379e+66 -1.83528e+133 -1.75356e+199    5.2093e+66   1.08877e+66   1.52838e+66  -5.58093e+66  -3.93939e+64   4.58252e+65   2.28018e+66
   2.97499e+60  -1.12934e+58  -1.75446e+60  -9.64503e+66  1.43798e+133 -5.45416e+198    8.8683e+66  -1.66025e+66  -9.83423e+65  -7.00135e+66   6.73528e+64   4.53532e+65   2.35626e+66
   2.97389e+60   7.80526e+45  -1.75641e+60  -9.68818e+66  1.52257e+133 -6.50204e+198   8.86765e+66  -1.67562e+66  -9.92598e+65  -7.01997e+66  -5.17866e+64  -9.21595e+64   2.27093e+66
   2.44487e+60  -4.45362e+45   -1.2399e+60  -3.82993e+66 -1.93201e+133 -1.57005e+199   5.82996e+66   8.90086e+65   1.15816e+66  -5.87818e+66   6.09159e+64  -1.31793e+65   2.87922e+66
   2.44358e+60  -2.08745e+58  -1.23711e+60  -3.89765e+66 -1.97583e+133 -1.60243e+199   5.91185e+66   8.90228e+65   1.14376e+66  -5.93164e+66   -3.2125e+64   2.01719e+65   2.94447e+66
   2.97086e+60  -1.38152e+58  -1.29112e+60  -9.40728e+66  8.30786e+132 -1.39627e+198   8.95484e+66  -1.60971e+66    -6.946e+65  -7.10298e+66   7.04494e+64   2.21251e+65   3.02056e+66
   2.96983e+60  -1.29797e+46  -1.29349e+60  -9.31653e+66  8.47691e+132 -1.72503e+198   8.84991e+66   -1.5966e+66  -6.75306e+65  -7.04462e+66    -4.869e+64  -1.12261e+65   2.93105e+66
   2.46177e+60  -2.28439e+58  -1.70206e+60  -3.09813e+66  -1.7752e+133 -1.61803e+199   5.22976e+66   1.06021e+66   1.45116e+66  -5.60949e+66    3.1726e+64  -5.31766e+64   2.28018e+66
   2.45913e+60  -4.51728e+58  -1.68939e+60  -3.53748e+66 -2.03648e+133 -1.86069e+199   5.73398e+66   1.03629e+66   1.35776e+66  -5.93152e+66  -2.56065e+64   5.17031e+65    2.7025e+66
   2.97928e+60   -2.1553e+58   -1.7442e+60  -1.03755e+67  1.62211e+133  -5.4765e+198   9.56191e+66  -1.75382e+66  -1.23641e+66  -7.38528e+66   9.83014e+64   6.31341e+65   2.76095e+66
   2.97499e+60  -1.12934e+58  -1.75446e+60  -9.91474e+66  1.65526e+133 -7.45019e+198   9.04153e+66  -1.71759e+66  -1.13845e+66  -7.05869e+66  -8.36172e+64   6.11334e+64   2.35626e+66
   2.44358e+60  -2.08745e+58  -1.23711e+60  -3.83482e+66 -1.99678e+133  -1.6606e+199   5.88843e+66   9.03586e+65   1.17988e+66  -5.91828e+66   6.64688e+64  -1.70553e+65   2.94447e+66
   2.44021e+60  -4.19899e+58  -1.22644e+60  -4.17678e+66 -2.28058e+133 -1.87569e+199   6.34439e+66   9.00371e+65   1.10718e+66  -6.18433e+66    9.1363e+63   1.60403e+65   3.37068e+66
    2.9745e+60  -2.79254e+58  -1.28249e+60  -9.69373e+66   6.5192e+132  4.00066e+197   9.35143e+66  -1.60888e+66   -7.2763e+65  -7.35722e+66   1.29164e+65   2.57076e+65   3.42913e+66
   2.97086e+60  -1.38152e+58  -1.29112e+60  -9.33034e+66  7.80467e+132 -1.35784e+198   8.90228e+66  -1.59335e+66  -6.50374e+65  -7.08662e+66  -5.27549e+64  -7.38803e+64   3.02056e+66
   2.97928e+60    2.1553e+58   -1.7442e+60  -1.68679e+65 -3.64221e+132 -2.32103e+198    1.9159e+66   4.16132e+65   9.33544e+65  -1.51836e+66  -9.83014e+64  -2.39541e+65    1.3836e+66
   2.97499e+60   1.12934e+58  -1.75446e+60   1.86779e+65 -2.67715e+132 -1.82188e+198   1.64683e+66   4.29977e+65   1.00911e+66  -1.25231e+66   8.36172e+64    1.0541e+65   1.13611e+66
   3.46238e+60   3.26811e+57  -1.76813e+60  -4.02957e+66  2.24055e+132  -1.1065e+197   3.74124e+66  -1.30369e+66  -5.77177e+65   -2.1487e+66   1.33559e+65   1.01737e+64   1.59229e+66
   3.47028e+60   6.22619e+57  -1.75989e+60  -4.66883e+66   3.0663e+132  9.88371e+196   4.32801e+66  -1.48067e+66  -7.13084e+65  -2.47508e+66  -1.30131e+65  -3.34777e+65    1.8139e+66
    2.9745e+60   2.79254e+58  -1.28249e+60  -1.54018e+66 -6.35917e+132  -3.6927e+198   2.95488e+66   1.24553e+65    1.0058e+66  -2.67054e+66  -1.29164e+65  -1.14552e+65   1.85364e+66
   2.97086e+60   1.38152e+58  -1.29112e+60  -1.32763e+66 -5.21063e+132 -2.79389e+198   2.64068e+66   1.08017e+65   1.05099e+66  -2.48663e+66   5.27549e+64   1.48627e+65   1.55475e+66
   3.46711e+60   8.33802e+57  -1.31445e+60  -5.09245e+66  2.28242e+132  -1.3461e+197   4.86319e+66  -1.52966e+66  -2.75763e+65  -3.28703e+66   1.54095e+65   7.92704e+64   2.01093e+66
   3.47544e+60   1.68775e+58  -1.30729e+60  -5.58882e+66  2.64266e+132 -7.68392e+196   5.34717e+66  -1.67626e+66   -3.8129e+65  -3.53127e+66  -1.09595e+65  -1.83909e+65   2.28394e+66
   2.97499e+60   1.12934e+58  -1.75446e+60   4.56488e+65 -2.78379e+132 -2.17133e+198   1.72979e+66   4.87317e+65   1.16414e+66  -1.19497e+66  -6.73528e+64  -2.86989e+65   1.13611e+66
   2.97389e+60   7.80526e+45  -1.75641e+60   3.32452e+65 -2.68041e+132 -1.98459e+198   1.67061e+66   4.54754e+65   1.13777e+66  -1.26008e+66   5.17866e+64   9.21595e+64   1.08625e+66
    3.4598e+60  -7.85099e+44  -1.77049e+60   -4.0218e+66  2.40501e+132 -2.02085e+197   3.71078e+66  -1.28979e+66  -5.46231e+65  -2.18578e+66   1.21748e+65   1.11526e+65   1.51175e+66
   3.46238e+60   3.26811e+57  -1.76813e+60  -3.94869e+66  1.93517e+132  1.12348e+197   3.69553e+66  -1.28649e+66  -5.30687e+65  -2.13151e+66  -1.17775e+65  -2.67622e+65   1.59229e+66
   2.97086e+60   1.38152e+58  -1.29112e+60  -1.40457e+66 -5.10074e+132 -2.62203e+198   2.65961e+66   9.16598e+64   1.00676e+66  -2.50299e+66  -7.04494e+64  -1.46504e+65   1.55475e+66
   2.96983e+60  -1.29797e+46  -1.29349e+60  -1.35921e+66 -4.90158e+132 -2.49157e+198   2.59789e+66   9.51102e+64   1.01641e+66  -2.47073e+66     4.869e+64   1.12261e+65   1.49567e+66
    3.4644e+60  -2.41301e+46  -1.31658e+60  -5.04874e+66  2.55158e+132 -2.29608e+197   4.78938e+66  -1.50811e+66  -2.85509e+65  -3.25511e+66   1.27873e+65   1.00949e+65   1.92117e+66
   3.46711e+60   8.33802e+57  -1.31445e+60  -5.14501e+66   2.4814e+132  -1.6729e+197   4.89794e+66  -1.54083e+66  -3.05978e+65  -3.29821e+66   -1.1165e+65  -1.57816e+65   2.01093e+66
   2.97389e+60   7.80526e+45  -1.75641e+60   3.32452e+65 -2.68041e+132 -1.98459e+198   1.67061e+66   4.54754e+65   1.13777e+66  -1.26008e+66  -5.17866e+64  -9.21595e+64   1.08625e+66
   2.97499e+60  -1.12934e+58  -1.75446e+60   4.56488e+65 -2.78379e+132 -2.17133e+198   1.72979e+66   4.87317e+65   1.16414e+66  -1.19497e+66   6.73528e+64   2.86989e+65   1.13611e+66
   3.46238e+60  -3.26811e+57  -1.76813e+60  -3.94869e+66  1.93517e+132  1.12348e+197   3.69553e+66  -1.28649e+66  -5.30687e+65  -2.13151e+66   1.17775e+65   2.67622e+65   1.59229e+66
    3.4598e+60  -7.85099e+44  -1.77049e+60   -4.0218e+66  2.40501e+132 -2.02085e+197   3.71078e+66  -1.28979e+66  -5.46231e+65  -2.18578e+66  -1.21748e+65  -1.11526e+65   1.51175e+66
   2.96983e+60  -1.29797e+46  -1.29349e+60  -1.35921e+66 -4.90158e+132 -2.49157e+198   2.59789e+66   9.51102e+64   1.01641e+66  -2.47073e+66    -4.869e+64  -1.12261e+65   1.49567e+66
   2.97086e+60  -1.38152e+58  -1.29112e+60  -1.40457e+66 -5.10074e+132 -2.62203e+198   2.65961e+66   9.16598e+64   1.00676e+66  -2.50299e+66   7.04494e+64   1.46504e+65   1.55475e+66
   3.46711e+60  -8.33802e+57  -1.31445e+60  -5.14501e+66   2.4814e+132  -1.6729e+197   4.89794e+66  -1.54083e+66  -3.05978e+65  -3.29821e+66    1.1165e+65   1.57816e+65   2.01093e+66
    3.4644e+60  -2.41301e+46  -1.31658e+60  -5.04874e+66  2.55158e+132 -2.29608e+197   4.78938e+66  -1.50811e+66  -2.85509e+65  -3.25511e+66  -1.27873e+65  -1.00949e+65   1.92117e+66
   2.97499e+60  -1.12934e+58  -1.75446e+60   1.86779e+65 -2.67715e+132 -1.82188e+198   1.64683e+66   4.29977e+65   1.00911e+66  -1.25231e+66  -8.36172e+64   -1.0541e+65   1.13611e+66
   2.97928e+60   -2.1553e+58   -1.7442e+60  -1.68679e+65 -3.64221e+132 -2.32103e+198    1.9159e+66   4.16132e+65   9.33544e+65  -1.51836e+66   9.83014e+64   2.39541e+65    1.3836e+66
   3.47028e+60  -6.22619e+57  -1.75989e+60  -4.66883e+66   3.0663e+132  9.88371e+196   4.32801e+66  -1.48067e+66  -7.13084e+65  -2.47508e+66   1.30131e+65   3.34777e+65    1.8139e+66
   3.46238e+60  -3.26811e+57  -1.76813e+60  -4.02957e+66  2.24055e+132  -1.1065e+197   3.74124e+66  -1.30369e+66  -5.77177e+65   -2.1487e+66  -1.33559e+65  -1.01737e+64   1.59229e+66
   2.97086e+60  -1.38152e+58  -1.29112e+60  -1.32763e+66 -5.21063e+132 -2.79389e+198   2.64068e+66   1.08017e+65   1.05099e+66  -2.48663e+66  -5.27549e+64  -1.48627e+65   1.55475e+66
    2.9745e+60  -2.79254e+58  -1.28249e+60  -1.54018e+66 -6.35917e+132  -3.6927e+198   2.95488e+66   1.24553e+65    1.0058e+66  -2.67054e+66   1.29164e+65   1.14552e+65   1.85364e+66
   3.47544e+60  -1.68775e+58  -1.30729e+60  -5.58882e+66  2.64266e+132 -7.68392e+196   5.34717e+66  -1.67626e+66   -3.8129e+65  -3.53127e+66   1.09595e+65   1.83909e+65   2.28394e+66
   3.46711e+60  -8.33802e+57  -1.31445e+60  -5.09245e+66  2.28242e+132  -1.3461e+197   4.86319e+66  -1.52966e+66  -2.75763e+65  -3.28703e+66  -1.54095e+65  -7.92704e+64   2.01093e+66
   3.47028e+60   6.22619e+57  -1.75989e+60  -7.46599e+65 -7.09972e+130  2.00315e+196   7.92721e+65  -6.46808e+65   1.20777e+65  -2.20568e+65  -1.30131e+65  -7.56418e+64   2.93679e+65
   3.46238e+60   3.26811e+57  -1.76813e+60  -4.56574e+65 -1.45985e+131  1.87837e+196   5.95352e+65  -5.44077e+65   1.82436e+65  -9.49329e+64   1.33559e+65   1.27544e+65   2.16683e+65
   3.92065e+60  -2.27286e+57  -1.76811e+60  -3.40184e+65 -1.91119e+131  5.05816e+196   5.53935e+65  -7.08044e+64  -1.99191e+65  -7.01887e+64   1.13492e+65   9.55557e+64   4.49624e+65
   3.92909e+60  -3.61555e+57  -1.76055e+60   -7.7228e+65 -7.03699e+130  7.10155e+196    8.1657e+65  -2.55198e+65  -2.91054e+65  -2.26028e+65  -1.01634e+65   -1.0763e+65   4.96186e+65
   3.47544e+60   1.68775e+58  -1.30729e+60  -4.08762e+65 -5.32162e+131  2.41758e+197    8.3621e+65  -5.74984e+65   7.19982e+65  -5.53759e+65  -1.09595e+65  -1.29717e+65   9.51442e+64
   3.46711e+60   8.33802e+57  -1.31445e+60  -2.86781e+65 -5.42452e+131  2.18516e+197   7.90377e+65  -5.07979e+65   7.45914e+65  -5.24716e+65   1.54095e+65   1.22032e+65  -7.58057e+63
   3.92064e+60   3.76596e+57  -1.31936e+60   -4.3855e+65 -1.76063e+131  2.42845e+196   6.06951e+65  -9.17169e+64   2.10149e+65  -5.56982e+65   1.59758e+65   1.20477e+65    2.2536e+65
   3.93006e+60   6.97678e+57  -1.31223e+60  -7.02601e+65 -9.26914e+130  1.95276e+196   7.65728e+65  -2.40385e+65   1.54012e+65  -6.16229e+65  -5.53686e+64  -1.31272e+65   2.97651e+65
   3.46238e+60   3.26811e+57  -1.76813e+60  -3.75693e+65 -1.80853e+131  1.92699e+196   5.67449e+65  -5.26882e+65   2.28926e+65  -7.77379e+64  -1.17775e+65  -1.50252e+65   2.16683e+65
    3.4598e+60  -7.85099e+44  -1.77049e+60    -3.789e+65 -1.53279e+131  1.57004e+196   5.44834e+65  -5.15314e+65   2.28245e+65  -9.18309e+64   1.21748e+65   1.11526e+65   1.86447e+65
   3.91766e+60  -1.18527e+46  -1.77061e+60  -6.37413e+65   -8.355e+130  7.13086e+196   6.99889e+65  -1.40351e+65  -3.50271e+65   -1.4679e+65   1.41408e+65   1.18232e+65   4.13225e+65
   3.92065e+60  -2.27286e+57  -1.76811e+60  -5.82836e+65 -1.45876e+131  8.70355e+196   6.96831e+65  -1.22392e+65  -3.38668e+65  -1.21776e+65  -1.43891e+65  -1.43547e+65   4.49624e+65
   3.46711e+60   8.33802e+57  -1.31445e+60  -3.39346e+65 -5.02647e+131  2.12432e+197   7.86004e+65  -5.19154e+65     7.157e+65  -5.35892e+65   -1.1165e+65  -1.15054e+65  -7.58057e+63
    3.4644e+60  -2.41301e+46  -1.31658e+60  -3.08526e+65 -5.06437e+131  2.04134e+197   7.75645e+65  -5.00353e+65   7.22252e+65  -5.30426e+65   1.27873e+65   1.00949e+65  -2.85141e+64
   3.91771e+60  -3.62206e+46   -1.3215e+60  -3.14278e+65 -2.04991e+131  1.61085e+196   5.51146e+65  -7.16534e+64   2.89024e+65  -5.31648e+65   1.38229e+65   1.01492e+65   1.98264e+65
   3.92064e+60   3.76596e+57  -1.31936e+60  -2.93729e+65 -2.25726e+131  1.42763e+196   5.58572e+65  -6.09281e+64   2.93393e+65  -5.26194e+65  -1.47069e+65  -1.14511e+65    2.2536e+65
    3.4598e+60  -7.85099e+44  -1.77049e+60    -3.789e+65 -1.53279e+131  1.57004e+196   5.44834e+65  -5.15314e+65   2.28245e+65  -9.18309e+64  -1.21748e+65  -1.11526e+65   1.86447e+65
   3.46238e+60  -3.26811e+57  -1.76813e+60  -3.75693e+65 -1.80853e+131  1.92699e+196   5.67449e+65  -5.26882e+65   2.28926e+65  -7.77379e+64   1.17775e+65   1.50252e+65   2.16683e+65
   3.92065e+60   2.27286e+57  -1.76811e+60  -5.82836e+65 -1.45876e+131  8.70355e+196   6.96831e+65  -1.22392e+65  -3.38668e+65  -1.21776e+65   1.43891e+65   1.43547e+65   4.49624e+65
   3.91766e+60  -1.18527e+46  -1.77061e+60  -6.37413e+65   -8.355e+130  7.13086e+196   6.99889e+65  -1.40351e+65  -3.50271e+65   -1.4679e+65  -1.41408e+65  -1.18232e+65   4.13225e+65
    3.4644e+60  -2.41301e+46  -1.31658e+60  -3.08526e+65 -5.06437e+131  2.04134e+197   7.75645e+65  -5.00353e+65   7.22252e+65  -5.30426e+65  -1.27873e+65  -1.00949e+65  -2.85141e+64
   3.46711e+60  -8.33802e+57  -1.31445e+60  -3.39346e+65 -5.02647e+131  2.12432e+197   7.86004e+65  -5.19154e+65     7.157e+65  -5.35892e+65    1.1165e+65   1.15054e+65  -7.58057e+63
   3.92064e+60  -3.76596e+57  -1.31936e+60  -2.93729e+65 -2.25726e+131  1.42763e+196   5.58572e+65  -6.09281e+64   2.93393e+65  -5.26194e+65   1.47069e+65   1.14511e+65    2.2536e+65
   3.91771e+60  -3.62206e+46   -1.3215e+60  -3.14278e+65 -2.04991e+131  1.61085e+196   5.51146e+65  -7.16534e+64   2.89024e+65  -5.31648e+65  -1.38229e+65  -1.01492e+65   1.98264e+65
   3.46238e+60  -3.26811e+57  -1.76813e+60  -4.56574e+65 -1.45985e+131  1.87837e+196   5.95352e+65  -5.44077e+65   1.82436e+65  -9.49329e+64  -1.33559e+65  -1.27544e+65   2.16683e+65
   3.47028e+60  -6.22619e+57  -1.75989e+60  -7.46599e+65 -7.09972e+130  2.00315e+196   7.92721e+65  -6.46808e+65   1.20777e+65  -2.20568e+65   1.30131e+65   7.56418e+64   2.93679e+65
   3.92909e+60   3.61555e+57  -1.76055e+60   -7.7228e+65 -7.03699e+130  7.10155e+196    8.1657e+65  -2.55198e+65  -2.91054e+65  -2.26028e+65   1.01634e+65    1.0763e+65   4.96186e+65
   3.92065e+60   2.27286e+57  -1.76811e+60  -3.40184e+65 -1.91119e+131  5.05816e+196   5.53935e+65  -7.08044e+64  -1.99191e+65  -7.01887e+64  -1.13492e+65  -9.55557e+64   4.49624e+65
   3.46711e+60  -8.33802e+57  -1.31445e+60  -2.86781e+65 -5.42452e+131  2.18516e+197   7.90377e+65  -5.07979e+65   7.45914e+65  -5.24716e+65  -1.54095e+65  -1.22032e+65  -7.58057e+63
   3.47544e+60  -1.68775e+58  -1.30729e+60  -4.08762e+65 -5.32162e+131  2.41758e+197    8.3621e+65  -5.74984e+65   7.19982e+65  -5.53759e+65   1.09595e+65   1.29717e+65   9.51442e+64
   3.93006e+60  -6.97678e+57  -1.31223e+60  -7.02601e+65 -9.26914e+130  1.95276e+196   7.65728e+65  -2.40385e+65   1.54012e+65  -6.16229e+65   5.53686e+64   1.31272e+65   2.97651e+65
   3.92064e+60  -3.76596e+57  -1.31936e+60   -4.3855e+65 -1.76063e+131  2.42845e+196   6.06951e+65  -9.17169e+64   2.10149e+65  -5.56982e+65  -1.59758e+65  -1.20477e+65    2.2536e+65
  -2.89235e+58   1.75054e+59   1.69436e+60   4.38284e+68  4.17845e+135 -1.69823e+204   4.33491e+68   2.91832e+68   7.71413e+67   6.93105e+67  -2.73747e+67   1.51651e+67  -2.07191e+68
   5.26853e+59   5.32848e+57   2.09334e+60   -6.7957e+65 -2.55904e+135  4.26482e+202   5.05915e+67  -3.64266e+67  -1.61816e+67   5.19286e+67   2.38946e+66   1.52591e+67   1.33438e+67
   1.91004e+59   8.13238e+58   1.54223e+60   8.99066e+67  2.13242e+134 -4.78921e+202   8.87127e+67   1.58307e+67   2.88876e+66   7.11871e+67   2.53623e+67  -2.27114e+67  -2.45337e+66
  -3.24679e+59   2.53041e+59   1.94696e+60  -2.45059e+68  1.89021e+136 -4.41619e+203    2.0286e+68  -1.00768e+68  -6.83244e+67  -7.59671e+67   1.50397e+67  -2.28054e+67   -9.0558e+66
  -2.13134e+60   1.31026e+60   6.37566e+60   1.36799e+69  4.29871e+137  3.80258e+205   1.20063e+69   4.89485e+68   2.15266e+68   6.63235e+68   9.00931e+67  -1.59167e+68  -3.30852e+68
   9.10839e+59   5.10528e+59   2.14675e+60  -2.52257e+68 -2.82442e+136   1.7944e+204   3.03113e+68  -8.99116e+67  -1.29195e+68  -3.31506e+67   1.19857e+68  -1.78515e+68   2.98432e+67
   2.25752e+59   6.01701e+58   1.93001e+60  -5.43199e+67 -5.76646e+133  1.58074e+202   5.48481e+67  -1.48316e+67  -4.84188e+67   8.93052e+66   2.66974e+66  -2.55247e+66   1.40461e+67
   1.90396e+59   4.50383e+59    2.4344e+60   7.91994e+68   1.3364e+137  6.16553e+204   7.02578e+68   1.19708e+68   1.31506e+68    5.4078e+68  -7.65287e+66    1.6795e+67  -1.32717e+68
   5.26853e+59   5.32848e+57   2.09334e+60   4.22067e+67 -1.99762e+135 -9.58178e+201   6.14738e+67  -2.73091e+67   8.46961e+66   6.10462e+67  -1.12722e+67  -1.76388e+67   1.33438e+67
   7.93457e+59   -9.0508e+46   1.79598e+60   9.39475e+67  2.12148e+135  9.41466e+201   8.18819e+67   1.91164e+67   1.94696e+67   5.53615e+67   1.25955e+67  -1.40485e+67  -5.55709e+66
   3.26965e+59  -5.42361e+46   1.42145e+60   2.96747e+67 -6.91607e+134 -1.42222e+201   3.96509e+67  -1.06471e+67  -1.37534e+66   4.16972e+67   6.42336e+66   -5.7061e+66   1.14511e+67
   1.91004e+59   8.13238e+58   1.54223e+60   1.13487e+68  3.03649e+135  2.03566e+202   9.92114e+67   2.08439e+67   1.64431e+67   7.62004e+67   7.42274e+66  -9.29643e+66  -2.45337e+66
   9.10839e+59   5.10528e+59   2.14675e+60  -1.76812e+68  6.29892e+135  3.51983e+201   1.57999e+68  -7.38721e+67  -8.58289e+67  -1.71111e+67   -2.8985e+67   3.23013e+67   2.98432e+67
   8.02524e+59   -1.0738e+47    2.3801e+60   5.60712e+67 -2.78851e+135 -2.78936e+202   7.70226e+67    1.1064e+67  -3.63183e+67   8.13254e+67  -5.11728e+66   1.10245e+67  -1.36067e+67
   5.06415e+59  -6.58112e+46   1.64556e+60   1.29108e+68  2.98435e+135  1.72801e+201   1.16981e+68   1.04922e+67   2.17628e+67    9.6853e+67   1.32597e+67  -1.34385e+67    3.4015e+66
   2.25752e+59   6.01701e+58   1.93001e+60   3.17781e+67 -3.34597e+134 -2.72097e+201   3.66667e+67   3.47268e+66   1.07061e+66   2.72348e+67   1.42591e+67   7.83828e+66   1.40461e+67
   7.93457e+59   -9.0508e+46   1.79598e+60   9.39475e+67  2.12148e+135  9.41466e+201   8.18819e+67   1.91164e+67   1.94696e+67   5.53615e+67  -1.25955e+67   1.40485e+67  -5.55709e+66
   5.26853e+59  -5.32848e+57   2.09334e+60   4.22067e+67 -1.99762e+135 -9.58178e+201   6.14738e+67  -2.73091e+67   8.46961e+66   6.10462e+67   1.12722e+67   1.76388e+67   1.33438e+67
   1.91004e+59  -8.13238e+58   1.54223e+60   1.13487e+68  3.03649e+135  2.03566e+202   9.92114e+67   2.08439e+67   1.64431e+67   7.62004e+67  -7.42274e+66   9.29643e+66  -2.45337e+66
   3.26965e+59  -5.42361e+46   1.42145e+60   2.96747e+67 -6.91607e+134 -1.42222e+201   3.96509e+67  -1.06471e+67  -1.37534e+66   4.16972e+67  -6.42336e+66    5.7061e+66   1.14511e+67
   8.02524e+59   -1.0738e+47    2.3801e+60   5.60712e+67 -2.78851e+135 -2.78936e+202   7.70226e+67    1.1064e+67  -3.63183e+67   8.13254e+67   5.11728e+66  -1.10245e+67  -1.36067e+67
   9.10839e+59  -5.10528e+59   2.14675e+60  -1.76812e+68  6.29892e+135  3.51983e+201   1.57999e+68  -7.38721e+67  -8.58289e+67  -1.71111e+67    2.8985e+67  -3.23013e+67   2.98432e+67
   2.25752e+59  -6.01701e+58   1.93001e+60   3.17781e+67 -3.34597e+134 -2.72097e+201   3.66667e+67   3.47268e+66   1.07061e+66   2.72348e+67  -1.42591e+67  -7.83828e+66   1.40461e+67
   5.06415e+59  -6.58112e+46   1.64556e+60   1.29108e+68  2.98435e+135  1.72801e+201   1.16981e+68   1.04922e+67   2.17628e+67    9.6853e+67  -1.32597e+67   1.34385e+67    3.4015e+66
   5.26853e+59  -5.32848e+57   2.09334e+60   -6.7957e+65 -2.55904e+135  4.26482e+202   5.05915e+67  -3.64266e+67  -1.61816e+67   5.19286e+67  -2.38946e+66  -1.52591e+67   1.33438e+67
  -2.89235e+58  -1.75054e+59   1.69436e+60   4.38284e+68  4.17845e+135 -1.69823e+204   4.33491e+68   2.91832e+68   7.71413e+67   6.93105e+67   2.73747e+67  -1.51651e+67  -2.07191e+68
  -3.24679e+59  -2.53041e+59   1.94696e+60  -2.45059e+68  1.89021e+136 -4.41619e+203    2.0286e+68  -1.00768e+68  -6.83244e+67  -7.59671e+67  -1.50397e+67   2.28054e+67   -9.0558e+66
   1.91004e+59  -8.13238e+58   1.54223e+60   8.99066e+67  2.13242e+134 -4.78921e+202   8.87127e+67   1.58307e+67   2.88876e+66   7.11871e+67  -2.53623e+67   2.27114e+67  -2.45337e+66
   9.10839e+59  -5.10528e+59   2.14675e+60  -2.52257e+68 -2.82442e+136   1.7944e+204   3.03113e+68  -8.99116e+67  -1.29195e+68  -3.31506e+67  -1.19857e+68   1.78515e+68   2.98432e+67
  -2.13134e+60  -1.31026e+60   6.37566e+60   1.36799e+69  4.29871e+137  3.80258e+205   1.20063e+69   4.89485e+68   2.15266e+68   6.63235e+68  -9.00931e+67   1.59167e+68  -3.30852e+68
   1.90396e+59  -4.50383e+59    2.4344e+60   7.91994e+68   1.3364e+137  6.16553e+204   7.02578e+68   1.19708e+68   1.31506e+68    5.4078e+68   7.65287e+66   -1.6795e+67  -1.32717e+68
   2.25752e+59  -6.01701e+58   1.93001e+60  -5.43199e+67 -5.76646e+133  1.58074e+202   5.48481e+67  -1.48316e+67  -4.84188e+67   8.93052e+66  -2.66974e+66   2.55247e+66   1.40461e+67
  -3.24679e+59   2.53041e+59   1.94696e+60   3.10299e+67  -6.0406e+135  6.85344e+202   8.36867e+67  -4.20716e+67  -9.62831e+66   8.27298e+67   1.50397e+67  -1.92755e+67  -3.96336e+67
   1.91004e+59   8.13238e+58   1.54223e+60   7.75642e+67 -3.12904e+134 -3.36721e+202   7.95557e+67   1.32067e+67    2.6479e+65   6.40927e+67   2.53623e+67  -1.94806e+67  -1.25333e+67
    6.8513e+58   8.89351e+58   1.03844e+60    4.1026e+67 -8.33226e+134  3.49908e+201   5.01633e+67  -8.20577e+66  -7.09295e+66   5.63247e+67  -4.54965e+65   -5.2155e+66  -1.52467e+66
   2.67969e+58   2.56311e+59   1.14122e+60    1.3546e+68  2.87198e+135  1.64048e+202   1.24409e+68   1.75452e+67   1.29837e+67   1.04932e+68  -4.50363e+65  -5.01039e+66  -2.31075e+67
   1.90396e+59   4.50383e+59    2.4344e+60   6.52842e+67 -7.09911e+135  1.05972e+203   1.06589e+68  -3.47892e+67  -2.29911e+67   1.23065e+68  -7.65287e+66  -1.70817e+67  -2.09261e+67
   2.25752e+59   6.01701e+58   1.93001e+60   8.13522e+67  -1.9021e+135 -2.49565e+202   9.23054e+67   1.40121e+67  -1.95751e+67   8.69153e+67   2.66974e+66   -2.7614e+67  -1.93556e+67
   2.47666e+59   1.40281e+59    1.1932e+60   1.01838e+68  8.55442e+134  1.61606e+201   9.75478e+67   4.72281e+66   5.84484e+66   9.12705e+67    2.3822e+66  -7.83138e+66  -8.34694e+66
   1.45896e+59   3.07559e+59   1.27885e+60   2.26739e+68  1.20797e+136  1.86569e+203    1.9832e+68   3.69508e+67   3.23985e+67    1.5739e+68    2.3868e+66   2.70095e+66  -4.39997e+66
   1.91004e+59   8.13238e+58   1.54223e+60   1.01145e+68   2.2169e+135  1.18797e+202   8.95177e+67     1.822e+67   1.38191e+67   6.91059e+67   7.42274e+66  -6.06568e+66  -1.25333e+67
   3.26965e+59  -5.42361e+46   1.42145e+60    5.5185e+67 -1.63047e+134 -3.25544e+201    5.6643e+67  -5.22367e+66   4.04811e+66   5.63606e+67   6.42336e+66   -5.7061e+66  -1.35168e+66
   1.31465e+59  -2.65682e+46   9.49138e+59   6.39013e+67    3.069e+134 -3.82828e+200   6.14531e+67   5.05676e+65   5.18201e+66   5.82137e+67   2.97413e+66  -4.21894e+66   4.19676e+65
    6.8513e+58   8.89351e+58   1.03844e+60   6.14887e+67  7.77842e+132 -1.03285e+201   6.14254e+67  -3.85544e+66   4.66908e+66    6.0675e+67    5.4833e+65  -4.57853e+66  -1.52467e+66
   2.25752e+59   6.01701e+58   1.93001e+60    1.6745e+68     6.64e+135  6.90381e+202   1.46286e+68   3.23163e+67   2.99143e+67    1.0522e+68   1.42591e+67  -1.72233e+67  -1.93556e+67
   5.06415e+59  -6.58112e+46   1.64556e+60   7.04844e+67  8.77487e+133 -1.21179e+202   6.98591e+67  -1.97105e+66   9.29949e+66   6.31559e+67   1.32597e+67  -1.34385e+67   5.86451e+65
   2.69892e+59  -3.12406e+46   1.13575e+60   6.02877e+67 -5.66314e+133 -6.93032e+199   6.07555e+67  -2.62582e+65  -4.37856e+65   6.09881e+67   1.05004e+66  -2.71406e+66   2.35781e+66
   2.47666e+59   1.40281e+59    1.1932e+60   1.08881e+68  1.44251e+135  4.43166e+201   1.02042e+68   6.22006e+66   9.89298e+66   9.27678e+67  -1.37576e+66  -6.49884e+66  -8.34694e+66
   3.26965e+59  -5.42361e+46   1.42145e+60    5.5185e+67 -1.63047e+134 -3.25544e+201    5.6643e+67  -5.22367e+66   4.04811e+66   5.63606e+67  -6.42336e+66    5.7061e+66  -1.35168e+66
   1.91004e+59  -8.13238e+58   1.54223e+60   1.01145e+68   2.2169e+135  1.18797e+202   8.95177e+67     1.822e+67   1.38191e+67   6.91059e+67  -7.42274e+66   6.06568e+66  -1.25333e+67
    6.8513e+58  -8.89351e+58   1.03844e+60   6.14887e+67  7.77842e+132 -1.03285e+201   6.14254e+67  -3.85544e+66   4.66908e+66    6.0675e+67   -5.4833e+65   4.57853e+66  -1.52467e+66
   1.31465e+59  -2.65682e+46   9.49138e+59   6.39013e+67    3.069e+134 -3.82828e+200   6.14531e+67   5.05676e+65   5.18201e+66   5.82137e+67  -2.97413e+66   4.21894e+66   4.19676e+65
   5.06415e+59  -6.58112e+46   1.64556e+60   7.04844e+67  8.77487e+133 -1.21179e+202   6.98591e+67  -1.97105e+66   9.29949e+66   6.31559e+67  -1.32597e+67   1.34385e+67   5.86451e+65
   2.25752e+59  -6.01701e+58   1.93001e+60    1.6745e+68     6.64e+135  6.90381e+202   1.46286e+68   3.23163e+67   2.99143e+67    1.0522e+68  -1.42591e+67   1.72233e+67  -1.93556e+67
   2.47666e+59  -1.40281e+59    1.1932e+60   1.08881e+68  1.44251e+135  4.43166e+201   1.02042e+68   6.22006e+66   9.89298e+66   9.27678e+67   1.37576e+66   6.49884e+66  -8.34694e+66
   2.69892e+59  -3.12406e+46   1.13575e+60   6.02877e+67 -5.66314e+133 -6.93032e+199   6.07555e+67  -2.62582e+65  -4.37856e+65   6.09881e+67  -1.05004e+66   2.71406e+66   2.35781e+66
   1.91004e+59  -8.13238e+58   1.54223e+60   7.75642e+67 -3.12904e+134 -3.36721e+202   7.95557e+67   1.32067e+67    2.6479e+65   6.40927e+67  -2.53623e+67   1.94806e+67  -1.25333e+67
  -3.24679e+59  -2.53041e+59   1.94696e+60   3.10299e+67  -6.0406e+135  6.85344e+202   8.36867e+67  -4.20716e+67  -9.62831e+66   8.27298e+67  -1.50397e+67   1.92755e+67  -3.96336e+67
   2.67969e+58  -2.56311e+59   1.14122e+60    1.3546e+68  2.87198e+135  1.64048e+202   1.24409e+68   1.75452e+67   1.29837e+67   1.04932e+68   4.50363e+65   5.01039e+66  -2.31075e+67
    6.8513e+58  -8.89351e+58   1.03844e+60    4.1026e+67 -8.33226e+134  3.49908e+201   5.01633e+67  -8.20577e+66  -7.09295e+66   5.63247e+67   4.54965e+65    5.2155e+66  -1.52467e+66
   2.25752e+59  -6.01701e+58   1.93001e+60   8.13522e+67  -1.9021e+135 -2.49565e+202   9.23054e+67   1.40121e+67  -1.95751e+67   8.69153e+67  -2.66974e+66    2.7614e+67  -1.93556e+67
   1.90396e+59  -4.50383e+59    2.4344e+60   6.52842e+67 -7.09911e+135  1.05972e+203   1.06589e+68  -3.47892e+67  -2.29911e+67   1.23065e+68   7.65287e+66   1.70817e+67  -2.09261e+67
   1.45896e+59  -3.07559e+59   1.27885e+60   2.26739e+68  1.20797e+136  1.86569e+203    1.9832e+68   3.69508e+67   3.23985e+67    1.5739e+68   -2.3868e+66  -2.70095e+66  -4.39997e+66
   2.47666e+59  -1.40281e+59    1.1932e+60   1.01838e+68  8.55442e+134  1.61606e+201   9.75478e+67   4.72281e+66   5.84484e+66   9.12705e+67   -2.3822e+66   7.83138e+66  -8.34694e+66
   2.67969e+58   2.56311e+59   1.14122e+60    8.3776e+67  6.13023e+134  7.96423e+200   8.00337e+67   6.55714e+66   1.99563e+66   7.52232e+67  -4.50363e+65  -3.85811e+66  -5.32371e+66
    6.8513e+58   8.89351e+58   1.03844e+60   6.01978e+67 -5.23741e+134  9.90243e+200   6.44012e+67  -4.12987e+66  -3.01704e+66   6.73447e+67  -4.54965e+65   -4.6897e+66  -5.71783e+66
   3.47772e+58    8.5417e+58   4.61152e+59   6.88263e+67 -4.46694e+133 -5.30656e+199     6.915e+67  -8.33376e+65   4.80531e+65   6.91791e+67   8.11614e+65  -3.25681e+66  -2.93154e+66
   1.84951e+57   2.35191e+59   5.33606e+59   7.26659e+67 -3.40963e+133 -1.47073e+200   7.29002e+67  -1.49212e+66   1.29683e+66   7.28612e+67   6.17461e+64  -2.42523e+66  -3.47085e+66
   1.45896e+59   3.07559e+59   1.27885e+60   9.40324e+67  1.00784e+135   2.2683e+201   8.85113e+67   8.73764e+66   4.18534e+66   8.11094e+67    2.3868e+66   -2.1215e+66  -8.16735e+66
   2.47666e+59   1.40281e+59    1.1932e+60   7.56083e+67 -8.01945e+133 -4.00159e+200   7.61368e+67  -8.53616e+65   2.68414e+65   7.61936e+67    2.3822e+66  -2.19861e+66  -4.98678e+66
   1.98456e+59   1.01166e+59   5.56939e+59   8.00708e+67  2.20317e+134  1.53731e+200    7.8683e+67    1.5572e+66   1.37137e+66   7.71423e+67    7.4092e+64  -1.69914e+66   -2.2005e+66
   1.81139e+59   2.66811e+59   6.32019e+59   7.87564e+67  2.64801e+133 -1.09193e+200   7.85881e+67  -1.97302e+65   1.09191e+66   7.78618e+67  -6.75776e+65  -1.62203e+66  -6.31449e+66
    6.8513e+58   8.89351e+58   1.03844e+60   8.06605e+67  5.95288e+134 -1.47441e+200   7.68819e+67    2.2047e+65   8.74499e+66   7.16951e+67    5.4833e+65  -4.05273e+66  -5.71783e+66
   1.31465e+59  -2.65682e+46   9.49138e+59   7.18722e+67  5.37041e+134  3.24308e+200   6.80336e+67   2.20026e+66    6.8766e+66   6.27953e+67   2.97413e+66  -4.21894e+66  -4.62913e+66
   4.28324e+58  -7.80145e+45   4.46266e+59   6.45138e+67  1.86637e+134 -8.25941e+200   6.30508e+67  -2.36175e+66   5.64465e+66   6.12309e+67   3.80557e+65  -7.03259e+65  -6.38206e+65
   3.47772e+58    8.5417e+58   4.61152e+59    8.5615e+67  9.54724e+134  1.91771e+201   7.98448e+67   2.73587e+66   1.01307e+67   7.27484e+67   -3.6347e+65  -5.37049e+65  -2.93154e+66
   2.47666e+59   1.40281e+59    1.1932e+60    8.2651e+67  3.60629e+134 -5.09084e+199   8.04398e+67    6.4364e+65   4.31655e+66   7.76908e+67  -1.37576e+66  -8.66075e+65  -4.98678e+66
   2.69892e+59  -3.12406e+46   1.13575e+60   8.05144e+67   5.4322e+134  9.12464e+200   7.70671e+67   4.03758e+66   3.86231e+66   7.26145e+67   1.05004e+66  -2.71406e+66  -6.12795e+66
   2.12984e+59  -9.68961e+45   5.48408e+59   8.24424e+67  6.94095e+134  7.73771e+200   7.81195e+67   1.44983e+66   7.96817e+66   7.30244e+67   6.86333e+65  -4.03021e+65  -2.13703e+66
   1.98456e+59   1.01166e+59   5.56939e+59   9.68917e+67  1.35523e+135   4.5104e+201   8.96258e+67    5.1333e+66   1.10401e+67   8.07184e+67  -5.76934e+64   1.44496e+66   -2.2005e+66
   1.31465e+59  -2.65682e+46   9.49138e+59   7.18722e+67  5.37041e+134  3.24308e+200   6.80336e+67   2.20026e+66    6.8766e+66   6.27953e+67  -2.97413e+66   4.21894e+66  -4.62913e+66
    6.8513e+58  -8.89351e+58   1.03844e+60   8.06605e+67  5.95288e+134 -1.47441e+200   7.68819e+67    2.2047e+65   8.74499e+66   7.16951e+67   -5.4833e+65   4.05273e+66  -5.71783e+66
   3.47772e+58   -8.5417e+58   4.61152e+59    8.5615e+67  9.54724e+134  1.91771e+201   7.98448e+67   2.73587e+66   1.01307e+67   7.27484e+67    3.6347e+65   5.37049e+65  -2.93154e+66
   4.28324e+58  -7.80145e+45   4.46266e+59   6.45138e+67  1.86637e+134 -8.25941e+200   6.30508e+67  -2.36175e+66   5.64465e+66   6.12309e+67  -3.80557e+65   7.03259e+65  -6.38206e+65
   2.69892e+59  -3.12406e+46   1.13575e+60   8.05144e+67   5.4322e+134  9.12464e+200   7.70671e+67   4.03758e+66   3.86231e+66   7.26145e+67  -1.05004e+66   2.71406e+66  -6.12795e+66
   2.47666e+59  -1.40281e+59    1.1932e+60    8.2651e+67  3.60629e+134 -5.09084e+199   8.04398e+67    6.4364e+65   4.31655e+66   7.76908e+67   1.37576e+66   8.66075e+65  -4.98678e+66
   1.98456e+59  -1.01166e+59   5.56939e+59   9.68917e+67  1.35523e+135   4.5104e+201   8.96258e+67    5.1333e+66   1.10401e+67   8.07184e+67   5.76934e+64  -1.44496e+66   -2.2005e+66
   2.12984e+59  -9.68961e+45   5.48408e+59   8.24424e+67  6.94095e+134  7.73771e+200   7.81195e+67   1.44983e+66   7.96817e+66   7.30244e+67  -6.86333e+65   4.03021e+65  -2.13703e+66
    6.8513e+58  -8.89351e+58   1.03844e+60   6.01978e+67 -5.23741e+134  9.90243e+200   6.44012e+67  -4.12987e+66  -3.01704e+66   6.73447e+67   4.54965e+65    4.6897e+66  -5.71783e+66
   2.67969e+58  -2.56311e+59   1.14122e+60    8.3776e+67  6.13023e+134  7.96423e+200   8.00337e+67   6.55714e+66   1.99563e+66   7.52232e+67   4.50363e+65   3.85811e+66  -5.32371e+66
   1.84951e+57  -2.35191e+59   5.33606e+59   7.26659e+67 -3.40963e+133 -1.47073e+200   7.29002e+67  -1.49212e+66   1.29683e+66   7.28612e+67  -6.17461e+64   2.42523e+66  -3.47085e+66
   3.47772e+58   -8.5417e+58   4.61152e+59   6.88263e+67 -4.46694e+133 -5.30656e+199     6.915e+67  -8.33376e+65   4.80531e+65   6.91791e+67  -8.11614e+65   3.25681e+66  -2.93154e+66
   2.47666e+59  -1.40281e+59    1.1932e+60   7.56083e+67 -8.01945e+133 -4.00159e+200   7.61368e+67  -8.53616e+65   2.68414e+65   7.61936e+67   -2.3822e+66   2.19861e+66  -4.98678e+66
   1.45896e+59  -3.07559e+59   1.27885e+60   9.40324e+67  1.00784e+135   2.2683e+201   8.85113e+67   8.73764e+66   4.18534e+66   8.11094e+67   -2.3868e+66    2.1215e+66  -8.16735e+66
   1.81139e+59  -2.66811e+59   6.32019e+59   7.87564e+67  2.64801e+133 -1.09193e+200   7.85881e+67  -1.97302e+65   1.09191e+66   7.78618e+67   6.75776e+65   1.62203e+66  -6.31449e+66
   1.98456e+59  -1.01166e+59   5.56939e+59   8.00708e+67  2.20317e+134  1.53731e+200    7.8683e+67    1.5572e+66   1.37137e+66   7.71423e+67   -7.4092e+64   1.69914e+66   -2.2005e+66
   1.84951e+57   2.35191e+59   5.33606e+59   5.33589e+67 -5.83308e+134  1.35529e+201   5.85703e+67  -5.59677e+66  -2.80782e+66   6.17635e+67   6.17461e+64   7.68834e+66  -4.56209e+66
   3.47772e+58    8.5417e+58   4.61152e+59   3.85302e+67 -6.51073e+134  2.25966e+201   4.62131e+67  -7.27427e+66  -5.96036e+66   5.17649e+67   8.11614e+65   6.12425e+65  -2.88234e+66
           255            -5           -50     1.203e+68   4.1722e+135   4.4746e+202   1.01489e+68   2.55757e+67   2.55757e+67   6.91491e+67  -1.64536e+52   4.03545e+66   1.64302e+66
           255           -10           -50   1.39202e+68  5.48818e+135  6.64223e+202   1.17851e+68    2.9594e+67    2.9594e+67   8.00135e+67   1.63885e+52   1.11114e+67   8.73785e+64
   1.81139e+59   2.66811e+59   6.32019e+59   7.48914e+67 -1.54692e+134 -2.37398e+199   7.59172e+67  -1.01898e+66   2.70235e+65   7.56402e+67  -6.75776e+65   9.05813e+66    3.9083e+66
   1.98456e+59   1.01166e+59   5.56939e+59   5.93775e+67 -3.99461e+134  6.37614e+200    6.2651e+67  -2.84217e+66    -3.028e+66   6.52477e+67    7.4092e+64   1.23234e+66   4.85053e+66
           250            -5           -50   1.45288e+68  6.00238e+135  7.62558e+202   1.22908e+68   3.08881e+67   3.08881e+67   8.35122e+67  -1.80759e+52   4.77947e+66   9.37589e+66
           250           -10           -50   1.64875e+68  7.64033e+135  1.08303e+203   1.39797e+68   3.50521e+67   3.50521e+67   9.47705e+67   1.72355e+52   1.26053e+67   8.55777e+66
   3.47772e+58    8.5417e+58   4.61152e+59   5.53189e+67 -3.40559e+133 -7.46309e+200   5.56259e+67  -3.70502e+66   3.68982e+66   5.53341e+67   -3.6347e+65   3.33219e+66  -2.88234e+66
   4.28324e+58  -7.80145e+45   4.46266e+59   4.97473e+67  -1.8028e+134 -7.49986e+200   5.15274e+67   -5.5011e+66    2.5053e+66   5.27431e+67   3.80557e+65  -7.03259e+65  -2.80202e+66
           255             0           -50   1.16417e+68  3.92088e+135  4.08899e+202   9.81432e+67   2.47501e+67   2.47501e+67    6.6917e+67  -2.95936e+51  -3.70684e+53   2.02358e+66
           255            -5           -50     1.203e+68   4.1722e+135   4.4746e+202   1.01489e+68   2.55757e+67   2.55757e+67   6.91491e+67   4.07467e+51   4.03545e+66   1.64302e+66
   1.98456e+59   1.01166e+59   5.56939e+59   7.61984e+67   4.6974e+134  1.62458e+200   7.30511e+67   7.33929e+65   6.64072e+66   6.88238e+67  -5.76934e+64   4.37645e+66   4.85053e+66
   2.12984e+59  -9.68961e+45   5.48408e+59   7.22846e+67  3.10399e+134 -4.70679e+200   7.01047e+67  -7.09692e+65   5.80865e+66   6.71857e+67   6.86333e+65  -4.03021e+65   5.23663e+66
           250             0           -50   1.43063e+68  5.82605e+135  7.29918e+202      1.21e+68    3.0415e+67    3.0415e+67    8.2233e+67  -4.15066e+51  -4.58701e+53   1.00622e+67
           250            -5           -50   1.45288e+68  6.00238e+135  7.62558e+202   1.22908e+68   3.08881e+67   3.08881e+67   8.35122e+67   5.48355e+51   4.77947e+66   9.37589e+66
   4.28324e+58  -7.80145e+45   4.46266e+59   4.97473e+67  -1.8028e+134 -7.49986e+200   5.15274e+67   -5.5011e+66    2.5053e+66   5.27431e+67  -3.80557e+65   7.03259e+65  -2.80202e+66
   3.47772e+58   -8.5417e+58   4.61152e+59   5.53189e+67 -3.40559e+133 -7.46309e+200   5.56259e+67  -3.70502e+66   3.68982e+66   5.53341e+67    3.6347e+65  -3.33219e+66  -2.88234e+66
           255             5           -50     1.203e+68   4.1722e+135   4.4746e+202   1.01489e+68   2.55757e+67   2.55757e+67   6.91491e+67   7.34843e+51  -4.03545e+66   1.64302e+66
           255             0           -50   1.16417e+68  3.92088e+135  4.08899e+202   9.81432e+67   2.47501e+67   2.47501e+67    6.6917e+67  -2.76845e+51  -3.67784e+53   2.02358e+66
   2.12984e+59  -9.68961e+45   5.48408e+59   7.22846e+67  3.10399e+134 -4.70679e+200   7.01047e+67  -7.09692e+65   5.80865e+66   6.71857e+67  -6.86333e+65   4.03021e+65   5.23663e+66
   1.98456e+59  -1.01166e+59   5.56939e+59   7.61984e+67   4.6974e+134  1.62458e+200   7.30511e+67   7.33929e+65   6.64072e+66   6.88238e+67   5.76934e+64  -4.37645e+66   4.85053e+66
           250             5           -50   1.45288e+68  6.00238e+135  7.62558e+202   1.22908e+68   3.08881e+67   3.08881e+67   8.35122e+67   9.18992e+51  -4.77947e+66   9.37589e+66
           250             0           -50   1.43063e+68  5.82605e+135  7.29918e+202      1.21e+68    3.0415e+67    3.0415e+67    8.2233e+67  -2.94566e+51  -4.56269e+53   1.00622e+67
   3.47772e+58   -8.5417e+58   4.61152e+59   3.85302e+67 -6.51073e+134  2.25966e+201   4.62131e+67  -7.27427e+66  -5.96036e+66   5.17649e+67  -8.11614e+65  -6.12425e+65  -2.88234e+66
   1.84951e+57  -2.35191e+59   5.33606e+59   5.33589e+67 -5.83308e+134  1.35529e+201   5.85703e+67  -5.59677e+66  -2.80782e+66   6.17635e+67  -6.17461e+64  -7.68834e+66  -4.56209e+66
           255            10           -50   1.39202e+68  5.48818e+135  6.64223e+202   1.17851e+68    2.9594e+67    2.9594e+67   8.00135e+67   2.35996e+52  -1.11114e+67   8.73785e+64
           255             5           -50     1.203e+68   4.1722e+135   4.4746e+202   1.01489e+68   2.55757e+67   2.55757e+67   6.91491e+67  -1.23877e+52  -4.03545e+66   1.64302e+66
   1.98456e+59  -1.01166e+59   5.56939e+59   5.93775e+67 -3.99461e+134  6.37614e+200    6.2651e+67  -2.84217e+66    -3.028e+66   6.52477e+67   -7.4092e+64  -1.23234e+66   4.85053e+66
   1.81139e+59  -2.66811e+59   6.32019e+59   7.48914e+67 -1.54692e+134 -2.37398e+199   7.59172e+67  -1.01898e+66   2.70235e+65   7.56402e+67   6.75776e+65  -9.05813e+66    3.9083e+66
           250            10           -50   1.64875e+68  7.64033e+135  1.08303e+203   1.39797e+68   3.50521e+67   3.50521e+67   9.47705e+67   2.54623e+52  -1.26053e+67   8.55777e+66
           250             5           -50   1.45288e+68  6.00238e+135  7.62558e+202   1.22908e+68   3.08881e+67   3.08881e+67   8.35122e+67  -1.35452e+52  -4.77947e+66   9.37589e+66
   4.54995e+59   1.71395e+59   1.37598e+60   1.75236e+68  9.31543e+135  1.38579e+203   1.46261e+68   8.29795e+67   2.55397e+67    6.6717e+67    4.7291e+66  -3.41103e+66   3.15065e+66
   5.58754e+59   4.74084e+58   1.32039e+60   3.59076e+67 -2.31722e+134 -6.91058e+200    3.9001e+67   1.06481e+67  -4.08134e+66   2.93408e+67   6.89003e+66  -3.02531e+66  -1.80087e+67
   1.66992e+59   5.58575e+58   1.09066e+60   1.91918e+67 -2.05452e+134 -6.38193e+200   2.39536e+67   1.81127e+66  -8.40655e+66   2.57871e+67   3.38261e+66   8.52271e+65  -2.82561e+66
   6.99267e+58   1.88008e+59   1.06417e+60   1.49807e+68  6.20895e+135  7.11755e+202    1.2741e+68   6.91343e+67   1.93621e+67   6.13109e+67   1.51334e+66   4.66548e+65  -2.35143e+67
  -2.89235e+58   1.75054e+59   1.69436e+60    1.6067e+67 -2.27862e+135  1.44676e+202   5.03663e+67   4.91404e+67  -1.26213e+67  -2.04521e+67   2.60843e+67   1.51651e+67  -1.06887e+66
   5.26853e+59   5.32848e+57   2.09334e+60   1.07813e+68  1.18267e+135 -7.32155e+202   1.02181e+68    2.5935e+67    6.8837e+66   7.49939e+67   2.82452e+67   1.52591e+67  -2.06503e+67
   1.91004e+59   8.13238e+58   1.54223e+60   9.27072e+67  4.80722e+134 -3.74893e+202   9.00773e+67   1.74405e+67   3.48418e+66   7.17825e+67   2.31598e+67  -2.27114e+67  -5.46716e+66
  -3.24679e+59   2.53041e+59   1.94696e+60  -7.75145e+66 -2.83277e+135  4.99631e+202   5.37853e+67   3.56376e+67  -1.78732e+67  -2.55159e+67   2.12905e+67  -2.28054e+67  -2.77339e+67
   5.58754e+59   4.74084e+58   1.32039e+60   5.58845e+67  4.95147e+134 -2.81733e+200   5.12633e+67   1.48952e+67   7.40142e+66   3.35879e+67   6.17074e+66   1.26625e+66  -1.80087e+67
   6.47288e+59  -7.19484e+46   1.35564e+60   2.79512e+67 -2.58056e+134 -1.01842e+201   3.22386e+67  -7.86889e+66   1.46284e+66   3.43572e+67   4.18271e+66   1.66542e+66  -2.48635e+66
    2.5958e+59  -4.34821e+46   1.05492e+60   4.62994e+67   3.0053e+134 -1.54158e+200   4.29314e+67   3.47606e+66    4.5653e+66    3.8258e+67   4.37423e+66  -1.68855e+66   1.00042e+66
   1.66992e+59   5.58575e+58   1.09066e+60   3.90944e+67   2.6838e+134  2.35238e+200   3.54964e+67   6.04253e+66   3.03353e+66   3.00183e+67    3.1711e+66  -2.08772e+66  -2.82561e+66
   5.26853e+59   5.32848e+57   2.09334e+60   1.50699e+68  5.75591e+135   6.1357e+202   1.30209e+68   3.50526e+67   3.15349e+67   8.41115e+67   1.45835e+67  -1.76388e+67  -2.06503e+67
   7.93457e+59   -9.0508e+46   1.79598e+60   5.81815e+67  1.23177e+134 -8.56454e+201   5.71132e+67  -1.44196e+66   1.18658e+67   4.77577e+67   1.25955e+67  -1.40485e+67   1.23573e+66
   3.26965e+59  -5.42361e+46   1.42145e+60    5.8909e+67  4.60553e+134 -1.20373e+201   5.48609e+67   6.15684e+66   4.83982e+66   4.79123e+67   6.42336e+66   -5.7061e+66   4.72249e+66
   1.91004e+59   8.13238e+58   1.54223e+60   1.16288e+68  3.27186e+135  2.53686e+202   1.01248e+68   2.24538e+67   1.70385e+67   7.67958e+67   5.22023e+66  -9.29643e+66  -5.46716e+66
   6.47288e+59  -7.19484e+46   1.35564e+60   2.79512e+67 -2.58056e+134 -1.01842e+201   3.22386e+67  -7.86889e+66   1.46284e+66   3.43572e+67  -4.18271e+66  -1.66542e+66  -2.48635e+66
   5.58754e+59  -4.74084e+58   1.32039e+60   5.58845e+67  4.95147e+134 -2.81733e+200   5.12633e+67   1.48952e+67   7.40142e+66   3.35879e+67  -6.17074e+66  -1.26625e+66  -1.80087e+67
   1.66992e+59  -5.58575e+58   1.09066e+60   3.90944e+67   2.6838e+134  2.35238e+200   3.54964e+67   6.04253e+66   3.03353e+66   3.00183e+67   -3.1711e+66   2.08772e+66  -2.82561e+66
    2.5958e+59  -4.34821e+46   1.05492e+60   4.62994e+67   3.0053e+134 -1.54158e+200   4.29314e+67   3.47606e+66    4.5653e+66    3.8258e+67  -4.37423e+66   1.68855e+66   1.00042e+66
   7.93457e+59   -9.0508e+46   1.79598e+60   5.81815e+67  1.23177e+134 -8.56454e+201   5.71132e+67  -1.44196e+66   1.18658e+67   4.77577e+67  -1.25955e+67   1.40485e+67   1.23573e+66
   5.26853e+59  -5.32848e+57   2.09334e+60   1.50699e+68  5.75591e+135   6.1357e+202   1.30209e+68   3.50526e+67   3.15349e+67   8.41115e+67  -1.45835e+67   1.76388e+67  -2.06503e+67
   1.91004e+59  -8.13238e+58   1.54223e+60   1.16288e+68  3.27186e+135  2.53686e+202   1.01248e+68   2.24538e+67   1.70385e+67   7.67958e+67  -5.22023e+66   9.29643e+66  -5.46716e+66
   3.26965e+59  -5.42361e+46   1.42145e+60    5.8909e+67  4.60553e+134 -1.20373e+201   5.48609e+67   6.15684e+66   4.83982e+66   4.79123e+67  -6.42336e+66    5.7061e+66   4.72249e+66
   5.58754e+59  -4.74084e+58   1.32039e+60   3.59076e+67 -2.31722e+134 -6.91058e+200    3.9001e+67   1.06481e+67  -4.08134e+66   2.93408e+67  -6.89003e+66   3.02531e+66  -1.80087e+67
   4.54995e+59  -1.71395e+59   1.37598e+60   1.75236e+68  9.31543e+135  1.38579e+203   1.46261e+68   8.29795e+67   2.55397e+67    6.6717e+67   -4.7291e+66   3.41103e+66   3.15065e+66
   6.99267e+58  -1.88008e+59   1.06417e+60   1.49807e+68  6.20895e+135  7.11755e+202    1.2741e+68   6.91343e+67   1.93621e+67   6.13109e+67  -1.51334e+66  -4.66548e+65  -2.35143e+67
   1.66992e+59  -5.58575e+58   1.09066e+60   1.91918e+67 -2.05452e+134 -6.38193e+200   2.39536e+67   1.81127e+66  -8.40655e+66   2.57871e+67  -3.38261e+66  -8.52271e+65  -2.82561e+66
   5.26853e+59  -5.32848e+57   2.09334e+60   1.07813e+68  1.18267e+135 -7.32155e+202   1.02181e+68    2.5935e+67    6.8837e+66   7.49939e+67  -2.82452e+67  -1.52591e+67  -2.06503e+67
  -2.89235e+58  -1.75054e+59   1.69436e+60    1.6067e+67 -2.27862e+135  1.44676e+202   5.03663e+67   4.91404e+67  -1.26213e+67  -2.04521e+67  -2.60843e+67  -1.51651e+67  -1.06887e+66
  -3.24679e+59  -2.53041e+59   1.94696e+60  -7.75145e+66 -2.83277e+135  4.99631e+202   5.37853e+67   3.56376e+67  -1.78732e+67  -2.55159e+67  -2.12905e+67   2.28054e+67  -2.77339e+67
   1.91004e+59  -8.13238e+58   1.54223e+60   9.27072e+67  4.80722e+134 -3.74893e+202   9.00773e+67   1.74405e+67   3.48418e+66   7.17825e+67  -2.31598e+67   2.27114e+67  -5.46716e+66
   6.99267e+58   1.88008e+59   1.06417e+60   1.34821e+68  4.20048e+135  3.68214e+202   1.18221e+68   6.59483e+67   1.61761e+67   5.26968e+67   1.51334e+66   -2.9228e+64  -3.45211e+67
   1.66992e+59   5.58575e+58   1.09066e+60    4.8283e+67   3.0928e+133 -7.73012e+200   4.79617e+67   7.99603e+66  -2.22179e+66   4.25088e+67   3.38261e+66  -6.67181e+65  -1.35969e+67
   3.22114e+57   9.64683e+58   7.49414e+59   4.10371e+67 -8.05983e+133 -7.72978e+200   4.20076e+67   2.55511e+66  -2.48637e+66   4.09683e+67   4.38993e+66  -4.77212e+66  -5.91751e+66
  -8.21658e+58   2.15116e+59   8.09813e+59   6.97826e+66 -4.80581e+134  3.07104e+201    2.3006e+67  -8.81212e+66  -9.72722e+66   2.55176e+67   2.08782e+66  -4.13417e+66  -8.47164e+66
  -3.24679e+59   2.53041e+59   1.94696e+60   2.68338e+68  1.76262e+136  3.26512e+203   2.33193e+68   9.43337e+67    4.0823e+67   1.33181e+68   2.12905e+67  -1.92755e+67  -5.83117e+67
   1.91004e+59   8.13238e+58   1.54223e+60   8.03649e+67 -1.30738e+134 -2.56748e+202   8.11742e+67   1.48166e+67   8.60212e+65   6.46881e+67   2.31598e+67  -1.94806e+67  -1.55471e+67
    6.8513e+58   8.89351e+58   1.03844e+60   7.07289e+67  4.05298e+134 -7.73437e+200   6.78032e+67   8.86754e+66  -7.78161e+65   6.26395e+67   2.32674e+66   -5.2155e+66  -7.86773e+66
   2.67969e+58   2.56311e+59   1.14122e+60   1.38105e+68  2.63256e+135  1.26742e+202    1.2822e+68   1.90652e+67   1.35459e+67   1.05494e+68   2.46298e+64  -5.01039e+66  -3.22623e+67
   1.66992e+59   5.58575e+58   1.09066e+60   6.81857e+67   9.0714e+134  3.24601e+201   6.11731e+67   1.22273e+67   9.21829e+66   4.67401e+67    3.1711e+66  -3.60717e+66  -1.35969e+67
    2.5958e+59  -4.34821e+46   1.05492e+60   5.62631e+67  5.06801e+134  5.64933e+200   5.15629e+67   5.59432e+66   6.68357e+66   4.39852e+67   4.37423e+66  -1.68855e+66  -6.97489e+66
   4.06817e+58  -2.08177e+46   7.16003e+59    3.9565e+67 -4.11448e+133  -1.1742e+200   4.00816e+67  -1.66526e+65  -7.03654e+65   4.04352e+67   1.76979e+66  -1.57847e+66  -6.72596e+65
   3.22114e+57   9.64683e+58   7.49414e+59   4.68229e+67   1.4656e+134 -4.43107e+199   4.52308e+67   3.78518e+66   8.39365e+65   4.21984e+67   2.12569e+66  -3.49709e+66  -5.91751e+66
   1.91004e+59   8.13238e+58   1.54223e+60   1.03946e+68  2.36696e+135  1.47947e+202   9.18572e+67   1.98298e+67   1.44146e+67   6.97013e+67   5.22023e+66  -6.06568e+66  -1.55471e+67
   3.26965e+59  -5.42361e+46   1.42145e+60   8.44193e+67  1.34662e+135  4.40056e+201   7.60263e+67   1.15803e+67   1.02633e+67   6.25757e+67   6.42336e+66   -5.7061e+66  -8.08032e+66
   1.31465e+59  -2.65682e+46   9.49138e+59   7.63298e+67  9.71725e+134  2.98782e+201   6.96744e+67   7.64961e+66   7.82429e+66   6.08559e+67   2.97413e+66  -4.21894e+66  -1.77803e+66
    6.8513e+58   8.89351e+58   1.03844e+60   9.11916e+67   1.6725e+135  8.26587e+201   8.15071e+67   1.32179e+67   1.09839e+67   6.69898e+67   3.33003e+66  -4.57853e+66  -7.86773e+66
    2.5958e+59  -4.34821e+46   1.05492e+60   5.62631e+67  5.06801e+134  5.64933e+200   5.15629e+67   5.59432e+66   6.68357e+66   4.39852e+67  -4.37423e+66   1.68855e+66  -6.97489e+66
   1.66992e+59  -5.58575e+58   1.09066e+60   6.81857e+67   9.0714e+134  3.24601e+201   6.11731e+67   1.22273e+67   9.21829e+66   4.67401e+67   -3.1711e+66   3.60717e+66  -1.35969e+67
   3.22114e+57  -9.64683e+58   7.49414e+59   4.68229e+67   1.4656e+134 -4.43107e+199   4.52308e+67   3.78518e+66   8.39365e+65   4.21984e+67  -2.12569e+66   3.49709e+66  -5.91751e+66
   4.06817e+58  -2.08177e+46   7.16003e+59    3.9565e+67 -4.11448e+133  -1.1742e+200   4.00816e+67  -1.66526e+65  -7.03654e+65   4.04352e+67  -1.76979e+66   1.57847e+66  -6.72596e+65
   3.26965e+59  -5.42361e+46   1.42145e+60   8.44193e+67  1.34662e+135  4.40056e+201   7.60263e+67   1.15803e+67   1.02633e+67   6.25757e+67  -6.42336e+66    5.7061e+66  -8.08032e+66
   1.91004e+59  -8.13238e+58   1.54223e+60   1.03946e+68  2.36696e+135  1.47947e+202   9.18572e+67   1.98298e+67   1.44146e+67   6.97013e+67  -5.22023e+66   6.06568e+66  -1.55471e+67
    6.8513e+58  -8.89351e+58   1.03844e+60   9.11916e+67   1.6725e+135  8.26587e+201   8.15071e+67   1.32179e+67   1.09839e+67   6.69898e+67  -3.33003e+66   4.57853e+66  -7.86773e+66
   1.31465e+59  -2.65682e+46   9.49138e+59   7.63298e+67  9.71725e+134  2.98782e+201   6.96744e+67   7.64961e+66   7.82429e+66   6.08559e+67  -2.97413e+66   4.21894e+66  -1.77803e+66
   1.66992e+59  -5.58575e+58   1.09066e+60    4.8283e+67   3.0928e+133 -7.73012e+200   4.79617e+67   7.99603e+66  -2.22179e+66   4.25088e+67  -3.38261e+66   6.67181e+65  -1.35969e+67
   6.99267e+58  -1.88008e+59   1.06417e+60   1.34821e+68  4.20048e+135  3.68214e+202   1.18221e+68   6.59483e+67   1.61761e+67   5.26968e+67  -1.51334e+66    2.9228e+64  -3.45211e+67
  -8.21658e+58  -2.15116e+59   8.09813e+59   6.97826e+66 -4.80581e+134  3.07104e+201    2.3006e+67  -8.81212e+66  -9.72722e+66   2.55176e+67  -2.08782e+66   4.13417e+66  -8.47164e+66
   3.22114e+57  -9.64683e+58   7.49414e+59   4.10371e+67 -8.05983e+133 -7.72978e+200   4.20076e+67   2.55511e+66  -2.48637e+66   4.09683e+67  -4.38993e+66   4.77212e+66  -5.91751e+66
   1.91004e+59  -8.13238e+58   1.54223e+60   8.03649e+67 -1.30738e+134 -2.56748e+202   8.11742e+67   1.48166e+67   8.60212e+65   6.46881e+67  -2.31598e+67   1.94806e+67  -1.55471e+67
  -3.24679e+59  -2.53041e+59   1.94696e+60   2.68338e+68  1.76262e+136  3.26512e+203   2.33193e+68   9.43337e+67    4.0823e+67   1.33181e+68  -2.12905e+67   1.92755e+67  -5.83117e+67
   2.67969e+58  -2.56311e+59   1.14122e+60   1.38105e+68  2.63256e+135  1.26742e+202    1.2822e+68   1.90652e+67   1.35459e+67   1.05494e+68  -2.46298e+64   5.01039e+66  -3.22623e+67
    6.8513e+58  -8.89351e+58   1.03844e+60   7.07289e+67  4.05298e+134 -7.73437e+200   6.78032e+67   8.86754e+66  -7.78161e+65   6.26395e+67  -2.32674e+66    5.2155e+66  -7.86773e+66
  -8.21658e+58   2.15116e+59   8.09813e+59   4.48941e+67  -3.7725e+134  4.23744e+200   4.89156e+67  -7.51264e+65  -1.66636e+66   4.73118e+67   2.08782e+66  -2.12924e+66  -1.59758e+67
   3.22114e+57   9.64683e+58   7.49414e+59   5.50813e+67  1.51512e+134 -7.17819e+200   5.36883e+67   5.54088e+66   4.99403e+65    4.9041e+67   4.38993e+66   -1.7392e+66  -1.11884e+67
   -4.8982e+58   7.28823e+58    3.5433e+59   4.81099e+67  1.27254e+133  -2.0296e+200   4.79775e+67   2.31383e+66  -1.76278e+66   4.75589e+67   6.56832e+65  -1.52092e+66  -2.58042e+66
  -7.54197e+58   1.99786e+59   4.10109e+59   5.10083e+67  7.07492e+133 -1.85708e+200     5.031e+67   3.54325e+66   -1.1466e+66   4.86116e+67  -4.23644e+65  -1.91096e+66  -6.15322e+66
   2.67969e+58   2.56311e+59   1.14122e+60   8.64203e+67  6.02122e+134  9.12007e+200   8.28635e+67   8.07714e+66   2.55782e+66   7.57854e+67   2.46298e+64  -3.85811e+66  -1.44785e+67
    6.8513e+58   8.89351e+58   1.03844e+60   8.99007e+67  1.06613e+135  2.24416e+201   8.37616e+67   1.29434e+67   3.29774e+66   7.36595e+67   2.32674e+66   -4.6897e+66  -1.20609e+67
   3.47772e+58    8.5417e+58   4.61152e+59   8.96749e+67  1.21378e+135  3.80904e+201   8.26306e+67   1.11505e+67   4.91292e+66   7.36115e+67    9.6345e+65  -3.25681e+66   -3.4529e+66
   1.84951e+57   2.35191e+59   5.33606e+59     9.928e+67  1.69856e+135  7.30361e+201   9.03214e+67   1.38058e+67   6.95495e+66   7.85193e+67  -1.17025e+65  -2.42523e+66  -4.65589e+66
   3.22114e+57   9.64683e+58   7.49414e+59   6.08671e+67  4.28662e+134  6.16645e+200   5.72376e+67   6.77095e+66   3.82514e+66    5.0271e+67   2.12569e+66  -4.64166e+65  -1.11884e+67
   4.06817e+58  -2.08177e+46   7.16003e+59   4.87061e+67  7.98218e+133 -7.32791e+199   4.78797e+67   1.77685e+66   1.23972e+66   4.56895e+67   1.76979e+66  -1.57847e+66  -7.38802e+66
  -3.60729e+58  -5.72273e+45   3.42044e+59   5.79577e+67  5.14978e+134  1.23283e+201   5.33303e+67    4.8661e+66    5.4352e+66   4.76564e+67   6.09879e+65  -5.80417e+65  -1.29766e+66
   -4.8982e+58   7.28823e+58    3.5433e+59   6.22024e+67  6.15546e+134  1.65749e+201   5.70403e+67   5.30987e+66   6.33762e+66   5.05549e+67   1.76887e+64   5.33885e+65  -2.58042e+66
    6.8513e+58   8.89351e+58   1.03844e+60   1.10363e+68  2.61136e+135  1.73027e+202   9.78199e+67   1.72938e+67   1.50598e+67   7.80099e+67   3.33003e+66  -4.05273e+66  -1.20609e+67
   1.31465e+59  -2.65682e+46   9.49138e+59   8.43007e+67  1.25005e+135  4.80297e+201   7.65281e+67    9.3442e+66   9.51887e+66   6.54376e+67   2.97413e+66  -4.21894e+66  -6.82684e+66
   4.28324e+58  -7.80145e+45   4.46266e+59   8.83172e+67  1.58012e+135  8.01311e+201   7.88657e+67   1.13205e+67   1.07052e+67   6.62915e+67   3.80557e+65  -7.03259e+65  -7.36478e+65
   3.47772e+58    8.5417e+58   4.61152e+59   1.06464e+68  2.46218e+135  1.63627e+202    9.4193e+67   1.47197e+67   1.45631e+67   7.71808e+67  -2.11634e+65  -5.37049e+65   -3.4529e+66
   4.06817e+58  -2.08177e+46   7.16003e+59   4.87061e+67  7.98218e+133 -7.32791e+199   4.78797e+67   1.77685e+66   1.23972e+66   4.56895e+67  -1.76979e+66   1.57847e+66  -7.38802e+66
   3.22114e+57  -9.64683e+58   7.49414e+59   6.08671e+67  4.28662e+134  6.16645e+200   5.72376e+67   6.77095e+66   3.82514e+66    5.0271e+67  -2.12569e+66   4.64166e+65  -1.11884e+67
   -4.8982e+58  -7.28823e+58    3.5433e+59   6.22024e+67  6.15546e+134  1.65749e+201   5.70403e+67   5.30987e+66   6.33762e+66   5.05549e+67  -1.76887e+64  -5.33885e+65  -2.58042e+66
  -3.60729e+58  -5.72273e+45   3.42044e+59   5.79577e+67  5.14978e+134  1.23283e+201   5.33303e+67    4.8661e+66    5.4352e+66   4.76564e+67  -6.09879e+65   5.80417e+65  -1.29766e+66
   1.31465e+59  -2.65682e+46   9.49138e+59   8.43007e+67  1.25005e+135  4.80297e+201   7.65281e+67    9.3442e+66   9.51887e+66   6.54376e+67  -2.97413e+66   4.21894e+66  -6.82684e+66
    6.8513e+58  -8.89351e+58   1.03844e+60   1.10363e+68  2.61136e+135  1.73027e+202   9.78199e+67   1.72938e+67   1.50598e+67   7.80099e+67  -3.33003e+66   4.05273e+66  -1.20609e+67
   3.47772e+58   -8.5417e+58   4.61152e+59   1.06464e+68  2.46218e+135  1.63627e+202    9.4193e+67   1.47197e+67   1.45631e+67   7.71808e+67   2.11634e+65   5.37049e+65   -3.4529e+66
   4.28324e+58  -7.80145e+45   4.46266e+59   8.83172e+67  1.58012e+135  8.01311e+201   7.88657e+67   1.13205e+67   1.07052e+67   6.62915e+67  -3.80557e+65   7.03259e+65  -7.36478e+65
   3.22114e+57  -9.64683e+58   7.49414e+59   5.50813e+67  1.51512e+134 -7.17819e+200   5.36883e+67   5.54088e+66   4.99403e+65    4.9041e+67  -4.38993e+66    1.7392e+66  -1.11884e+67
  -8.21658e+58  -2.15116e+59   8.09813e+59   4.48941e+67  -3.7725e+134  4.23744e+200   4.89156e+67  -7.51264e+65  -1.66636e+66   4.73118e+67  -2.08782e+66   2.12924e+66  -1.59758e+67
  -7.54197e+58  -1.99786e+59   4.10109e+59   5.10083e+67  7.07492e+133 -1.85708e+200     5.031e+67   3.54325e+66   -1.1466e+66   4.86116e+67   4.23644e+65   1.91096e+66  -6.15322e+66
   -4.8982e+58  -7.28823e+58    3.5433e+59   4.81099e+67  1.27254e+133  -2.0296e+200   4.79775e+67   2.31383e+66  -1.76278e+66   4.75589e+67  -6.56832e+65   1.52092e+66  -2.58042e+66
    6.8513e+58  -8.89351e+58   1.03844e+60   8.99007e+67  1.06613e+135  2.24416e+201   8.37616e+67   1.29434e+67   3.29774e+66   7.36595e+67  -2.32674e+66    4.6897e+66  -1.20609e+67
   2.67969e+58  -2.56311e+59   1.14122e+60   8.64203e+67  6.02122e+134  9.12007e+200   8.28635e+67   8.07714e+66   2.55782e+66   7.57854e+67  -2.46298e+64   3.85811e+66  -1.44785e+67
   1.84951e+57  -2.35191e+59   5.33606e+59     9.928e+67  1.69856e+135  7.30361e+201   9.03214e+67   1.38058e+67   6.95495e+66   7.85193e+67   1.17025e+65   2.42523e+66  -4.65589e+66
   3.47772e+58   -8.5417e+58   4.61152e+59   8.96749e+67  1.21378e+135  3.80904e+201   8.26306e+67   1.11505e+67   4.91292e+66   7.36115e+67   -9.6345e+65   3.25681e+66   -3.4529e+66
  -7.54197e+58   1.99786e+59   4.10109e+59   5.37224e+67  4.10159e+133 -2.12989e+200   5.33393e+67   4.12028e+66  -5.69572e+65   5.01717e+67  -4.23644e+65   6.80348e+66  -9.39765e+66
   -4.8982e+58   7.28823e+58    3.5433e+59   3.74784e+67 -2.20007e+134   1.8331e+200   4.03068e+67   5.35791e+64  -4.02304e+66   4.14478e+67   6.56832e+65   8.08037e+65  -7.36082e+66
           260            -5           -50   9.24339e+67  2.45716e+135  2.01797e+202   7.80183e+67   1.96513e+67   1.96513e+67   5.31313e+67  -9.32876e+51   3.44326e+66  -2.31411e+66
           260           -10           -50   1.06985e+68  3.21294e+135   2.9498e+202   9.07349e+67   2.27448e+67   2.27448e+67   6.14952e+67   1.18148e+52    9.4387e+66  -3.56313e+66
   1.84951e+57   2.35191e+59   5.33606e+59    7.9973e+67  7.81733e+134  1.20611e+201   7.49263e+67    9.7011e+66    2.8503e+66   6.74216e+67  -1.17025e+65   7.68834e+66  -5.74713e+66
   3.47772e+58    8.5417e+58   4.61152e+59   5.93789e+67  1.58714e+134 -4.44649e+200    5.8027e+67   4.70959e+66  -1.52797e+66   5.61973e+67    9.6345e+65   6.12425e+65  -3.40369e+66
           255            -5           -50     1.203e+68   4.1722e+135   4.4746e+202   1.01489e+68   2.55757e+67   2.55757e+67   6.91491e+67  -1.12492e+52   4.03545e+66   1.64302e+66
           255           -10           -50   1.39202e+68  5.48818e+135  6.64223e+202   1.17851e+68    2.9594e+67    2.9594e+67   8.00135e+67   1.31886e+52   1.11114e+67   8.73785e+64
   -4.8982e+58   7.28823e+58    3.5433e+59   5.15709e+67  2.66807e+134  3.05961e+200   4.89157e+67   3.04962e+66   4.07737e+66   4.44439e+67   1.76887e+64   2.86284e+66  -7.36082e+66
  -3.60729e+58  -5.72273e+45   3.42044e+59   4.96322e+67  2.56571e+134  3.13179e+200   4.69764e+67   3.09611e+66   3.66521e+66   4.28709e+67   6.09879e+65  -5.80417e+65   -6.6281e+66
           260             0           -50    8.9229e+67  2.30286e+135  1.84017e+202    7.5226e+67   1.89699e+67   1.89699e+67   5.12891e+67   -2.0472e+51  -2.71161e+53  -1.70423e+66
           260            -5           -50   9.24339e+67  2.45716e+135  2.01797e+202   7.80183e+67   1.96513e+67   1.96513e+67   5.31313e+67   3.00923e+51   3.44326e+66  -2.31411e+66
   3.47772e+58    8.5417e+58   4.61152e+59   7.61675e+67  1.02474e+135  3.83494e+201    6.9114e+67   8.27883e+66    8.1222e+66   5.97665e+67  -2.11634e+65   3.33219e+66  -3.40369e+66
   4.28324e+58  -7.80145e+45   4.46266e+59   7.35506e+67  9.63077e+134  3.50337e+201   6.66829e+67   8.18112e+66   7.56584e+66   5.78036e+67   3.80557e+65  -7.03259e+65  -2.90029e+66
           255             0           -50   1.16417e+68  3.92088e+135  4.08899e+202   9.81432e+67   2.47501e+67   2.47501e+67    6.6917e+67  -2.31502e+51    -3.719e+53   2.02358e+66
           255            -5           -50     1.203e+68   4.1722e+135   4.4746e+202   1.01489e+68   2.55757e+67   2.55757e+67   6.91491e+67   3.89929e+51   4.03545e+66   1.64302e+66
  -3.60729e+58  -5.72273e+45   3.42044e+59   4.96322e+67  2.56571e+134  3.13179e+200   4.69764e+67   3.09611e+66   3.66521e+66   4.28709e+67  -6.09879e+65   5.80417e+65   -6.6281e+66
   -4.8982e+58  -7.28823e+58    3.5433e+59   5.15709e+67  2.66807e+134  3.05961e+200   4.89157e+67   3.04962e+66   4.07737e+66   4.44439e+67  -1.76887e+64  -2.86284e+66  -7.36082e+66
           260             5           -50   9.24339e+67  2.45716e+135  2.01797e+202   7.80183e+67   1.96513e+67   1.96513e+67   5.31313e+67   3.80429e+51  -3.44326e+66  -2.31411e+66
           260             0           -50    8.9229e+67  2.30286e+135  1.84017e+202    7.5226e+67   1.89699e+67   1.89699e+67   5.12891e+67  -1.71672e+51  -2.69548e+53  -1.70423e+66
   4.28324e+58  -7.80145e+45   4.46266e+59   7.35506e+67  9.63077e+134  3.50337e+201   6.66829e+67   8.18112e+66   7.56584e+66   5.78036e+67  -3.80557e+65   7.03259e+65  -2.90029e+66
   3.47772e+58   -8.5417e+58   4.61152e+59   7.61675e+67  1.02474e+135  3.83494e+201    6.9114e+67   8.27883e+66    8.1222e+66   5.97665e+67   2.11634e+65  -3.33219e+66  -3.40369e+66
           255             5           -50     1.203e+68   4.1722e+135   4.4746e+202   1.01489e+68   2.55757e+67   2.55757e+67   6.91491e+67   5.09772e+51  -4.03545e+66   1.64302e+66
           255             0           -50   1.16417e+68  3.92088e+135  4.08899e+202   9.81432e+67   2.47501e+67   2.47501e+67    6.6917e+67   -2.2266e+51  -3.68439e+53   2.02358e+66
   -4.8982e+58  -7.28823e+58    3.5433e+59   3.74784e+67 -2.20007e+134   1.8331e+200   4.03068e+67   5.35791e+64  -4.02304e+66   4.14478e+67  -6.56832e+65  -8.08037e+65  -7.36082e+66
  -7.54197e+58  -1.99786e+59   4.10109e+59   5.37224e+67  4.10159e+133 -2.12989e+200   5.33393e+67   4.12028e+66  -5.69572e+65   5.01717e+67   4.23644e+65  -6.80348e+66  -9.39765e+66
           260            10           -50   1.06985e+68  3.21294e+135   2.9498e+202   9.07349e+67   2.27448e+67   2.27448e+67   6.14952e+67    1.3361e+52   -9.4387e+66  -3.56313e+66
           260             5           -50   9.24339e+67  2.45716e+135  2.01797e+202   7.80183e+67   1.96513e+67   1.96513e+67   5.31313e+67  -8.05251e+51  -3.44326e+66  -2.31411e+66
   3.47772e+58   -8.5417e+58   4.61152e+59   5.93789e+67  1.58714e+134 -4.44649e+200    5.8027e+67   4.70959e+66  -1.52797e+66   5.61973e+67   -9.6345e+65  -6.12425e+65  -3.40369e+66
   1.84951e+57  -2.35191e+59   5.33606e+59    7.9973e+67  7.81733e+134  1.20611e+201   7.49263e+67    9.7011e+66    2.8503e+66   6.74216e+67   1.17025e+65  -7.68834e+66  -5.74713e+66
           255            10           -50   1.39202e+68  5.48818e+135  6.64223e+202   1.17851e+68    2.9594e+67    2.9594e+67   8.00135e+67   1.32587e+52  -1.11114e+67   8.73785e+64
           255             5           -50     1.203e+68   4.1722e+135   4.4746e+202   1.01489e+68   2.55757e+67   2.55757e+67   6.91491e+67  -8.80116e+51  -4.03545e+66   1.64302e+66
   5.78422e+59   1.38162e+59   8.50346e+59   5.03689e+67  6.67521e+134  1.72324e+201   4.32378e+67   2.23707e+67   3.41123e+66    2.4587e+67    5.9079e+65   2.15626e+63   -6.5071e+66
   6.24159e+59   6.09346e+58   8.75934e+59   4.27603e+67  4.50604e+134  4.75757e+200   3.71193e+67   1.52708e+67   1.79366e+66   2.56959e+67   2.79985e+66   5.83799e+65  -2.66327e+66
   2.36072e+59   7.41663e+58   7.00197e+59   4.05075e+67   3.7815e+134 -1.80402e+200   3.55346e+67   1.51391e+67   1.51417e+65   2.52169e+67   3.01703e+66  -7.79446e+65  -1.12358e+65
   1.90521e+59   1.63706e+59   7.03464e+59   4.64182e+67  5.63801e+134  6.41807e+200   3.98854e+67   2.12631e+67   1.40803e+66    2.3747e+67   1.00389e+66  -1.36109e+66   1.28464e+66
   4.54995e+59   1.71395e+59   1.37598e+60    8.1195e+67  1.70422e+135  6.54719e+201   6.99172e+67   2.89243e+67   5.54668e+66    4.6724e+67   3.33197e+66  -3.41103e+66  -6.64094e+66
   5.58754e+59   4.74084e+58   1.32039e+60   4.46479e+67  3.38698e+134 -2.09112e+201   4.06785e+67   1.56721e+67  -2.22317e+66    3.1199e+67   5.54103e+66  -3.02531e+66  -2.48962e+66
   1.66992e+59   5.58575e+58   1.09066e+60   4.34769e+67  3.06114e+134 -2.51358e+201   3.98011e+67   1.57704e+67  -3.24357e+66     3.095e+67   5.45072e+66   8.52271e+65   6.12871e+64
   6.99267e+58   1.88008e+59   1.06417e+60   7.83261e+67  1.58889e+135  4.83434e+201   6.74247e+67   2.80467e+67   4.16531e+66   4.61141e+67   3.43758e+66   4.66548e+65   1.15079e+66
   6.24159e+59   6.09346e+58   8.75934e+59   4.70108e+67  6.00661e+134  1.70578e+201   4.01167e+67   1.61744e+67   4.23681e+66   2.65995e+67   1.79714e+66  -6.88379e+65  -2.66327e+66
   6.48672e+59  -5.52783e+46   8.74595e+59   3.01483e+67  1.49221e+134  5.54377e+199   2.75627e+67   6.54029e+66   6.51886e+65   2.29561e+67    1.1581e+66  -6.32613e+64  -4.33613e+66
   2.59404e+59  -3.29132e+46   6.99476e+59   2.62897e+67  8.02736e+133   -1.984e+200   2.47158e+67   5.57255e+66   -1.4187e+66   2.21358e+67   1.10229e+66  -3.40423e+64   1.59797e+66
   2.36072e+59   7.41663e+58   7.00197e+59   4.45178e+67  5.15907e+134  9.16563e+200   3.82875e+67   1.59917e+67   2.45659e+66   2.60695e+67   1.96727e+66   -6.5916e+65  -1.12358e+65
   5.58754e+59   4.74084e+58   1.32039e+60   6.46248e+67  1.18766e+135  5.59396e+201    5.4669e+67   1.99191e+67   9.25959e+66    3.5446e+67   4.82174e+66   1.26625e+66  -2.48962e+66
   6.47288e+59  -7.19484e+46   1.35564e+60   6.64434e+67  1.11465e+135  4.81746e+201   5.74463e+67   1.42566e+67   9.64623e+66   4.25406e+67   4.18271e+66   1.66542e+66  -4.40983e+66
    2.5958e+59  -4.34821e+46   1.05492e+60   6.38324e+67  1.00534e+135  3.83544e+201   5.54006e+67   1.35541e+67   8.29279e+66   4.19855e+67   4.37423e+66  -1.68855e+66   1.52427e+66
   1.66992e+59   5.58575e+58   1.09066e+60   6.33795e+67  1.12418e+135  4.71351e+201   5.37846e+67   2.00017e+67   8.19651e+66   3.51813e+67   5.23922e+66  -2.08772e+66   6.12871e+64
   6.48672e+59  -5.52783e+46   8.74595e+59   3.01483e+67  1.49221e+134  5.54377e+199   2.75627e+67   6.54029e+66   6.51886e+65   2.29561e+67   -1.1581e+66   6.32613e+64  -4.33613e+66
   6.24159e+59  -6.09346e+58   8.75934e+59   4.70108e+67  6.00661e+134  1.70578e+201   4.01167e+67   1.61744e+67   4.23681e+66   2.65995e+67  -1.79714e+66   6.88379e+65  -2.66327e+66
   2.36072e+59  -7.41663e+58   7.00197e+59   4.45178e+67  5.15907e+134  9.16563e+200   3.82875e+67   1.59917e+67   2.45659e+66   2.60695e+67  -1.96727e+66    6.5916e+65  -1.12358e+65
   2.59404e+59  -3.29132e+46   6.99476e+59   2.62897e+67  8.02736e+133   -1.984e+200   2.47158e+67   5.57255e+66   -1.4187e+66   2.21358e+67  -1.10229e+66   3.40423e+64   1.59797e+66
   6.47288e+59  -7.19484e+46   1.35564e+60   6.64434e+67  1.11465e+135  4.81746e+201   5.74463e+67   1.42566e+67   9.64623e+66   4.25406e+67  -4.18271e+66  -1.66542e+66  -4.40983e+66
   5.58754e+59  -4.74084e+58   1.32039e+60   6.46248e+67  1.18766e+135  5.59396e+201    5.4669e+67   1.99191e+67   9.25959e+66    3.5446e+67  -4.82174e+66  -1.26625e+66  -2.48962e+66
   1.66992e+59  -5.58575e+58   1.09066e+60   6.33795e+67  1.12418e+135  4.71351e+201   5.37846e+67   2.00017e+67   8.19651e+66   3.51813e+67  -5.23922e+66   2.08772e+66   6.12871e+64
    2.5958e+59  -4.34821e+46   1.05492e+60   6.38324e+67  1.00534e+135  3.83544e+201   5.54006e+67   1.35541e+67   8.29279e+66   4.19855e+67  -4.37423e+66   1.68855e+66   1.52427e+66
   6.24159e+59  -6.09346e+58   8.75934e+59   4.27603e+67  4.50604e+134  4.75757e+200   3.71193e+67   1.52708e+67   1.79366e+66   2.56959e+67  -2.79985e+66  -5.83799e+65  -2.66327e+66
   5.78422e+59  -1.38162e+59   8.50346e+59   5.03689e+67  6.67521e+134  1.72324e+201   4.32378e+67   2.23707e+67   3.41123e+66    2.4587e+67   -5.9079e+65  -2.15626e+63   -6.5071e+66
   1.90521e+59  -1.63706e+59   7.03464e+59   4.64182e+67  5.63801e+134  6.41807e+200   3.98854e+67   2.12631e+67   1.40803e+66    2.3747e+67  -1.00389e+66   1.36109e+66   1.28464e+66
   2.36072e+59  -7.41663e+58   7.00197e+59   4.05075e+67   3.7815e+134 -1.80402e+200   3.55346e+67   1.51391e+67   1.51417e+65   2.52169e+67  -3.01703e+66   7.79446e+65  -1.12358e+65
   5.58754e+59  -4.74084e+58   1.32039e+60   4.46479e+67  3.38698e+134 -2.09112e+201   4.06785e+67   1.56721e+67  -2.22317e+66    3.1199e+67  -5.54103e+66   3.02531e+66  -2.48962e+66
   4.54995e+59  -1.71395e+59   1.37598e+60    8.1195e+67  1.70422e+135  6.54719e+201   6.99172e+67   2.89243e+67   5.54668e+66    4.6724e+67  -3.33197e+66   3.41103e+66  -6.64094e+66
   6.99267e+58  -1.88008e+59   1.06417e+60   7.83261e+67  1.58889e+135  4.83434e+201   6.74247e+67   2.80467e+67   4.16531e+66   4.61141e+67  -3.43758e+66  -4.66548e+65   1.15079e+66
   1.66992e+59  -5.58575e+58   1.09066e+60   4.34769e+67  3.06114e+134 -2.51358e+201   3.98011e+67   1.57704e+67  -3.24357e+66     3.095e+67  -5.45072e+66  -8.52271e+65   6.12871e+64
   1.90521e+59   1.63706e+59   7.03464e+59   6.04274e+67  9.69689e+134  3.14799e+201   5.17859e+67   2.42415e+67   4.38636e+66   3.17996e+67   1.00389e+66  -6.47451e+65  -6.75047e+66
   2.36072e+59   7.41663e+58   7.00197e+59   4.87681e+67   5.2442e+134   5.9499e+200    4.3057e+67   1.68953e+67    1.9076e+66   2.99651e+67   3.01703e+66  -5.16634e+65  -7.86591e+66
   1.21023e+58   8.18351e+58   4.92794e+59   3.23415e+67  1.36663e+134 -4.11348e+200   3.01548e+67   7.71492e+66  -1.84629e+66   2.64729e+67   1.17038e+66   -8.3879e+65  -1.54252e+66
  -2.73041e+58   1.74143e+59    5.0288e+59   4.25576e+67  3.93571e+134  1.09851e+200   3.76507e+67   1.42315e+67   3.25628e+65   2.80005e+67  -7.39871e+64  -9.69607e+65  -4.20986e+66
   6.99267e+58   1.88008e+59   1.06417e+60     6.334e+67  8.84387e+134  3.76656e+200   5.59246e+67   2.48607e+67   9.79281e+65      3.75e+67   3.43758e+66   -2.9228e+64  -9.85593e+66
   1.66992e+59   5.58575e+58   1.09066e+60   7.25682e+67  1.10657e+135  1.39278e+201   6.44947e+67   2.19552e+67   2.94118e+66   4.76718e+67   5.45072e+66  -6.67181e+65    -1.071e+67
   3.22114e+57   9.64683e+58   7.49414e+59   6.03865e+67  6.59028e+134  2.96821e+200   5.46581e+67   1.36773e+67    1.6273e+66    4.5082e+67   3.34269e+66  -4.77212e+66  -4.38659e+66
  -8.21658e+58   2.15116e+59   8.09813e+59   4.97151e+67  4.37802e+134 -6.10013e+200   4.50975e+67   1.57531e+67  -6.41443e+65   3.46034e+67   2.09832e+66  -4.13417e+66  -7.31531e+66
   2.36072e+59   7.41663e+58   7.00197e+59   5.27784e+67  6.85647e+134  1.93373e+201   4.58248e+67   1.77479e+67   4.21277e+66   3.08177e+67   1.96727e+66  -3.96349e+65  -7.86591e+66
   2.59404e+59  -3.29132e+46   6.99476e+59   3.77739e+67  2.29312e+134  1.62877e+200   3.46057e+67   8.01409e+66   1.02284e+66    2.8737e+67   1.10229e+66  -3.40423e+64  -6.11254e+66
   3.33413e+58  -1.54826e+46   4.80335e+59   3.39043e+67   1.6223e+134 -1.25088e+200   3.14208e+67   6.51441e+66  -5.24454e+65   2.79143e+67   1.00342e+66   -5.8864e+65  -4.53818e+65
   1.21023e+58   8.18351e+58   4.92794e+59   3.50736e+67  2.11299e+134 -7.04737e+199   3.19196e+67   8.29577e+66  -2.75848e+65   2.70537e+67   3.12083e+65  -9.50946e+65  -1.54252e+66
   1.66992e+59   5.58575e+58   1.09066e+60   9.24708e+67  2.32702e+135  1.65362e+202   7.88912e+67   2.61864e+67   1.43813e+67   5.19031e+67   5.23922e+66  -3.60717e+66    -1.071e+67
    2.5958e+59  -4.34821e+46   1.05492e+60   7.37961e+67  1.34407e+135  6.48949e+201   6.40452e+67   1.56723e+67   1.04111e+67   4.77127e+67   4.37423e+66  -1.68855e+66  -6.45103e+66
   4.06817e+58  -2.08177e+46   7.16003e+59   6.13329e+67  7.75363e+134   2.0132e+201   5.46476e+67   1.23457e+67   3.92415e+66    4.5063e+67   1.76979e+66  -1.57847e+66  -7.92315e+65
   3.22114e+57   9.64683e+58   7.49414e+59   6.61724e+67  9.60975e+134  3.12112e+201   5.84621e+67   1.49073e+67   4.95303e+66   4.63121e+67   1.07846e+66  -3.49709e+66  -4.38659e+66
   2.59404e+59  -3.29132e+46   6.99476e+59   3.77739e+67  2.29312e+134  1.62877e+200   3.46057e+67   8.01409e+66   1.02284e+66    2.8737e+67  -1.10229e+66   3.40423e+64  -6.11254e+66
   2.36072e+59  -7.41663e+58   7.00197e+59   5.27784e+67  6.85647e+134  1.93373e+201   4.58248e+67   1.77479e+67   4.21277e+66   3.08177e+67  -1.96727e+66   3.96349e+65  -7.86591e+66
   1.21023e+58  -8.18351e+58   4.92794e+59   3.50736e+67  2.11299e+134 -7.04737e+199   3.19196e+67   8.29577e+66  -2.75848e+65   2.70537e+67  -3.12083e+65   9.50946e+65  -1.54252e+66
   3.33413e+58  -1.54826e+46   4.80335e+59   3.39043e+67   1.6223e+134 -1.25088e+200   3.14208e+67   6.51441e+66  -5.24454e+65   2.79143e+67  -1.00342e+66    5.8864e+65  -4.53818e+65
    2.5958e+59  -4.34821e+46   1.05492e+60   7.37961e+67  1.34407e+135  6.48949e+201   6.40452e+67   1.56723e+67   1.04111e+67   4.77127e+67  -4.37423e+66   1.68855e+66  -6.45103e+66
   1.66992e+59  -5.58575e+58   1.09066e+60   9.24708e+67  2.32702e+135  1.65362e+202   7.88912e+67   2.61864e+67   1.43813e+67   5.19031e+67  -5.23922e+66   3.60717e+66    -1.071e+67
   3.22114e+57  -9.64683e+58   7.49414e+59   6.61724e+67  9.60975e+134  3.12112e+201   5.84621e+67   1.49073e+67   4.95303e+66   4.63121e+67  -1.07846e+66   3.49709e+66  -4.38659e+66
   4.06817e+58  -2.08177e+46   7.16003e+59   6.13329e+67  7.75363e+134   2.0132e+201   5.46476e+67   1.23457e+67   3.92415e+66    4.5063e+67  -1.76979e+66   1.57847e+66  -7.92315e+65
   2.36072e+59  -7.41663e+58   7.00197e+59   4.87681e+67   5.2442e+134   5.9499e+200    4.3057e+67   1.68953e+67    1.9076e+66   2.99651e+67  -3.01703e+66   5.16634e+65  -7.86591e+66
   1.90521e+59  -1.63706e+59   7.03464e+59   6.04274e+67  9.69689e+134  3.14799e+201   5.17859e+67   2.42415e+67   4.38636e+66   3.17996e+67  -1.00389e+66   6.47451e+65  -6.75047e+66
  -2.73041e+58  -1.74143e+59    5.0288e+59   4.25576e+67  3.93571e+134  1.09851e+200   3.76507e+67   1.42315e+67   3.25628e+65   2.80005e+67   7.39871e+64   9.69607e+65  -4.20986e+66
   1.21023e+58  -8.18351e+58   4.92794e+59   3.23415e+67  1.36663e+134 -4.11348e+200   3.01548e+67   7.71492e+66  -1.84629e+66   2.64729e+67  -1.17038e+66    8.3879e+65  -1.54252e+66
   1.66992e+59  -5.58575e+58   1.09066e+60   7.25682e+67  1.10657e+135  1.39278e+201   6.44947e+67   2.19552e+67   2.94118e+66   4.76718e+67  -5.45072e+66   6.67181e+65    -1.071e+67
   6.99267e+58  -1.88008e+59   1.06417e+60     6.334e+67  8.84387e+134  3.76656e+200   5.59246e+67   2.48607e+67   9.79281e+65      3.75e+67  -3.43758e+66    2.9228e+64  -9.85593e+66
  -8.21658e+58  -2.15116e+59   8.09813e+59   4.97151e+67  4.37802e+134 -6.10013e+200   4.50975e+67   1.57531e+67  -6.41443e+65   3.46034e+67  -2.09832e+66   4.13417e+66  -7.31531e+66
   3.22114e+57  -9.64683e+58   7.49414e+59   6.03865e+67  6.59028e+134  2.96821e+200   5.46581e+67   1.36773e+67    1.6273e+66    4.5082e+67  -3.34269e+66   4.77212e+66  -4.38659e+66
  -2.73041e+58   1.74143e+59    5.0288e+59   4.80241e+67  4.21188e+134  5.21751e+200    4.3418e+67   1.53936e+67    1.4878e+66   3.11426e+67  -7.39871e+64   4.16719e+65  -1.12813e+67
   1.21023e+58   8.18351e+58   4.92794e+59   4.43846e+67  2.99467e+134  1.34047e+200   4.08721e+67   1.02753e+67   7.14061e+65   3.33953e+67   1.17038e+66   5.11814e+65  -8.55749e+66
  -6.33841e+58   6.09161e+58   2.39226e+59   3.77857e+67  1.74068e+134 -2.16549e+200   3.54075e+67   6.67235e+66  -8.79058e+65   3.19924e+67   9.49609e+65  -1.00139e+66   -1.8717e+66
  -9.54503e+58   1.55237e+59   2.81341e+59   2.79618e+67  7.36871e+132 -3.16772e+200   2.78298e+67   4.05199e+66  -2.96759e+66   2.68774e+67  -5.89714e+65  -1.09648e+66  -2.86401e+66
  -8.21658e+58   2.15116e+59   8.09813e+59   8.76309e+67  1.70962e+135  8.11136e+201    7.7263e+67    2.3814e+67   7.41942e+66   5.63975e+67   2.09832e+66  -2.12924e+66  -1.48195e+67
   3.22114e+57   9.64683e+58   7.49414e+59   7.44307e+67  1.10033e+135  3.12359e+201   6.66304e+67    1.6663e+67   4.61307e+66   5.31546e+67   3.34269e+66   -1.7392e+66  -9.65748e+66
   -4.8982e+58   7.28823e+58    3.5433e+59   6.62031e+67  7.75562e+134  1.29623e+201   6.00607e+67   1.27139e+67    2.0838e+66   5.14055e+67   6.83692e+65  -1.52092e+66  -2.97169e+66
  -7.54197e+58   1.99786e+59   4.10109e+59   6.59401e+67  7.12198e+134  1.08718e+201   6.02984e+67   1.21261e+67   2.02788e+66   5.17861e+67  -8.55631e+65  -1.91096e+66  -6.40223e+66
   1.21023e+58   8.18351e+58   4.92794e+59   4.71168e+67  3.97781e+134  6.68164e+200   4.26873e+67   1.08561e+67    2.2845e+66   3.39762e+67   3.12083e+65   3.99658e+65  -8.55749e+66
   3.33413e+58  -1.54826e+46   4.80335e+59   4.05028e+67  2.35726e+134  1.51254e+200     3.748e+67   7.91725e+66   8.78377e+65   3.17071e+67   1.00342e+66   -5.8864e+65  -6.98277e+66
  -5.45253e+58  -3.70935e+45   2.35898e+59   4.30611e+67   3.7288e+134  8.04141e+200   3.84887e+67   7.41119e+66   3.39887e+66    3.2251e+67   4.18524e+65  -1.57201e+65  -8.63586e+65
  -6.33841e+58   6.09161e+58   2.39226e+59      4.65e+67  4.59301e+134  1.17099e+201   4.12668e+67   8.52501e+66   4.12998e+66    3.3845e+67  -1.46807e+65   8.31097e+65   -1.8717e+66
   3.22114e+57   9.64683e+58   7.49414e+59   8.02166e+67  1.45226e+135  6.92747e+201   7.05864e+67   1.78931e+67   7.93881e+66   5.43847e+67   1.07846e+66  -4.64166e+65  -9.65748e+66
   4.06817e+58  -2.08177e+46   7.16003e+59   7.04739e+67  1.03608e+135  3.73669e+201   6.26937e+67   1.42891e+67   5.86753e+66   5.03173e+67   1.76979e+66  -1.57847e+66  -7.50774e+66
  -3.60729e+58  -5.72273e+45   3.42044e+59    7.3728e+67  1.27866e+135  6.20513e+201   6.44761e+67   1.39309e+67   8.78795e+66   5.10091e+67   6.09879e+65  -5.80417e+65  -1.38856e+66
   -4.8982e+58   7.28823e+58    3.5433e+59   8.02956e+67  1.55955e+135  8.60919e+201    6.9913e+67   1.57099e+67   1.01842e+67   5.44015e+67   4.45485e+64   5.33885e+65  -2.97169e+66
   3.33413e+58  -1.54826e+46   4.80335e+59   4.05028e+67  2.35726e+134  1.51254e+200     3.748e+67   7.91725e+66   8.78377e+65   3.17071e+67  -1.00342e+66    5.8864e+65  -6.98277e+66
   1.21023e+58  -8.18351e+58   4.92794e+59   4.71168e+67  3.97781e+134  6.68164e+200   4.26873e+67   1.08561e+67    2.2845e+66   3.39762e+67  -3.12083e+65  -3.99658e+65  -8.55749e+66
  -6.33841e+58  -6.09161e+58   2.39226e+59      4.65e+67  4.59301e+134  1.17099e+201   4.12668e+67   8.52501e+66   4.12998e+66    3.3845e+67   1.46807e+65  -8.31097e+65   -1.8717e+66
  -5.45253e+58  -3.70935e+45   2.35898e+59   4.30611e+67   3.7288e+134  8.04141e+200   3.84887e+67   7.41119e+66   3.39887e+66    3.2251e+67  -4.18524e+65   1.57201e+65  -8.63586e+65
   4.06817e+58  -2.08177e+46   7.16003e+59   7.04739e+67  1.03608e+135  3.73669e+201   6.26937e+67   1.42891e+67   5.86753e+66   5.03173e+67  -1.76979e+66   1.57847e+66  -7.50774e+66
   3.22114e+57  -9.64683e+58   7.49414e+59   8.02166e+67  1.45226e+135  6.92747e+201   7.05864e+67   1.78931e+67   7.93881e+66   5.43847e+67  -1.07846e+66   4.64166e+65  -9.65748e+66
   -4.8982e+58  -7.28823e+58    3.5433e+59   8.02956e+67  1.55955e+135  8.60919e+201    6.9913e+67   1.57099e+67   1.01842e+67   5.44015e+67  -4.45485e+64  -5.33885e+65  -2.97169e+66
  -3.60729e+58  -5.72273e+45   3.42044e+59    7.3728e+67  1.27866e+135  6.20513e+201   6.44761e+67   1.39309e+67   8.78795e+66   5.10091e+67  -6.09879e+65   5.80417e+65  -1.38856e+66
   1.21023e+58  -8.18351e+58   4.92794e+59   4.43846e+67  2.99467e+134  1.34047e+200   4.08721e+67   1.02753e+67   7.14061e+65   3.33953e+67  -1.17038e+66  -5.11814e+65  -8.55749e+66
  -2.73041e+58  -1.74143e+59    5.0288e+59   4.80241e+67  4.21188e+134  5.21751e+200    4.3418e+67   1.53936e+67    1.4878e+66   3.11426e+67   7.39871e+64  -4.16719e+65  -1.12813e+67
  -9.54503e+58  -1.55237e+59   2.81341e+59   2.79618e+67  7.36871e+132 -3.16772e+200   2.78298e+67   4.05199e+66  -2.96759e+66   2.68774e+67   5.89714e+65   1.09648e+66  -2.86401e+66
  -6.33841e+58  -6.09161e+58   2.39226e+59   3.77857e+67  1.74068e+134 -2.16549e+200   3.54075e+67   6.67235e+66  -8.79058e+65   3.19924e+67  -9.49609e+65   1.00139e+66   -1.8717e+66
   3.22114e+57  -9.64683e+58   7.49414e+59   7.44307e+67  1.10033e+135  3.12359e+201   6.66304e+67    1.6663e+67   4.61307e+66   5.31546e+67  -3.34269e+66    1.7392e+66  -9.65748e+66
  -8.21658e+58  -2.15116e+59   8.09813e+59   8.76309e+67  1.70962e+135  8.11136e+201    7.7263e+67    2.3814e+67   7.41942e+66   5.63975e+67  -2.09832e+66   2.12924e+66  -1.48195e+67
  -7.54197e+58  -1.99786e+59   4.10109e+59   6.59401e+67  7.12198e+134  1.08718e+201   6.02984e+67   1.21261e+67   2.02788e+66   5.17861e+67   8.55631e+65   1.91096e+66  -6.40223e+66
   -4.8982e+58  -7.28823e+58    3.5433e+59   6.62031e+67  7.75562e+134  1.29623e+201   6.00607e+67   1.27139e+67    2.0838e+66   5.14055e+67  -6.83692e+65   1.52092e+66  -2.97169e+66
  -9.54503e+58   1.55237e+59   2.81341e+59   4.35624e+67   1.3809e+134 -1.03131e+200   4.19475e+67   7.36864e+66   3.49063e+65   3.58447e+67  -5.89714e+65   5.34436e+66   -1.0593e+67
  -6.33841e+58   6.09161e+58   2.39226e+59   3.40442e+67  4.27693e+133 -2.20372e+200   3.34101e+67   5.87692e+66  -1.67449e+66   2.98418e+67   9.49609e+65   8.88242e+65   -8.4325e+66
           265            -5           -50   6.24068e+67  1.11064e+135  6.08557e+201   5.27633e+67   1.32676e+67   1.32676e+67   3.58716e+67  -8.65501e+51   2.87793e+66  -2.99452e+66
           265           -10           -50   7.33933e+67  1.48584e+135  9.11432e+201   6.24558e+67   1.56033e+67   1.56033e+67   4.21867e+67   7.67873e+51   7.33404e+66  -4.50946e+66
  -7.54197e+58   1.99786e+59   4.10109e+59   6.86542e+67  7.09639e+134  1.00811e+201   6.32753e+67   1.27031e+67   2.60491e+66   5.33462e+67  -8.55631e+65   6.80348e+66  -9.64665e+66
   -4.8982e+58   7.28823e+58    3.5433e+59   5.55716e+67  4.02438e+134 -1.09506e+200   5.18243e+67   1.04536e+67  -1.76449e+65   4.52944e+67   6.83692e+65   8.08037e+65  -7.75209e+66
           260            -5           -50   9.24339e+67  2.45716e+135  2.01797e+202   7.80183e+67   1.96513e+67   1.96513e+67   5.31313e+67    -1.154e+52   3.44326e+66  -2.31411e+66
           260           -10           -50   1.06985e+68  3.21294e+135   2.9498e+202   9.07349e+67   2.27448e+67   2.27448e+67   6.14952e+67   1.07333e+52    9.4387e+66  -3.56313e+66
  -6.33841e+58   6.09161e+58   2.39226e+59   4.27585e+67  2.97915e+134  5.28639e+200   3.91201e+67   7.72958e+66   3.33455e+66   3.16944e+67  -1.46807e+65   2.72073e+66   -8.4325e+66
  -5.45253e+58  -3.70935e+45   2.35898e+59   4.08339e+67  2.67943e+134  4.55407e+200   3.74094e+67   6.93769e+66   2.92537e+66   3.09708e+67   4.18524e+65  -1.57201e+65  -7.59076e+66
           265             0           -50   6.15387e+67  1.09009e+135  5.96778e+201   5.19319e+67    1.3083e+67    1.3083e+67   3.53727e+67  -1.87803e+51  -1.76128e+53    -2.576e+66
           265            -5           -50   6.24068e+67  1.11064e+135  6.08557e+201   5.27633e+67   1.32676e+67   1.32676e+67   3.58716e+67    2.5664e+51   2.87793e+66  -2.99452e+66
   -4.8982e+58   7.28823e+58    3.5433e+59   6.96641e+67  1.07042e+135  4.55803e+201   6.15033e+67   1.34496e+67   7.92395e+66   4.82905e+67   4.45485e+64   2.86284e+66  -7.75209e+66
  -3.60729e+58  -5.72273e+45   3.42044e+59   6.54025e+67   9.2601e+134   3.6116e+201    5.7892e+67   1.21609e+67   7.01796e+66   4.62236e+67   6.09879e+65  -5.80417e+65    -6.719e+66
           260             0           -50    8.9229e+67  2.30286e+135  1.84017e+202    7.5226e+67   1.89699e+67   1.89699e+67   5.12891e+67  -2.40855e+51  -2.72003e+53  -1.70423e+66
           260            -5           -50   9.24339e+67  2.45716e+135  2.01797e+202   7.80183e+67   1.96513e+67   1.96513e+67   5.31313e+67   2.67747e+51   3.44326e+66  -2.31411e+66
  -5.45253e+58  -3.70935e+45   2.35898e+59   4.08339e+67  2.67943e+134  4.55407e+200   3.74094e+67   6.93769e+66   2.92537e+66   3.09708e+67  -4.18524e+65   1.57201e+65  -7.59076e+66
  -6.33841e+58  -6.09161e+58   2.39226e+59   4.27585e+67  2.97915e+134  5.28639e+200   3.91201e+67   7.72958e+66   3.33455e+66   3.16944e+67   1.46807e+65  -2.72073e+66   -8.4325e+66
           265             5           -50   6.24068e+67  1.11064e+135  6.08557e+201   5.27633e+67   1.32676e+67   1.32676e+67   3.58716e+67   4.77911e+51  -2.87793e+66  -2.99452e+66
           265             0           -50   6.15387e+67  1.09009e+135  5.96778e+201   5.19319e+67    1.3083e+67    1.3083e+67   3.53727e+67  -1.62154e+51  -1.75404e+53    -2.576e+66
  -3.60729e+58  -5.72273e+45   3.42044e+59   6.54025e+67   9.2601e+134   3.6116e+201    5.7892e+67   1.21609e+67   7.01796e+66   4.62236e+67  -6.09879e+65   5.80417e+65    -6.719e+66
   -4.8982e+58  -7.28823e+58    3.5433e+59   6.96641e+67  1.07042e+135  4.55803e+201   6.15033e+67   1.34496e+67   7.92395e+66   4.82905e+67  -4.45485e+64  -2.86284e+66  -7.75209e+66
           260             5           -50   9.24339e+67  2.45716e+135  2.01797e+202   7.80183e+67   1.96513e+67   1.96513e+67   5.31313e+67    5.2731e+51  -3.44326e+66  -2.31411e+66
           260             0           -50    8.9229e+67  2.30286e+135  1.84017e+202    7.5226e+67   1.89699e+67   1.89699e+67   5.12891e+67  -1.92041e+51   -2.6929e+53  -1.70423e+66
  -6.33841e+58  -6.09161e+58   2.39226e+59   3.40442e+67  4.27693e+133 -2.20372e+200   3.34101e+67   5.87692e+66  -1.67449e+66   2.98418e+67  -9.49609e+65  -8.88242e+65   -8.4325e+66
  -9.54503e+58  -1.55237e+59   2.81341e+59   4.35624e+67   1.3809e+134 -1.03131e+200   4.19475e+67   7.36864e+66   3.49063e+65   3.58447e+67   5.89714e+65  -5.34436e+66   -1.0593e+67
           265            10           -50   7.33933e+67  1.48584e+135  9.11432e+201   6.24558e+67   1.56033e+67   1.56033e+67   4.21867e+67   1.41999e+52  -7.33404e+66  -4.50946e+66
           265             5           -50   6.24068e+67  1.11064e+135  6.08557e+201   5.27633e+67   1.32676e+67   1.32676e+67   3.58716e+67  -6.67906e+51  -2.87793e+66  -2.99452e+66
   -4.8982e+58  -7.28823e+58    3.5433e+59   5.55716e+67  4.02438e+134 -1.09506e+200   5.18243e+67   1.04536e+67  -1.76449e+65   4.52944e+67  -6.83692e+65  -8.08037e+65  -7.75209e+66
  -7.54197e+58  -1.99786e+59   4.10109e+59   6.86542e+67  7.09639e+134  1.00811e+201   6.32753e+67   1.27031e+67   2.60491e+66   5.33462e+67   8.55631e+65  -6.80348e+66  -9.64665e+66
           260            10           -50   1.06985e+68  3.21294e+135   2.9498e+202   9.07349e+67   2.27448e+67   2.27448e+67   6.14952e+67   1.63337e+52   -9.4387e+66  -3.56313e+66
           260             5           -50   9.24339e+67  2.45716e+135  2.01797e+202   7.80183e+67   1.96513e+67   1.96513e+67   5.31313e+67   -7.9038e+51  -3.44326e+66  -2.31411e+66
   6.53862e+59   1.01016e+59    4.8442e+59   2.83872e+67   2.1531e+134  2.08069e+200   2.43007e+67   1.31633e+67   1.13718e+66   1.40867e+67  -2.18451e+65  -2.95139e+65   9.85711e+65
   6.86385e+59     4.918e+58   4.96889e+59   2.64183e+67  1.80721e+134   1.0355e+200   2.27421e+67   1.14961e+67   7.18594e+65   1.42036e+67   9.81163e+65   1.01711e+65   2.43371e+65
   3.02188e+59   5.94963e+58   4.06009e+59   2.52419e+67  1.34692e+134 -6.15233e+199   2.24156e+67   1.16136e+67   -3.2521e+65   1.39535e+67   9.65948e+65  -1.66035e+65   4.25235e+66
   2.67072e+59   1.19732e+59   3.99207e+59   2.64859e+67  1.58705e+134 -1.44031e+199    2.3298e+67   1.28641e+67  -6.07437e+64   1.36825e+67  -4.18458e+65  -5.62885e+65   3.89919e+66
   5.78422e+59   1.38162e+59   8.50346e+59   3.78507e+67  3.59305e+134  2.45087e+200   3.27624e+67   1.51752e+67   7.49882e+65   2.19256e+67    4.0587e+65   2.15626e+63   1.03822e+66
   6.24159e+59   6.09346e+58   8.75934e+59   4.19309e+67  4.39635e+134   5.4028e+200    3.6312e+67    1.4794e+67   1.61731e+66   2.55195e+67   1.60548e+66   5.83799e+65    4.2717e+65
   2.36072e+59   7.41663e+58   7.00197e+59   3.97341e+67  3.45204e+134 -7.68764e+199   3.51225e+67   1.46946e+67   -1.3006e+64   2.50525e+67   1.45898e+66  -7.79446e+65   4.43615e+66
   1.90521e+59   1.63706e+59   7.03464e+59    3.4929e+67  2.57624e+134 -3.35019e+200   3.10227e+67   1.46591e+67  -1.03456e+66   2.13045e+67   7.45741e+64  -1.36109e+66    3.9517e+66
   6.86385e+59     4.918e+58   4.96889e+59   2.71112e+67  1.95981e+134  1.85553e+200   2.32171e+67   1.16434e+67   1.11687e+66   1.43509e+67     4.016e+64  -2.89215e+65   2.43371e+65
   6.98989e+59  -4.08827e+46   5.01084e+59   2.52991e+67  1.63585e+134  1.01425e+200    2.1828e+67   1.01329e+67   7.31628e+65   1.44346e+67   5.95496e+65    1.9817e+65   5.10002e+65
   3.14683e+59  -2.38927e+46   4.05241e+59   2.39023e+67  1.14026e+134 -7.40274e+199   2.13844e+67   1.03048e+67  -5.40106e+65   1.41376e+67   5.90297e+65  -3.62688e+64   4.25532e+66
   3.02188e+59   5.94963e+58   4.06009e+59   2.54349e+67  1.39237e+134 -3.39614e+199   2.25321e+67   1.16546e+67  -2.14286e+65   1.39946e+67  -1.02772e+65  -5.23654e+65   4.25235e+66
   6.24159e+59   6.09346e+58   8.75934e+59   4.61813e+67  5.84793e+134  1.66608e+201   3.93436e+67   1.56977e+67   4.06047e+66   2.64232e+67   6.02767e+65  -6.88379e+65    4.2717e+65
   6.48672e+59  -5.52783e+46   8.74595e+59   4.29134e+67  4.87447e+134  1.16255e+201   3.67983e+67   1.38777e+67   3.36572e+66     2.567e+67    1.1581e+66  -6.32613e+64   7.44418e+65
   2.59404e+59  -3.29132e+46   6.99476e+59    4.0756e+67  3.93538e+134  5.15725e+200   3.56022e+67   1.38879e+67   1.65683e+66   2.52113e+67   1.10229e+66  -3.40423e+64   4.48974e+66
   2.36072e+59   7.41663e+58   7.00197e+59   4.37444e+67  4.77485e+134  8.64577e+200   3.78958e+67   1.55472e+67   2.29216e+66   2.59051e+67   4.09218e+65   -6.5916e+65   4.43615e+66
   6.98989e+59  -4.08827e+46   5.01084e+59   2.52991e+67  1.63585e+134  1.01425e+200    2.1828e+67   1.01329e+67   7.31628e+65   1.44346e+67  -5.95496e+65   -1.9817e+65   5.10002e+65
   6.86385e+59    -4.918e+58   4.96889e+59   2.71112e+67  1.95981e+134  1.85553e+200   2.32171e+67   1.16434e+67   1.11687e+66   1.43509e+67    -4.016e+64   2.89215e+65   2.43371e+65
   3.02188e+59  -5.94963e+58   4.06009e+59   2.54349e+67  1.39237e+134 -3.39614e+199   2.25321e+67   1.16546e+67  -2.14286e+65   1.39946e+67   1.02772e+65   5.23654e+65   4.25235e+66
   3.14683e+59  -2.38927e+46   4.05241e+59   2.39023e+67  1.14026e+134 -7.40274e+199   2.13844e+67   1.03048e+67  -5.40106e+65   1.41376e+67  -5.90297e+65   3.62688e+64   4.25532e+66
   6.48672e+59  -5.52783e+46   8.74595e+59   4.29134e+67  4.87447e+134  1.16255e+201   3.67983e+67   1.38777e+67   3.36572e+66     2.567e+67   -1.1581e+66   6.32613e+64   7.44418e+65
   6.24159e+59  -6.09346e+58   8.75934e+59   4.61813e+67  5.84793e+134  1.66608e+201   3.93436e+67   1.56977e+67   4.06047e+66   2.64232e+67  -6.02767e+65   6.88379e+65    4.2717e+65
   2.36072e+59  -7.41663e+58   7.00197e+59   4.37444e+67  4.77485e+134  8.64577e+200   3.78958e+67   1.55472e+67   2.29216e+66   2.59051e+67  -4.09218e+65    6.5916e+65   4.43615e+66
   2.59404e+59  -3.29132e+46   6.99476e+59    4.0756e+67  3.93538e+134  5.15725e+200   3.56022e+67   1.38879e+67   1.65683e+66   2.52113e+67  -1.10229e+66   3.40423e+64   4.48974e+66
   6.86385e+59    -4.918e+58   4.96889e+59   2.64183e+67  1.80721e+134   1.0355e+200   2.27421e+67   1.14961e+67   7.18594e+65   1.42036e+67  -9.81163e+65  -1.01711e+65   2.43371e+65
   6.53862e+59  -1.01016e+59    4.8442e+59   2.83872e+67   2.1531e+134  2.08069e+200   2.43007e+67   1.31633e+67   1.13718e+66   1.40867e+67   2.18451e+65   2.95139e+65   9.85711e+65
   2.67072e+59  -1.19732e+59   3.99207e+59   2.64859e+67  1.58705e+134 -1.44031e+199    2.3298e+67   1.28641e+67  -6.07437e+64   1.36825e+67   4.18458e+65   5.62885e+65   3.89919e+66
   3.02188e+59  -5.94963e+58   4.06009e+59   2.52419e+67  1.34692e+134 -6.15233e+199   2.24156e+67   1.16136e+67   -3.2521e+65   1.39535e+67  -9.65948e+65   1.66035e+65   4.25235e+66
   6.24159e+59  -6.09346e+58   8.75934e+59   4.19309e+67  4.39635e+134   5.4028e+200    3.6312e+67    1.4794e+67   1.61731e+66   2.55195e+67  -1.60548e+66  -5.83799e+65    4.2717e+65
   5.78422e+59  -1.38162e+59   8.50346e+59   3.78507e+67  3.59305e+134  2.45087e+200   3.27624e+67   1.51752e+67   7.49882e+65   2.19256e+67   -4.0587e+65  -2.15626e+63   1.03822e+66
   1.90521e+59  -1.63706e+59   7.03464e+59    3.4929e+67  2.57624e+134 -3.35019e+200   3.10227e+67   1.46591e+67  -1.03456e+66   2.13045e+67  -7.45741e+64   1.36109e+66    3.9517e+66
   2.36072e+59  -7.41663e+58   7.00197e+59   3.97341e+67  3.45204e+134 -7.68764e+199   3.51225e+67   1.46946e+67   -1.3006e+64   2.50525e+67  -1.45898e+66   7.79446e+65   4.43615e+66
   2.67072e+59   1.19732e+59   3.99207e+59   3.05313e+67  2.35323e+134  1.66543e+200   2.63977e+67   1.37242e+67    7.9932e+65   1.60079e+67  -4.18458e+65   7.39939e+64  -2.82065e+66
   3.02188e+59   5.94963e+58   4.06009e+59   3.22412e+67  2.65153e+134  2.49531e+200   2.78271e+67   1.31016e+67   1.16284e+66   1.79768e+67   9.65948e+65   1.66363e+65    -2.356e+66
   5.78686e+58   6.27769e+58   2.88297e+59   2.64226e+67  1.54977e+134 -5.79605e+199   2.33061e+67   9.94177e+66  -2.58933e+65   1.67397e+67   7.69655e+65  -6.36337e+65   1.88138e+66
   2.25193e+58   1.24968e+59   2.98486e+59   2.30487e+67  1.10506e+134 -1.41156e+200   2.05118e+67   9.60784e+66  -9.76221e+65   1.44171e+67    -6.532e+65  -7.28706e+65   1.89727e+66
   1.90521e+59   1.63706e+59   7.03464e+59   4.89382e+67  5.92029e+134  9.66877e+200   4.24608e+67   1.76374e+67   1.94377e+66    2.9357e+67   7.45741e+64  -6.47451e+65  -4.08342e+66
   2.36072e+59   7.41663e+58   7.00197e+59   4.79947e+67  5.57469e+134  7.72576e+200   4.17854e+67   1.64508e+67   1.74318e+66   2.98007e+67   1.45898e+66  -5.16634e+65  -3.31741e+66
   1.21023e+58   8.18351e+58   4.92794e+59   4.19637e+67  3.83603e+134  3.79856e+199   3.71126e+67   1.32458e+67   1.99372e+65   2.85185e+67   9.61332e+65   -8.3879e+65   9.19979e+65
  -2.73041e+58   1.74143e+59    5.0288e+59   4.12432e+67  3.73916e+134 -7.65378e+197   3.64292e+67    1.3476e+67   4.62012e+64   2.77211e+67  -4.61523e+65  -9.69607e+65   6.34515e+65
   3.02188e+59   5.94963e+58   4.06009e+59   3.24342e+67  2.70895e+134  2.93796e+200   2.79479e+67   1.31426e+67   1.27377e+66   1.80178e+67  -1.02772e+65  -1.91256e+65    -2.356e+66
   3.14683e+59  -2.38927e+46   4.05241e+59    3.0632e+67  2.32219e+134  1.77348e+200   2.65726e+67   1.17355e+67   8.90619e+65   1.80059e+67   5.90297e+65  -3.62688e+64  -2.28641e+66
    6.8843e+58  -1.05686e+46   2.83601e+59   2.46169e+67  1.20278e+134 -1.01986e+200   2.20389e+67   8.58801e+66  -6.98151e+65   1.67271e+67   5.18476e+65  -2.21873e+65   2.31997e+66
   5.78686e+58   6.27769e+58   2.88297e+59   2.62698e+67    1.525e+134 -5.94831e+199   2.31862e+67   9.90929e+66  -3.46755e+65   1.67073e+67  -3.81911e+65   -3.7686e+65   1.88138e+66
   2.36072e+59   7.41663e+58   7.00197e+59    5.2005e+67  7.13221e+134  2.09594e+201    4.4624e+67   1.73034e+67   4.04835e+66   3.06533e+67   4.09218e+65  -3.96349e+65  -3.31741e+66
   2.59404e+59  -3.29132e+46   6.99476e+59   5.22403e+67  7.05193e+134  2.04807e+201   4.49873e+67   1.63294e+67   4.09837e+66   3.18125e+67   1.10229e+66  -3.40423e+64  -3.22076e+66
   3.33413e+58  -1.54826e+46   4.80335e+59   4.50805e+67  4.68681e+134  6.85486e+200    3.9542e+67   1.29385e+67   1.85159e+66   3.02903e+67   1.00342e+66   -5.8864e+65   1.38561e+66
   1.21023e+58   8.18351e+58   4.92794e+59   4.46958e+67  4.76556e+134  6.97589e+200   3.90021e+67   1.38266e+67   1.76982e+66   2.90994e+67    1.0303e+65  -9.50946e+65   9.19979e+65
   3.14683e+59  -2.38927e+46   4.05241e+59    3.0632e+67  2.32219e+134  1.77348e+200   2.65726e+67   1.17355e+67   8.90619e+65   1.80059e+67  -5.90297e+65   3.62688e+64  -2.28641e+66
   3.02188e+59  -5.94963e+58   4.06009e+59   3.24342e+67  2.70895e+134  2.93796e+200   2.79479e+67   1.31426e+67   1.27377e+66   1.80178e+67   1.02772e+65   1.91256e+65    -2.356e+66
   5.78686e+58  -6.27769e+58   2.88297e+59   2.62698e+67    1.525e+134 -5.94831e+199   2.31862e+67   9.90929e+66  -3.46755e+65   1.67073e+67   3.81911e+65    3.7686e+65   1.88138e+66
    6.8843e+58  -1.05686e+46   2.83601e+59   2.46169e+67  1.20278e+134 -1.01986e+200   2.20389e+67   8.58801e+66  -6.98151e+65   1.67271e+67  -5.18476e+65   2.21873e+65   2.31997e+66
   2.59404e+59  -3.29132e+46   6.99476e+59   5.22403e+67  7.05193e+134  2.04807e+201   4.49873e+67   1.63294e+67   4.09837e+66   3.18125e+67  -1.10229e+66   3.40423e+64  -3.22076e+66
   2.36072e+59  -7.41663e+58   7.00197e+59    5.2005e+67  7.13221e+134  2.09594e+201    4.4624e+67   1.73034e+67   4.04835e+66   3.06533e+67  -4.09218e+65   3.96349e+65  -3.31741e+66
   1.21023e+58  -8.18351e+58   4.92794e+59   4.46958e+67  4.76556e+134  6.97589e+200   3.90021e+67   1.38266e+67   1.76982e+66   2.90994e+67   -1.0303e+65   9.50946e+65   9.19979e+65
   3.33413e+58  -1.54826e+46   4.80335e+59   4.50805e+67  4.68681e+134  6.85486e+200    3.9542e+67   1.29385e+67   1.85159e+66   3.02903e+67  -1.00342e+66    5.8864e+65   1.38561e+66
   3.02188e+59  -5.94963e+58   4.06009e+59   3.22412e+67  2.65153e+134  2.49531e+200   2.78271e+67   1.31016e+67   1.16284e+66   1.79768e+67  -9.65948e+65  -1.66363e+65    -2.356e+66
   2.67072e+59  -1.19732e+59   3.99207e+59   3.05313e+67  2.35323e+134  1.66543e+200   2.63977e+67   1.37242e+67    7.9932e+65   1.60079e+67   4.18458e+65  -7.39939e+64  -2.82065e+66
   2.25193e+58  -1.24968e+59   2.98486e+59   2.30487e+67  1.10506e+134 -1.41156e+200   2.05118e+67   9.60784e+66  -9.76221e+65   1.44171e+67     6.532e+65   7.28706e+65   1.89727e+66
   5.78686e+58  -6.27769e+58   2.88297e+59   2.64226e+67  1.54977e+134 -5.79605e+199   2.33061e+67   9.94177e+66  -2.58933e+65   1.67397e+67  -7.69655e+65   6.36337e+65   1.88138e+66
   2.36072e+59  -7.41663e+58   7.00197e+59   4.79947e+67  5.57469e+134  7.72576e+200   4.17854e+67   1.64508e+67   1.74318e+66   2.98007e+67  -1.45898e+66   5.16634e+65  -3.31741e+66
   1.90521e+59  -1.63706e+59   7.03464e+59   4.89382e+67  5.92029e+134  9.66877e+200   4.24608e+67   1.76374e+67   1.94377e+66    2.9357e+67  -7.45741e+64   6.47451e+65  -4.08342e+66
  -2.73041e+58  -1.74143e+59    5.0288e+59   4.12432e+67  3.73916e+134 -7.65378e+197   3.64292e+67    1.3476e+67   4.62012e+64   2.77211e+67   4.61523e+65   9.69607e+65   6.34515e+65
   1.21023e+58  -8.18351e+58   4.92794e+59   4.19637e+67  3.83603e+134  3.79856e+199   3.71126e+67   1.32458e+67   1.99372e+65   2.85185e+67  -9.61332e+65    8.3879e+65   9.19979e+65
   2.25193e+58   1.24968e+59   2.98486e+59   3.01097e+67  1.93129e+134  8.66396e+199   2.67108e+67    1.1109e+67   5.24951e+65   1.84758e+67    -6.532e+65   3.68549e+65  -5.20449e+66
   5.78686e+58   6.27769e+58   2.88297e+59   3.33143e+67  2.50492e+134  2.38494e+200   2.93146e+67   1.14069e+67   1.20623e+66   2.07011e+67   7.69655e+65   4.47737e+65  -4.85596e+66
   -4.3844e+58   4.31112e+58   1.44167e+59   2.60354e+67  1.27693e+134 -7.57911e+199   2.34552e+67   7.38139e+66  -4.99625e+65   1.91536e+67   4.75469e+65  -3.24285e+65   3.14368e+65
   -7.1713e+58   1.06979e+59   1.70697e+59   2.28674e+67  9.04272e+133 -1.57923e+200   2.07964e+67   7.10447e+66  -1.17313e+66   1.69361e+67  -9.63293e+65  -4.03473e+65  -7.75341e+65
  -2.73041e+58   1.74143e+59    5.0288e+59   4.67097e+67  4.64942e+134  4.89211e+200    4.1435e+67   1.46381e+67   1.20837e+66   3.08632e+67  -4.61523e+65   4.16719e+65  -6.43691e+66
   1.21023e+58   8.18351e+58   4.92794e+59   5.40068e+67  6.63278e+134  1.40054e+201   4.74706e+67   1.58061e+67   2.75972e+66    3.5441e+67   9.61332e+65   5.11814e+65  -6.09499e+66
  -6.33841e+58   6.09161e+58   2.39226e+59   4.66401e+67  4.41912e+134  3.72999e+200    4.1634e+67   1.17619e+67   1.00338e+66   3.38748e+67   6.73764e+65  -1.00139e+66  -9.24665e+65
  -9.54503e+58   1.55237e+59   2.81341e+59   3.93796e+67  2.83685e+134 -1.99142e+200   3.55958e+67   1.06149e+67  -5.40201e+65   2.93048e+67  -7.64999e+65  -1.09648e+66  -2.00776e+66
   5.78686e+58   6.27769e+58   2.88297e+59   3.31615e+67  2.46705e+134  2.30477e+200   2.92058e+67   1.13744e+67    1.1184e+66   2.06686e+67  -3.81911e+65   7.07214e+65  -4.85596e+66
    6.8843e+58  -1.05686e+46   2.83601e+59   2.95101e+67  1.79508e+134  5.33672e+199   2.62933e+67   9.62829e+66   3.42131e+65   1.95397e+67   5.18476e+65  -2.21873e+65  -4.27629e+66
  -3.73761e+58  -1.90653e+45   1.43203e+59   2.98527e+67  2.18442e+134  3.52392e+200   2.59373e+67   7.96703e+66   2.27314e+66   1.96125e+67   3.05571e+65  -4.55452e+64   6.38929e+65
   -4.3844e+58   4.31112e+58   1.44167e+59     3.145e+67  2.47429e+134  4.39616e+200   2.72337e+67   8.53253e+66   2.61273e+66   2.03048e+67  -5.35606e+65   8.83541e+65   3.14368e+65
   1.21023e+58   8.18351e+58   4.92794e+59    5.6739e+67  7.79909e+134  2.39169e+201   4.93903e+67    1.6387e+67   4.33017e+66   3.60218e+67    1.0303e+65   3.99658e+65  -6.09499e+66
   3.33413e+58  -1.54826e+46   4.80335e+59    5.1679e+67  6.18585e+134  1.47145e+201   4.53004e+67   1.43414e+67   3.25442e+66   3.40832e+67   1.00342e+66   -5.8864e+65  -5.14333e+66
  -5.45253e+58  -3.70935e+45   2.35898e+59   5.23485e+67  6.88524e+134  2.33817e+201   4.52972e+67   1.27496e+67   5.37335e+66   3.42255e+67   4.18524e+65  -1.57201e+65  -2.28116e+65
  -6.33841e+58   6.09161e+58   2.39226e+59   5.53545e+67  7.81355e+134  2.90425e+201   4.77783e+67   1.36146e+67   6.01242e+66   3.57275e+67  -4.22652e+65   8.31097e+65  -9.24665e+65
    6.8843e+58  -1.05686e+46   2.83601e+59   2.95101e+67  1.79508e+134  5.33672e+199   2.62933e+67   9.62829e+66   3.42131e+65   1.95397e+67  -5.18476e+65   2.21873e+65  -4.27629e+66
   5.78686e+58  -6.27769e+58   2.88297e+59   3.31615e+67  2.46705e+134  2.30477e+200   2.92058e+67   1.13744e+67    1.1184e+66   2.06686e+67   3.81911e+65  -7.07214e+65  -4.85596e+66
   -4.3844e+58  -4.31112e+58   1.44167e+59     3.145e+67  2.47429e+134  4.39616e+200   2.72337e+67   8.53253e+66   2.61273e+66   2.03048e+67   5.35606e+65  -8.83541e+65   3.14368e+65
  -3.73761e+58  -1.90653e+45   1.43203e+59   2.98527e+67  2.18442e+134  3.52392e+200   2.59373e+67   7.96703e+66   2.27314e+66   1.96125e+67  -3.05571e+65   4.55452e+64   6.38929e+65
   3.33413e+58  -1.54826e+46   4.80335e+59    5.1679e+67  6.18585e+134  1.47145e+201   4.53004e+67   1.43414e+67   3.25442e+66   3.40832e+67  -1.00342e+66    5.8864e+65  -5.14333e+66
   1.21023e+58  -8.18351e+58   4.92794e+59    5.6739e+67  7.79909e+134  2.39169e+201   4.93903e+67    1.6387e+67   4.33017e+66   3.60218e+67   -1.0303e+65  -3.99658e+65  -6.09499e+66
  -6.33841e+58  -6.09161e+58   2.39226e+59   5.53545e+67  7.81355e+134  2.90425e+201   4.77783e+67   1.36146e+67   6.01242e+66   3.57275e+67   4.22652e+65  -8.31097e+65  -9.24665e+65
  -5.45253e+58  -3.70935e+45   2.35898e+59   5.23485e+67  6.88524e+134  2.33817e+201   4.52972e+67   1.27496e+67   5.37335e+66   3.42255e+67  -4.18524e+65   1.57201e+65  -2.28116e+65
   5.78686e+58  -6.27769e+58   2.88297e+59   3.33143e+67  2.50492e+134  2.38494e+200   2.93146e+67   1.14069e+67   1.20623e+66   2.07011e+67  -7.69655e+65  -4.47737e+65  -4.85596e+66
   2.25193e+58  -1.24968e+59   2.98486e+59   3.01097e+67  1.93129e+134  8.66396e+199   2.67108e+67    1.1109e+67   5.24951e+65   1.84758e+67     6.532e+65  -3.68549e+65  -5.20449e+66
   -7.1713e+58  -1.06979e+59   1.70697e+59   2.28674e+67  9.04272e+133 -1.57923e+200   2.07964e+67   7.10447e+66  -1.17313e+66   1.69361e+67   9.63293e+65   4.03473e+65  -7.75341e+65
   -4.3844e+58  -4.31112e+58   1.44167e+59   2.60354e+67  1.27693e+134 -7.57911e+199   2.34552e+67   7.38139e+66  -4.99625e+65   1.91536e+67  -4.75469e+65   3.24285e+65   3.14368e+65
   1.21023e+58  -8.18351e+58   4.92794e+59   5.40068e+67  6.63278e+134  1.40054e+201   4.74706e+67   1.58061e+67   2.75972e+66    3.5441e+67  -9.61332e+65  -5.11814e+65  -6.09499e+66
  -2.73041e+58  -1.74143e+59    5.0288e+59   4.67097e+67  4.64942e+134  4.89211e+200    4.1435e+67   1.46381e+67   1.20837e+66   3.08632e+67   4.61523e+65  -4.16719e+65  -6.43691e+66
  -9.54503e+58  -1.55237e+59   2.81341e+59   3.93796e+67  2.83685e+134 -1.99142e+200   3.55958e+67   1.06149e+67  -5.40201e+65   2.93048e+67   7.64999e+65   1.09648e+66  -2.00776e+66
  -6.33841e+58  -6.09161e+58   2.39226e+59   4.66401e+67  4.41912e+134  3.72999e+200    4.1634e+67   1.17619e+67   1.00338e+66   3.38748e+67  -6.73764e+65   1.00139e+66  -9.24665e+65
   -7.1713e+58   1.06979e+59   1.70697e+59    3.4061e+67  1.71693e+134  8.22772e+199   3.14397e+67    9.4842e+66    1.2066e+66   2.33702e+67  -9.63293e+65   3.80073e+66  -8.61528e+66
   -4.3844e+58   4.31112e+58   1.44167e+59   2.60453e+67  8.43529e+133 -6.27068e+199   2.43722e+67   7.38348e+66  -4.97526e+65   1.91593e+67   4.75469e+65   7.83378e+65  -6.56232e+66
           270            -5           -50   3.76089e+67  4.01183e+134  1.31454e+201   3.18315e+67   7.99559e+66   7.99559e+66   2.16177e+67  -5.78755e+51   2.03675e+66  -2.07137e+66
           270           -10           -50   4.45297e+67  5.37228e+134  1.94348e+201   3.80219e+67   9.46694e+66   9.46694e+66   2.55958e+67   5.72178e+51    5.0541e+66  -3.38802e+66
  -9.54503e+58   1.55237e+59   2.81341e+59   5.49801e+67   5.5418e+134   8.7646e+200   4.96853e+67   1.39316e+67   2.77645e+66   3.82721e+67  -7.64999e+65   5.34436e+66  -9.73673e+66
  -6.33841e+58   6.09161e+58   2.39226e+59   4.28986e+67  2.99506e+134  2.86821e+199   3.92529e+67   1.09665e+67   2.07953e+65   3.17242e+67   6.73764e+65   8.88242e+65  -7.48547e+66
           265            -5           -50   6.24068e+67  1.11064e+135  6.08557e+201   5.27633e+67   1.32676e+67   1.32676e+67   3.58716e+67   -7.7518e+51   2.87793e+66  -2.99452e+66
           265           -10           -50   7.33933e+67  1.48584e+135  9.11432e+201   6.24558e+67   1.56033e+67   1.56033e+67   4.21867e+67    7.8278e+51   7.33404e+66  -4.50946e+66
   -4.3844e+58   4.31112e+58   1.44167e+59   3.14599e+67  2.01451e+134  3.14986e+200   2.80762e+67   8.53463e+66   2.61483e+66   2.03104e+67  -5.35606e+65    1.9912e+66  -6.56232e+66
  -3.73761e+58  -1.90653e+45   1.43203e+59   3.05847e+67   1.9325e+134  3.01785e+200   2.72429e+67   8.12266e+66   2.42876e+66   2.00333e+67   3.05571e+65  -4.55452e+64   -6.1451e+66
           270             0           -50   3.73574e+67  4.01044e+134  1.32971e+201   3.15362e+67   7.94213e+66   7.94213e+66   2.14732e+67  -9.67514e+50  -9.10574e+52   -1.7658e+66
           270            -5           -50   3.76089e+67  4.01183e+134  1.31454e+201   3.18315e+67   7.99559e+66   7.99559e+66   2.16177e+67   1.30512e+51   2.03675e+66  -2.07137e+66
  -6.33841e+58   6.09161e+58   2.39226e+59    5.1613e+67  6.08861e+134  1.86954e+201   4.53326e+67   1.28191e+67   5.21699e+66   3.35769e+67  -4.22652e+65   2.72073e+66  -7.48547e+66
  -5.45253e+58  -3.70935e+45   2.35898e+59   5.01213e+67  5.77442e+134   1.7395e+201   4.39852e+67   1.22761e+67   4.89985e+66   3.29453e+67   4.18524e+65  -1.57201e+65  -6.95529e+66
           265             0           -50   6.15387e+67  1.09009e+135  5.96778e+201   5.19319e+67    1.3083e+67    1.3083e+67   3.53727e+67  -1.65442e+51  -1.75661e+53    -2.576e+66
           265            -5           -50   6.24068e+67  1.11064e+135  6.08557e+201   5.27633e+67   1.32676e+67   1.32676e+67   3.58716e+67   2.65409e+51   2.87793e+66  -2.99452e+66
  -3.73761e+58  -1.90653e+45   1.43203e+59   3.05847e+67   1.9325e+134  3.01785e+200   2.72429e+67   8.12266e+66   2.42876e+66   2.00333e+67  -3.05571e+65   4.55452e+64   -6.1451e+66
   -4.3844e+58  -4.31112e+58   1.44167e+59   3.14599e+67  2.01451e+134  3.14986e+200   2.80762e+67   8.53463e+66   2.61483e+66   2.03104e+67   5.35606e+65   -1.9912e+66  -6.56232e+66
           270             5           -50   3.76089e+67  4.01183e+134  1.31454e+201   3.18315e+67   7.99559e+66   7.99559e+66   2.16177e+67   2.62047e+51  -2.03675e+66  -2.07137e+66
           270             0           -50   3.73574e+67  4.01044e+134  1.32971e+201   3.15362e+67   7.94213e+66   7.94213e+66   2.14732e+67  -1.01867e+51  -8.91399e+52   -1.7658e+66
  -5.45253e+58  -3.70935e+45   2.35898e+59   5.01213e+67  5.77442e+134   1.7395e+201   4.39852e+67   1.22761e+67   4.89985e+66   3.29453e+67  -4.18524e+65   1.57201e+65  -6.95529e+66
  -6.33841e+58  -6.09161e+58   2.39226e+59    5.1613e+67  6.08861e+134  1.86954e+201   4.53326e+67   1.28191e+67   5.21699e+66   3.35769e+67   4.22652e+65  -2.72073e+66  -7.48547e+66
           265             5           -50   6.24068e+67  1.11064e+135  6.08557e+201   5.27633e+67   1.32676e+67   1.32676e+67   3.58716e+67   3.99867e+51  -2.87793e+66  -2.99452e+66
           265             0           -50   6.15387e+67  1.09009e+135  5.96778e+201   5.19319e+67    1.3083e+67    1.3083e+67   3.53727e+67  -1.73042e+51   -1.7538e+53    -2.576e+66
   -4.3844e+58  -4.31112e+58   1.44167e+59   2.60453e+67  8.43529e+133 -6.27068e+199   2.43722e+67   7.38348e+66  -4.97526e+65   1.91593e+67  -4.75469e+65  -7.83378e+65  -6.56232e+66
   -7.1713e+58  -1.06979e+59   1.70697e+59    3.4061e+67  1.71693e+134  8.22772e+199   3.14397e+67    9.4842e+66    1.2066e+66   2.33702e+67   9.63293e+65  -3.80073e+66  -8.61528e+66
           270            10           -50   4.45297e+67  5.37228e+134  1.94348e+201   3.80219e+67   9.46694e+66   9.46694e+66   2.55958e+67   7.27974e+51   -5.0541e+66  -3.38802e+66
           270             5           -50   3.76089e+67  4.01183e+134  1.31454e+201   3.18315e+67   7.99559e+66   7.99559e+66   2.16177e+67  -3.76483e+51  -2.03675e+66  -2.07137e+66
  -6.33841e+58  -6.09161e+58   2.39226e+59   4.28986e+67  2.99506e+134  2.86821e+199   3.92529e+67   1.09665e+67   2.07953e+65   3.17242e+67  -6.73764e+65  -8.88242e+65  -7.48547e+66
  -9.54503e+58  -1.55237e+59   2.81341e+59   5.49801e+67   5.5418e+134   8.7646e+200   4.96853e+67   1.39316e+67   2.77645e+66   3.82721e+67   7.64999e+65  -5.34436e+66  -9.73673e+66
           265            10           -50   7.33933e+67  1.48584e+135  9.11432e+201   6.24558e+67   1.56033e+67   1.56033e+67   4.21867e+67   1.14757e+52  -7.33404e+66  -4.50946e+66
           265             5           -50   6.24068e+67  1.11064e+135  6.08557e+201   5.27633e+67   1.32676e+67   1.32676e+67   3.58716e+67  -6.55922e+51  -2.87793e+66  -2.99452e+66
   7.18842e+59   5.79064e+58    1.8053e+59   1.40493e+67   3.1009e+133  6.59615e+198   1.28986e+67   9.12671e+66   2.90654e+65    4.6319e+66  -5.93045e+65  -6.85453e+64   3.86103e+66
   7.49399e+59   2.93717e+58   1.90927e+59   1.53764e+67  4.67578e+133  2.10161e+199   1.37722e+67   9.22311e+66   5.72792e+65   5.58046e+66   5.07804e+65   1.93418e+65   3.59103e+66
   3.67427e+59    3.5675e+58   1.66464e+59   1.45101e+67  2.39152e+132 -3.02743e+198   1.44274e+67    9.2491e+66  -1.35304e+65   5.39629e+66   4.90328e+65   -1.3979e+65   6.72887e+66
   3.33227e+59   6.97546e+58    1.6312e+59   1.29091e+67 -1.75037e+133  5.29669e+198   1.35702e+67   8.99528e+66  -4.75665e+65   4.38951e+66  -7.45408e+65  -4.01754e+65   7.06434e+66
   6.53862e+59   1.01016e+59    4.8442e+59   2.56585e+67  1.54913e+134  7.54609e+199   2.24376e+67   1.15948e+67   5.57054e+65   1.35066e+67  -5.00177e+65  -2.95139e+65   3.91651e+66
   6.86385e+59     4.918e+58   4.96889e+59   2.66241e+67  1.71158e+134  1.10925e+200    2.3188e+67   1.16144e+67   7.62345e+65   1.42474e+67   6.00672e+65   1.01711e+65   3.69611e+66
   3.02188e+59   5.94963e+58   4.06009e+59    2.5013e+67  1.03149e+134 -4.77162e+199   2.28583e+67    1.1482e+67   -3.7387e+65   1.39049e+67   5.33599e+65  -1.66035e+65   6.83395e+66
   2.67072e+59   1.19732e+59   3.99207e+59   2.37735e+67  8.11015e+133 -6.65413e+199   2.20018e+67    1.1305e+67  -6.37384e+65   1.31059e+67  -7.02136e+65  -5.62885e+65   7.11982e+66
   7.49399e+59   2.93717e+58   1.90927e+59    1.5158e+67  4.42094e+133  1.60019e+199   1.36219e+67    9.1767e+66     4.473e+65   5.53404e+66  -4.78269e+65  -1.75259e+65   3.59103e+66
   7.59084e+59  -2.85755e+46   1.93521e+59   1.49576e+67  4.39174e+133  1.45464e+199   1.34094e+67    8.8582e+66   4.04683e+65    5.6947e+66   4.57557e+65   1.22534e+65   3.49175e+66
   3.77612e+59  -1.55343e+46   1.66906e+59   1.40527e+67 -2.33901e+132 -2.45506e+198   1.41357e+67   8.93367e+66  -3.83276e+65   5.50232e+66   4.81201e+65   2.08981e+64    6.7624e+66
   3.67427e+59    3.5675e+58   1.66464e+59   1.40939e+67 -2.56524e+132 -1.75739e+198   1.41846e+67   9.16062e+66  -3.74517e+65   5.30781e+66  -6.44218e+65  -2.76895e+65   6.72887e+66
   6.86385e+59     4.918e+58   4.96889e+59    2.7317e+67  1.85803e+134  1.78721e+200   2.36731e+67   1.17617e+67   1.16062e+66   1.43947e+67   -3.4033e+65  -2.89215e+65   3.69611e+66
   6.98989e+59  -4.08827e+46   5.01084e+59   2.78498e+67  1.94033e+134  1.99643e+200    2.4116e+67   1.15991e+67    1.2739e+66   1.49769e+67   5.95496e+65    1.9817e+65   3.62567e+66
   3.14683e+59  -2.38927e+46   4.05241e+59   2.58981e+67  1.15841e+134 -1.91888e+199   2.35557e+67    1.1452e+67  -1.15804e+65   1.45619e+67   5.90297e+65  -3.62688e+64   6.89632e+66
   3.02188e+59   5.94963e+58   4.06009e+59    2.5206e+67  1.06739e+134  -3.3298e+199   2.29914e+67    1.1523e+67  -2.62945e+65   1.39459e+67  -5.35121e+65  -5.23654e+65   6.83395e+66
   7.59084e+59  -2.85755e+46   1.93521e+59   1.49576e+67  4.39174e+133  1.45464e+199   1.34094e+67    8.8582e+66   4.04683e+65    5.6947e+66  -4.57557e+65  -1.22534e+65   3.49175e+66
   7.49399e+59  -2.93717e+58   1.90927e+59    1.5158e+67  4.42094e+133  1.60019e+199   1.36219e+67    9.1767e+66     4.473e+65   5.53404e+66   4.78269e+65   1.75259e+65   3.59103e+66
   3.67427e+59   -3.5675e+58   1.66464e+59   1.40939e+67 -2.56524e+132 -1.75739e+198   1.41846e+67   9.16062e+66  -3.74517e+65   5.30781e+66   6.44218e+65   2.76895e+65   6.72887e+66
   3.77612e+59  -1.55343e+46   1.66906e+59   1.40527e+67 -2.33901e+132 -2.45506e+198   1.41357e+67   8.93367e+66  -3.83276e+65   5.50232e+66  -4.81201e+65  -2.08981e+64    6.7624e+66
   6.98989e+59  -4.08827e+46   5.01084e+59   2.78498e+67  1.94033e+134  1.99643e+200    2.4116e+67   1.15991e+67    1.2739e+66   1.49769e+67  -5.95496e+65   -1.9817e+65   3.62567e+66
   6.86385e+59    -4.918e+58   4.96889e+59    2.7317e+67  1.85803e+134  1.78721e+200   2.36731e+67   1.17617e+67   1.16062e+66   1.43947e+67    3.4033e+65   2.89215e+65   3.69611e+66
   3.02188e+59  -5.94963e+58   4.06009e+59    2.5206e+67  1.06739e+134  -3.3298e+199   2.29914e+67    1.1523e+67  -2.62945e+65   1.39459e+67   5.35121e+65   5.23654e+65   6.83395e+66
   3.14683e+59  -2.38927e+46   4.05241e+59   2.58981e+67  1.15841e+134 -1.91888e+199   2.35557e+67    1.1452e+67  -1.15804e+65   1.45619e+67  -5.90297e+65   3.62688e+64   6.89632e+66
   7.49399e+59  -2.93717e+58   1.90927e+59   1.53764e+67  4.67578e+133  2.10161e+199   1.37722e+67   9.22311e+66   5.72792e+65   5.58046e+66  -5.07804e+65  -1.93418e+65   3.59103e+66
   7.18842e+59  -5.79064e+58    1.8053e+59   1.40493e+67   3.1009e+133  6.59615e+198   1.28986e+67   9.12671e+66   2.90654e+65    4.6319e+66   5.93045e+65   6.85453e+64   3.86103e+66
   3.33227e+59  -6.97546e+58    1.6312e+59   1.29091e+67 -1.75037e+133  5.29669e+198   1.35702e+67   8.99528e+66  -4.75665e+65   4.38951e+66   7.45408e+65   4.01754e+65   7.06434e+66
   3.67427e+59   -3.5675e+58   1.66464e+59   1.45101e+67  2.39152e+132 -3.02743e+198   1.44274e+67    9.2491e+66  -1.35304e+65   5.39629e+66  -4.90328e+65    1.3979e+65   6.72887e+66
   6.86385e+59    -4.918e+58   4.96889e+59   2.66241e+67  1.71158e+134  1.10925e+200    2.3188e+67   1.16144e+67   7.62345e+65   1.42474e+67  -6.00672e+65  -1.01711e+65   3.69611e+66
   6.53862e+59  -1.01016e+59    4.8442e+59   2.56585e+67  1.54913e+134  7.54609e+199   2.24376e+67   1.15948e+67   5.57054e+65   1.35066e+67   5.00177e+65   2.95139e+65   3.91651e+66
   2.67072e+59  -1.19732e+59   3.99207e+59   2.37735e+67  8.11015e+133 -6.65413e+199   2.20018e+67    1.1305e+67  -6.37384e+65   1.31059e+67   7.02136e+65   5.62885e+65   7.11982e+66
   3.02188e+59  -5.94963e+58   4.06009e+59    2.5013e+67  1.03149e+134 -4.77162e+199   2.28583e+67    1.1482e+67   -3.7387e+65   1.39049e+67  -5.33599e+65   1.66035e+65   6.83395e+66
   3.33227e+59   6.97546e+58    1.6312e+59    1.6571e+67   6.6876e+133  1.52098e+199   1.44125e+67   9.77378e+66   3.02834e+65   6.49434e+66  -7.45408e+65   5.54659e+64   9.82884e+65
   3.67427e+59    3.5675e+58   1.66464e+59   1.86098e+67  9.06686e+133  5.53591e+199   1.59893e+67   1.01207e+67   7.36295e+65   7.75283e+66   4.90328e+65    1.0995e+65   8.38526e+65
   1.10134e+59   3.66921e+58   1.26285e+59   1.49246e+67  3.36882e+133 -8.32401e+198   1.37497e+67   8.11136e+66  -1.56155e+65   6.96935e+66   3.64404e+65  -3.02566e+65   4.50149e+66
   7.63356e+58    7.1925e+58   1.31673e+59   1.30514e+67  1.85549e+133 -1.79861e+199   1.23201e+67   7.85971e+66  -5.54382e+65   5.74609e+66  -9.09216e+65   -3.5705e+65   4.25567e+66
   2.67072e+59   1.19732e+59   3.99207e+59    2.7819e+67  1.93209e+134  3.40508e+199   2.40975e+67   1.21651e+67    2.2268e+65   1.54312e+67  -7.02136e+65   7.39939e+64   3.99972e+65
   3.02188e+59   5.94963e+58   4.06009e+59   3.20124e+67  2.66592e+134    2.536e+200   2.75354e+67   1.29701e+67   1.11418e+66   1.79281e+67   5.33599e+65   1.66363e+65     2.256e+65
   5.78686e+58   6.27769e+58   2.88297e+59   2.81179e+67  1.73796e+134  7.54844e+198   2.48359e+67   1.09163e+67   1.01491e+65   1.71002e+67   4.37689e+65  -6.36337e+65   3.88857e+66
   2.25193e+58   1.24968e+59   2.98486e+59   2.40903e+67  1.15937e+134 -1.13763e+200     2.155e+67   1.02066e+67  -7.54778e+65   1.46385e+67  -8.35931e+65  -7.28706e+65   3.67276e+66
   3.67427e+59    3.5675e+58   1.66464e+59   1.81937e+67  8.45683e+133  3.47125e+199   1.56984e+67   1.00322e+67   4.97082e+65   7.66436e+66  -6.44218e+65  -2.71545e+64   8.38526e+65
   3.77612e+59  -1.55343e+46   1.66906e+59   1.83866e+67  8.72935e+133  4.00921e+199   1.58358e+67   9.85504e+66    5.3809e+65   7.99342e+66   4.81201e+65   2.08981e+64   9.24181e+65
   1.19716e+59  -5.97958e+45   1.23679e+59   1.49761e+67  3.21152e+133  -1.2503e+199   1.38624e+67   7.99079e+66  -2.83077e+65   7.26836e+66   4.52713e+65  -1.23132e+65   4.62872e+66
   1.10134e+59   3.66921e+58   1.26285e+59   1.45439e+67  2.88226e+133 -1.63643e+199   1.35168e+67   8.03044e+66  -3.74955e+65   6.88842e+66   -7.7964e+65  -1.71184e+65   4.50149e+66
   3.02188e+59   5.94963e+58   4.06009e+59   3.22053e+67  2.71378e+134   2.8079e+200   2.76732e+67   1.30111e+67   1.22511e+66   1.79692e+67  -5.35121e+65  -1.91256e+65     2.256e+65
   3.14683e+59  -2.38927e+46   4.05241e+59   3.26278e+67  2.78129e+134  3.05583e+200   2.80436e+67   1.28827e+67   1.31492e+66   1.84302e+67   5.90297e+65  -3.62688e+64   3.54587e+65
    6.8843e+58  -1.05686e+46   2.83601e+59   2.86269e+67  1.79093e+134  2.08182e+199   2.53062e+67   1.08929e+67   1.54351e+65   1.75796e+67   5.18476e+65  -2.21873e+65   4.05913e+66
   5.78686e+58   6.27769e+58   2.88297e+59   2.79651e+67   1.7037e+134 -5.81899e+198   2.47321e+67   1.08838e+67   1.36691e+64   1.70677e+67  -7.13877e+65   -3.7686e+65   3.88857e+66
   3.77612e+59  -1.55343e+46   1.66906e+59   1.83866e+67  8.72935e+133  4.00921e+199   1.58358e+67   9.85504e+66    5.3809e+65   7.99342e+66  -4.81201e+65  -2.08981e+64   9.24181e+65
   3.67427e+59   -3.5675e+58   1.66464e+59   1.81937e+67  8.45683e+133  3.47125e+199   1.56984e+67   1.00322e+67   4.97082e+65   7.66436e+66   6.44218e+65   2.71545e+64   8.38526e+65
   1.10134e+59  -3.66921e+58   1.26285e+59   1.45439e+67  2.88226e+133 -1.63643e+199   1.35168e+67   8.03044e+66  -3.74955e+65   6.88842e+66    7.7964e+65   1.71184e+65   4.50149e+66
   1.19716e+59  -5.97958e+45   1.23679e+59   1.49761e+67  3.21152e+133  -1.2503e+199   1.38624e+67   7.99079e+66  -2.83077e+65   7.26836e+66  -4.52713e+65   1.23132e+65   4.62872e+66
   3.14683e+59  -2.38927e+46   4.05241e+59   3.26278e+67  2.78129e+134  3.05583e+200   2.80436e+67   1.28827e+67   1.31492e+66   1.84302e+67  -5.90297e+65   3.62688e+64   3.54587e+65
   3.02188e+59  -5.94963e+58   4.06009e+59   3.22053e+67  2.71378e+134   2.8079e+200   2.76732e+67   1.30111e+67   1.22511e+66   1.79692e+67   5.35121e+65   1.91256e+65     2.256e+65
   5.78686e+58  -6.27769e+58   2.88297e+59   2.79651e+67   1.7037e+134 -5.81899e+198   2.47321e+67   1.08838e+67   1.36691e+64   1.70677e+67   7.13877e+65    3.7686e+65   3.88857e+66
    6.8843e+58  -1.05686e+46   2.83601e+59   2.86269e+67  1.79093e+134  2.08182e+199   2.53062e+67   1.08929e+67   1.54351e+65   1.75796e+67  -5.18476e+65   2.21873e+65   4.05913e+66
   3.67427e+59   -3.5675e+58   1.66464e+59   1.86098e+67  9.06686e+133  5.53591e+199   1.59893e+67   1.01207e+67   7.36295e+65   7.75283e+66  -4.90328e+65   -1.0995e+65   8.38526e+65
   3.33227e+59  -6.97546e+58    1.6312e+59    1.6571e+67   6.6876e+133  1.52098e+199   1.44125e+67   9.77378e+66   3.02834e+65   6.49434e+66   7.45408e+65  -5.54659e+64   9.82884e+65
   7.63356e+58   -7.1925e+58   1.31673e+59   1.30514e+67  1.85549e+133 -1.79861e+199   1.23201e+67   7.85971e+66  -5.54382e+65   5.74609e+66   9.09216e+65    3.5705e+65   4.25567e+66
   1.10134e+59  -3.66921e+58   1.26285e+59   1.49246e+67  3.36882e+133 -8.32401e+198   1.37497e+67   8.11136e+66  -1.56155e+65   6.96935e+66  -3.64404e+65   3.02566e+65   4.50149e+66
   3.02188e+59  -5.94963e+58   4.06009e+59   3.20124e+67  2.66592e+134    2.536e+200   2.75354e+67   1.29701e+67   1.11418e+66   1.79281e+67  -5.33599e+65  -1.66363e+65     2.256e+65
   2.67072e+59  -1.19732e+59   3.99207e+59    2.7819e+67  1.93209e+134  3.40508e+199   2.40975e+67   1.21651e+67    2.2268e+65   1.54312e+67   7.02136e+65  -7.39939e+64   3.99972e+65
   2.25193e+58  -1.24968e+59   2.98486e+59   2.40903e+67  1.15937e+134 -1.13763e+200     2.155e+67   1.02066e+67  -7.54778e+65   1.46385e+67   8.35931e+65   7.28706e+65   3.67276e+66
   5.78686e+58  -6.27769e+58   2.88297e+59   2.81179e+67  1.73796e+134  7.54844e+198   2.48359e+67   1.09163e+67   1.01491e+65   1.71002e+67  -4.37689e+65   6.36337e+65   3.88857e+66
   7.63356e+58    7.1925e+58   1.31673e+59    1.7556e+67  7.37746e+133  2.09154e+199   1.53114e+67   8.81738e+66   4.03288e+65   8.33535e+66  -9.09216e+65   3.35119e+65  -2.38743e+66
   1.10134e+59   3.66921e+58   1.26285e+59   1.98825e+67  1.03474e+134  7.51495e+199   1.70834e+67   9.16542e+66   8.97903e+65   9.81921e+66   3.64404e+65   3.19545e+65   -1.8261e+66
  -1.32256e+58   2.45412e+58   6.71011e+58   1.43216e+67  4.26325e+133 -1.35307e+199   1.27466e+67   5.93783e+66  -2.53197e+65   8.63696e+66   3.84944e+65  -1.75078e+65   2.18706e+66
  -3.99436e+58   5.94444e+58   8.29578e+58   1.18907e+67  2.68728e+133 -3.55776e+199   1.07012e+67   5.52977e+66  -7.70008e+65    7.1309e+66  -9.83437e+65  -1.59505e+65   1.34834e+66
   2.25193e+58   1.24968e+59   2.98486e+59   3.11513e+67  2.29003e+134  1.42068e+200   2.72287e+67   1.17077e+67   7.46394e+65   1.86972e+67  -8.35931e+65   3.68549e+65  -3.42901e+66
   5.78686e+58   6.27769e+58   2.88297e+59   3.50096e+67  3.04657e+134   3.8819e+200   3.03482e+67   1.23814e+67   1.56665e+66   2.10615e+67   4.37689e+65   4.47737e+65  -2.84878e+66
   -4.3844e+58   4.31112e+58   1.44167e+59   2.89254e+67  1.80407e+134  1.52651e+199   2.56178e+67   9.04258e+66   1.14788e+65    1.9768e+67   4.39321e+65  -3.24285e+65   1.16439e+66
   -7.1713e+58   1.06979e+59   1.70697e+59   2.49628e+67  1.24607e+134 -1.21147e+200   2.23278e+67   8.30888e+66  -7.27666e+65   1.73815e+67   -9.2906e+65  -4.03473e+65   3.06755e+65
   1.10134e+59   3.66921e+58   1.26285e+59   1.95019e+67  9.71042e+133  5.13314e+199   1.68291e+67    9.0845e+66   6.79103e+65   9.73828e+66   -7.7964e+65   4.50927e+65   -1.8261e+66
   1.19716e+59  -5.97958e+45   1.23679e+59   1.85454e+67  8.75911e+133  3.58142e+199   1.60106e+67   8.74962e+66   4.75756e+65   9.32002e+66   4.52713e+65  -1.23132e+65  -1.52715e+66
  -7.88104e+57  -4.28892e+44   6.67693e+58   1.61383e+67  6.55738e+133  5.38308e+199   1.39597e+67   6.21792e+66   1.11214e+66   8.80828e+66   2.52498e+65  -1.56734e+64   2.41715e+66
  -1.32256e+58   2.45412e+58   6.71011e+58   1.70248e+67  7.49562e+133  6.46495e+199    1.4659e+67   6.51252e+66   1.30059e+66   9.21165e+66  -6.24827e+65   5.58385e+65   2.18706e+66
   5.78686e+58   6.27769e+58   2.88297e+59   3.48568e+67  2.99921e+134  3.58013e+200   3.02502e+67   1.23489e+67   1.47883e+66    2.1029e+67  -7.13877e+65   7.07214e+65  -2.84878e+66
    6.8843e+58  -1.05686e+46   2.83601e+59     3.352e+67  2.75206e+134  2.77532e+200   2.91271e+67   1.19332e+67   1.19463e+66   2.03922e+67   5.18476e+65  -2.21873e+65  -2.53713e+66
  -3.73761e+58  -1.90653e+45   1.43203e+59   3.30733e+67  2.86285e+134  5.81639e+200   2.84176e+67   9.81828e+66   2.95784e+66   2.02972e+67   3.05571e+65  -4.55452e+64   1.40716e+66
   -4.3844e+58   4.31112e+58   1.44167e+59     3.434e+67  3.11187e+134  6.67821e+200   2.94627e+67   1.01937e+67   3.22714e+66   2.09192e+67  -5.71754e+65   8.83541e+65   1.16439e+66
   1.19716e+59  -5.97958e+45   1.23679e+59   1.85454e+67  8.75911e+133  3.58142e+199   1.60106e+67   8.74962e+66   4.75756e+65   9.32002e+66  -4.52713e+65   1.23132e+65  -1.52715e+66
   1.10134e+59  -3.66921e+58   1.26285e+59   1.95019e+67  9.71042e+133  5.13314e+199   1.68291e+67    9.0845e+66   6.79103e+65   9.73828e+66    7.7964e+65  -4.50927e+65   -1.8261e+66
  -1.32256e+58  -2.45412e+58   6.71011e+58   1.70248e+67  7.49562e+133  6.46495e+199    1.4659e+67   6.51252e+66   1.30059e+66   9.21165e+66   6.24827e+65  -5.58385e+65   2.18706e+66
  -7.88104e+57  -4.28892e+44   6.67693e+58   1.61383e+67  6.55738e+133  5.38308e+199   1.39597e+67   6.21792e+66   1.11214e+66   8.80828e+66  -2.52498e+65   1.56734e+64   2.41715e+66
    6.8843e+58  -1.05686e+46   2.83601e+59     3.352e+67  2.75206e+134  2.77532e+200   2.91271e+67   1.19332e+67   1.19463e+66   2.03922e+67  -5.18476e+65   2.21873e+65  -2.53713e+66
   5.78686e+58  -6.27769e+58   2.88297e+59   3.48568e+67  2.99921e+134  3.58013e+200   3.02502e+67   1.23489e+67   1.47883e+66    2.1029e+67   7.13877e+65  -7.07214e+65  -2.84878e+66
   -4.3844e+58  -4.31112e+58   1.44167e+59     3.434e+67  3.11187e+134  6.67821e+200   2.94627e+67   1.01937e+67   3.22714e+66   2.09192e+67   5.71754e+65  -8.83541e+65   1.16439e+66
  -3.73761e+58  -1.90653e+45   1.43203e+59   3.30733e+67  2.86285e+134  5.81639e+200   2.84176e+67   9.81828e+66   2.95784e+66   2.02972e+67  -3.05571e+65   4.55452e+64   1.40716e+66
   1.10134e+59  -3.66921e+58   1.26285e+59   1.98825e+67  1.03474e+134  7.51495e+199   1.70834e+67   9.16542e+66   8.97903e+65   9.81921e+66  -3.64404e+65  -3.19545e+65   -1.8261e+66
   7.63356e+58   -7.1925e+58   1.31673e+59    1.7556e+67  7.37746e+133  2.09154e+199   1.53114e+67   8.81738e+66   4.03288e+65   8.33535e+66   9.09216e+65  -3.35119e+65  -2.38743e+66
  -3.99436e+58  -5.94444e+58   8.29578e+58   1.18907e+67  2.68728e+133 -3.55776e+199   1.07012e+67   5.52977e+66  -7.70008e+65    7.1309e+66   9.83437e+65   1.59505e+65   1.34834e+66
  -1.32256e+58  -2.45412e+58   6.71011e+58   1.43216e+67  4.26325e+133 -1.35307e+199   1.27466e+67   5.93783e+66  -2.53197e+65   8.63696e+66  -3.84944e+65   1.75078e+65   2.18706e+66
   5.78686e+58  -6.27769e+58   2.88297e+59   3.50096e+67  3.04657e+134   3.8819e+200   3.03482e+67   1.23814e+67   1.56665e+66   2.10615e+67  -4.37689e+65  -4.47737e+65  -2.84878e+66
   2.25193e+58  -1.24968e+59   2.98486e+59   3.11513e+67  2.29003e+134  1.42068e+200   2.72287e+67   1.17077e+67   7.46394e+65   1.86972e+67   8.35931e+65  -3.68549e+65  -3.42901e+66
   -7.1713e+58  -1.06979e+59   1.70697e+59   2.49628e+67  1.24607e+134 -1.21147e+200   2.23278e+67   8.30888e+66  -7.27666e+65   1.73815e+67    9.2906e+65   4.03473e+65   3.06755e+65
   -4.3844e+58  -4.31112e+58   1.44167e+59   2.89254e+67  1.80407e+134  1.52651e+199   2.56178e+67   9.04258e+66   1.14788e+65    1.9768e+67  -4.39321e+65   3.24285e+65   1.16439e+66
  -3.99436e+58   5.94444e+58   8.29578e+58   2.08236e+67  7.17617e+133  4.28663e+199   1.90227e+67   7.42891e+66   1.12913e+66   1.22656e+67  -9.83437e+65   2.05926e+66  -6.03227e+66
  -1.32256e+58   2.45412e+58   6.71011e+58   1.63868e+67  4.71452e+133   4.3854e+198    1.4879e+67    6.3769e+66   1.85872e+65   9.82407e+66   3.84944e+65   4.10288e+65  -4.26576e+66
           275            -5           -50   1.75046e+67   8.7003e+133  1.32891e+200   1.48125e+67   3.72146e+66   3.72146e+66   1.00617e+67  -2.50209e+51   1.15942e+66   -6.2483e+65
           275           -10           -50   2.16412e+67  1.24184e+134  2.10646e+200   1.85514e+67   4.60088e+66   4.60088e+66   1.24394e+67  -1.38258e+51    2.8084e+66   -1.8871e+66
   -7.1713e+58   1.06979e+59   1.70697e+59   3.61563e+67  2.39502e+134  2.05033e+200   3.26769e+67   1.06886e+67   1.65207e+66   2.38156e+67   -9.2906e+65   3.80073e+66  -7.53318e+66
   -4.3844e+58   4.31112e+58   1.44167e+59   2.89353e+67  1.48778e+134  3.79204e+198   2.62387e+67   9.04468e+66   1.16887e+65   1.97737e+67   4.39321e+65   7.83378e+65   -5.7123e+66
           270            -5           -50   3.76089e+67  4.01183e+134  1.31454e+201   3.18315e+67   7.99559e+66   7.99559e+66   2.16177e+67  -5.93954e+51   2.03675e+66  -2.07137e+66
           270           -10           -50   4.45297e+67  5.37228e+134  1.94348e+201   3.80219e+67   9.46694e+66   9.46694e+66   2.55958e+67   1.19259e+51    5.0541e+66  -3.38802e+66
  -1.32256e+58   2.45412e+58   6.71011e+58     1.909e+67  8.25762e+133  8.70433e+199   1.67884e+67   6.95159e+66   1.73965e+66   1.03988e+67  -6.24827e+65   1.14375e+66  -4.26576e+66
  -7.88104e+57  -4.28892e+44   6.67693e+58   1.87104e+67   8.1943e+133  8.84921e+199   1.63749e+67   6.76474e+66   1.65895e+66   1.02867e+67   2.52498e+65  -1.56734e+64  -3.98339e+66
           275             0           -50   1.74181e+67  8.77237e+133  1.36777e+200   1.46856e+67   3.70306e+66   3.70306e+66    1.0012e+67  -2.01687e+50  -2.09521e+52  -3.72332e+65
           275            -5           -50   1.75046e+67   8.7003e+133  1.32891e+200   1.48125e+67   3.72146e+66   3.72146e+66   1.00617e+67  -8.28671e+50   1.15942e+66   -6.2483e+65
   -4.3844e+58   4.31112e+58   1.44167e+59   3.43499e+67   2.7692e+134  5.49315e+200   3.00499e+67   1.01958e+67   3.22924e+66   2.09249e+67  -5.71754e+65    1.9912e+66   -5.7123e+66
  -3.73761e+58  -1.90653e+45   1.43203e+59   3.38054e+67  2.73192e+134  5.51547e+200   2.94892e+67    9.9739e+66   3.11347e+66    2.0718e+67   3.05571e+65  -4.55452e+64  -5.37686e+66
           270             0           -50   3.73574e+67  4.01044e+134  1.32971e+201   3.15362e+67   7.94213e+66   7.94213e+66   2.14732e+67  -7.59981e+50  -9.11042e+52   -1.7658e+66
           270            -5           -50   3.76089e+67  4.01183e+134  1.31454e+201   3.18315e+67   7.99559e+66   7.99559e+66   2.16177e+67    1.4615e+50   2.03675e+66  -2.07137e+66
  -7.88104e+57  -4.28892e+44   6.67693e+58   1.87104e+67   8.1943e+133  8.84921e+199   1.63749e+67   6.76474e+66   1.65895e+66   1.02867e+67  -2.52498e+65   1.56734e+64  -3.98339e+66
  -1.32256e+58  -2.45412e+58   6.71011e+58     1.909e+67  8.25762e+133  8.70433e+199   1.67884e+67   6.95159e+66   1.73965e+66   1.03988e+67   6.24827e+65  -1.14375e+66  -4.26576e+66
           275             5           -50   1.75046e+67   8.7003e+133  1.32891e+200   1.48125e+67   3.72146e+66   3.72146e+66   1.00617e+67   1.82761e+51  -1.15942e+66   -6.2483e+65
           275             0           -50   1.74181e+67  8.77237e+133  1.36777e+200   1.46856e+67   3.70306e+66   3.70306e+66    1.0012e+67  -4.61835e+50   -1.9701e+52  -3.72332e+65
  -3.73761e+58  -1.90653e+45   1.43203e+59   3.38054e+67  2.73192e+134  5.51547e+200   2.94892e+67    9.9739e+66   3.11347e+66    2.0718e+67  -3.05571e+65   4.55452e+64  -5.37686e+66
   -4.3844e+58  -4.31112e+58   1.44167e+59   3.43499e+67   2.7692e+134  5.49315e+200   3.00499e+67   1.01958e+67   3.22924e+66   2.09249e+67   5.71754e+65   -1.9912e+66   -5.7123e+66
           270             5           -50   3.76089e+67  4.01183e+134  1.31454e+201   3.18315e+67   7.99559e+66   7.99559e+66   2.16177e+67   3.46668e+51  -2.03675e+66  -2.07137e+66
           270             0           -50   3.73574e+67  4.01044e+134  1.32971e+201   3.15362e+67   7.94213e+66   7.94213e+66   2.14732e+67  -8.65209e+50  -8.95608e+52   -1.7658e+66
  -1.32256e+58  -2.45412e+58   6.71011e+58   1.63868e+67  4.71452e+133   4.3854e+198    1.4879e+67    6.3769e+66   1.85872e+65   9.82407e+66  -3.84944e+65  -4.10288e+65  -4.26576e+66
  -3.99436e+58  -5.94444e+58   8.29578e+58   2.08236e+67  7.17617e+133  4.28663e+199   1.90227e+67   7.42891e+66   1.12913e+66   1.22656e+67   9.83437e+65  -2.05926e+66  -6.03227e+66
           275            10           -50   2.16412e+67  1.24184e+134  2.10646e+200   1.85514e+67   4.60088e+66   4.60088e+66   1.24394e+67   5.30671e+51   -2.8084e+66   -1.8871e+66
           275             5           -50   1.75046e+67   8.7003e+133  1.32891e+200   1.48125e+67   3.72146e+66   3.72146e+66   1.00617e+67             0  -1.15942e+66   -6.2483e+65
   -4.3844e+58  -4.31112e+58   1.44167e+59   2.89353e+67  1.48778e+134  3.79204e+198   2.62387e+67   9.04468e+66   1.16887e+65   1.97737e+67  -4.39321e+65  -7.83378e+65   -5.7123e+66
   -7.1713e+58  -1.06979e+59   1.70697e+59   3.61563e+67  2.39502e+134  2.05033e+200   3.26769e+67   1.06886e+67   1.65207e+66   2.38156e+67    9.2906e+65  -3.80073e+66  -7.53318e+66
           270            10           -50   4.45297e+67  5.37228e+134  1.94348e+201   3.80219e+67   9.46694e+66   9.46694e+66   2.55958e+67   8.65794e+51   -5.0541e+66  -3.38802e+66
           270             5           -50   3.76089e+67  4.01183e+134  1.31454e+201   3.18315e+67   7.99559e+66   7.99559e+66   2.16177e+67  -2.10456e+51  -2.03675e+66  -2.07137e+66
    7.7986e+59   1.61556e+58  -7.56534e+58   4.31294e+66 -5.32829e+133 -8.85886e+198   8.47846e+66   6.68236e+66   1.81506e+65  -2.55093e+66  -6.12071e+65   1.00707e+64   6.05077e+66
   8.08655e+59   8.37237e+57  -7.06045e+58   4.76439e+66 -4.44797e+133 -1.19507e+199   8.19629e+66    6.6119e+66   2.77483e+65  -2.12499e+66   3.68318e+65   1.22356e+65   5.61461e+66
   4.28281e+59   1.08314e+58  -3.73951e+58   4.56131e+66 -8.42079e+133  -7.9722e+197   1.02476e+67   6.71974e+66   9.73664e+63  -2.16817e+66   3.70182e+65  -4.26209e+64   8.33929e+66
   3.95602e+59   2.09913e+58   -3.8952e+58   4.04711e+66 -9.27096e+133  1.25009e+199   1.04446e+67   6.75413e+66  -9.95799e+64  -2.60744e+66  -7.59886e+65  -1.54906e+65   8.60722e+66
   7.18842e+59   5.79064e+58    1.8053e+59   1.30155e+67  8.87641e+131 -8.12723e+197   1.29814e+67   8.53252e+66   7.08844e+64   4.41213e+66  -5.28852e+65  -6.85453e+64   6.11491e+66
   7.49399e+59   2.93717e+58   1.90927e+59   1.43959e+67  1.90129e+133  4.72722e+198   1.37197e+67   8.65955e+66    3.6435e+65   5.37201e+66   4.51537e+65   1.93418e+65   5.69012e+66
   3.67427e+59    3.5675e+58   1.66464e+59   1.33663e+67 -3.19516e+133  7.82764e+198   1.45124e+67   8.59168e+66  -3.78461e+65   5.15313e+66   4.42037e+65   -1.3979e+65    8.4148e+66
   3.33227e+59   6.97546e+58    1.6312e+59   1.19232e+67 -4.92368e+133  2.88392e+199   1.38347e+67   8.42858e+66  -6.85266e+65   4.17991e+66   -6.8803e+65  -4.01754e+65   8.67136e+66
   8.08655e+59   8.37237e+57  -7.06045e+58   4.61069e+66 -4.52054e+133 -7.70826e+198   8.15254e+66   6.57923e+66   1.89136e+65  -2.15767e+66  -5.65999e+65  -4.06934e+64   5.61461e+66
   8.17674e+59  -1.75689e+46  -6.90068e+58   4.75276e+66 -4.29819e+133 -8.92062e+198   8.09757e+66    6.5465e+66    2.1934e+65  -2.01308e+66   4.26094e+65   7.54833e+64   5.53267e+66
   4.38039e+59  -8.22578e+45  -3.70079e+58   4.59031e+66 -8.30424e+133  4.50095e+198   1.02036e+67   6.68548e+66  -4.75499e+64  -2.04762e+66   4.60988e+65   1.82902e+64   8.30179e+66
   4.28281e+59   1.08314e+58  -3.73951e+58   4.38612e+66 -8.52063e+133  9.88622e+198   1.02198e+67   6.68249e+66  -9.09615e+64  -2.20541e+66  -7.12721e+65  -9.78865e+64   8.33929e+66
   7.49399e+59   2.93717e+58   1.90927e+59   1.41776e+67  1.65056e+133  2.50272e+198    1.3583e+67   8.61313e+66   2.38858e+65    5.3256e+66  -5.34536e+65  -1.75259e+65   5.69012e+66
   7.59084e+59  -2.85755e+46   1.93521e+59   1.45651e+67  2.12129e+133  4.74228e+198   1.38177e+67   8.63258e+66   3.21234e+65   5.61125e+66   4.57557e+65   1.22534e+65   5.61942e+66
   3.77612e+59  -1.55343e+46   1.66906e+59   1.33998e+67 -3.19654e+133  1.16959e+199   1.45437e+67   8.55836e+66   -5.2209e+65   5.36351e+66   4.81201e+65   2.08981e+64   8.38855e+66
   3.67427e+59    3.5675e+58   1.66464e+59   1.29502e+67 -3.66798e+133  1.72825e+199   1.42964e+67    8.5032e+66  -6.17674e+65   5.06465e+66  -6.92509e+65  -2.76895e+65    8.4148e+66
   8.17674e+59  -1.75689e+46  -6.90068e+58   4.75276e+66 -4.29819e+133 -8.92062e+198   8.09757e+66    6.5465e+66    2.1934e+65  -2.01308e+66  -4.26094e+65  -7.54833e+64   5.53267e+66
   8.08655e+59  -8.37237e+57  -7.06045e+58   4.61069e+66 -4.52054e+133 -7.70826e+198   8.15254e+66   6.57923e+66   1.89136e+65  -2.15767e+66   5.65999e+65   4.06934e+64   5.61461e+66
   4.28281e+59  -1.08314e+58  -3.73951e+58   4.38612e+66 -8.52063e+133  9.88622e+198   1.02198e+67   6.68249e+66  -9.09615e+64  -2.20541e+66   7.12721e+65   9.78865e+64   8.33929e+66
   4.38039e+59  -8.22578e+45  -3.70079e+58   4.59031e+66 -8.30424e+133  4.50095e+198   1.02036e+67   6.68548e+66  -4.75499e+64  -2.04762e+66  -4.60988e+65  -1.82902e+64   8.30179e+66
   7.59084e+59  -2.85755e+46   1.93521e+59   1.45651e+67  2.12129e+133  4.74228e+198   1.38177e+67   8.63258e+66   3.21234e+65   5.61125e+66  -4.57557e+65  -1.22534e+65   5.61942e+66
   7.49399e+59  -2.93717e+58   1.90927e+59   1.41776e+67  1.65056e+133  2.50272e+198    1.3583e+67   8.61313e+66   2.38858e+65    5.3256e+66   5.34536e+65   1.75259e+65   5.69012e+66
   3.67427e+59   -3.5675e+58   1.66464e+59   1.29502e+67 -3.66798e+133  1.72825e+199   1.42964e+67    8.5032e+66  -6.17674e+65   5.06465e+66   6.92509e+65   2.76895e+65    8.4148e+66
   3.77612e+59  -1.55343e+46   1.66906e+59   1.33998e+67 -3.19654e+133  1.16959e+199   1.45437e+67   8.55836e+66   -5.2209e+65   5.36351e+66  -4.81201e+65  -2.08981e+64   8.38855e+66
   8.08655e+59  -8.37237e+57  -7.06045e+58   4.76439e+66 -4.44797e+133 -1.19507e+199   8.19629e+66    6.6119e+66   2.77483e+65  -2.12499e+66  -3.68318e+65  -1.22356e+65   5.61461e+66
    7.7986e+59  -1.61556e+58  -7.56534e+58   4.31294e+66 -5.32829e+133 -8.85886e+198   8.47846e+66   6.68236e+66   1.81506e+65  -2.55093e+66   6.12071e+65  -1.00707e+64   6.05077e+66
   3.95602e+59  -2.09913e+58   -3.8952e+58   4.04711e+66 -9.27096e+133  1.25009e+199   1.04446e+67   6.75413e+66  -9.95799e+64  -2.60744e+66   7.59886e+65   1.54906e+65   8.60722e+66
   4.28281e+59  -1.08314e+58  -3.73951e+58   4.56131e+66 -8.42079e+133  -7.9722e+197   1.02476e+67   6.71974e+66   9.73664e+63  -2.16817e+66  -3.70182e+65   4.26209e+64   8.33929e+66
   7.49399e+59  -2.93717e+58   1.90927e+59   1.43959e+67  1.90129e+133  4.72722e+198   1.37197e+67   8.65955e+66    3.6435e+65   5.37201e+66  -4.51537e+65  -1.93418e+65   5.69012e+66
   7.18842e+59  -5.79064e+58    1.8053e+59   1.30155e+67  8.87641e+131 -8.12723e+197   1.29814e+67   8.53252e+66   7.08844e+64   4.41213e+66   5.28852e+65   6.85453e+64   6.11491e+66
   3.33227e+59  -6.97546e+58    1.6312e+59   1.19232e+67 -4.92368e+133  2.88392e+199   1.38347e+67   8.42858e+66  -6.85266e+65   4.17991e+66    6.8803e+65   4.01754e+65   8.67136e+66
   3.67427e+59   -3.5675e+58   1.66464e+59   1.33663e+67 -3.19516e+133  7.82764e+198   1.45124e+67   8.59168e+66  -3.78461e+65   5.15313e+66  -4.42037e+65    1.3979e+65    8.4148e+66
   3.95602e+59   2.09913e+58   -3.8952e+58   5.95042e+66 -1.91225e+133 -5.78291e+198   7.38444e+66   7.15877e+66    3.0506e+65  -1.51341e+66  -7.59886e+65   8.97694e+64   3.07002e+66
   4.28281e+59   1.08314e+58  -3.73951e+58   6.55117e+66 -1.38103e+133 -6.77741e+198   7.53181e+66   7.14278e+66   4.32778e+65  -1.02439e+66   3.70182e+65   9.01621e+64   2.99934e+66
   1.60936e+59   1.04799e+58  -1.18135e+58   3.92678e+66 -4.68051e+133  5.58508e+198   7.88826e+66   5.63506e+66  -1.25948e+65  -1.58233e+66    2.9175e+65  -9.04903e+64   6.10613e+66
   1.28549e+59   2.06481e+58  -9.54661e+57   3.29723e+66 -4.87766e+133  1.47948e+199   7.72323e+66    5.6345e+66   -2.5979e+65  -2.07748e+66  -8.92409e+65   -9.0883e+64   5.94494e+66
   3.33227e+59   6.97546e+58    1.6312e+59   1.55851e+67  5.21243e+133  1.56836e+198   1.38119e+67   9.20708e+66   9.32328e+64   6.28474e+66   -6.8803e+65   5.54659e+64   2.58991e+66
   3.67427e+59    3.5675e+58   1.66464e+59   1.74661e+67  7.28558e+133  3.05664e+199   1.52384e+67   9.46328e+66   4.93139e+65   7.50968e+66   4.42037e+65    1.0995e+65   2.52445e+66
   1.10134e+59   3.66921e+58   1.26285e+59    1.4543e+67  1.89246e+133 -8.20299e+198   1.38771e+67   7.89206e+66  -2.37269e+65   6.88824e+66   3.58389e+65  -3.02566e+65   5.63124e+66
   7.63356e+58    7.1925e+58   1.31673e+59   1.26332e+67  3.88924e+132 -1.01233e+199   1.24783e+67    7.6193e+66  -6.43299e+65   5.65717e+66   -8.2577e+65   -3.5705e+65   5.46483e+66
   4.28281e+59   1.08314e+58  -3.73951e+58   6.37598e+66 -1.50417e+133 -5.11102e+198   7.46289e+66   7.10554e+66    3.3208e+65  -1.06164e+66  -7.12721e+65   3.48965e+64   2.99934e+66
   4.38039e+59  -8.22578e+45  -3.70079e+58   6.51334e+66 -1.38279e+133 -5.47298e+198    7.5001e+66   7.09431e+66   3.61282e+65  -9.42257e+65   4.60988e+65   1.82902e+64   3.02539e+66
   1.70087e+59  -2.01701e+45  -1.23807e+58   3.98186e+66 -4.79067e+133  6.90008e+198    7.9851e+66     5.606e+66  -1.43695e+65  -1.48045e+66   4.32326e+65   -2.6798e+64   6.23112e+66
   1.60936e+59   1.04799e+58  -1.18135e+58   3.84546e+66 -4.76148e+133  9.12968e+198   7.89952e+66   5.61777e+66  -1.72692e+65  -1.59962e+66  -8.06042e+65  -1.01918e+64   6.10613e+66
   3.67427e+59    3.5675e+58   1.66464e+59   1.70499e+67   6.6984e+133   1.2577e+199   1.49571e+67    9.3748e+66   2.53926e+65    7.4212e+66  -6.92509e+65  -2.71545e+64   2.52445e+66
   3.77612e+59  -1.55343e+46   1.66906e+59   1.77336e+67  7.46445e+133  2.53613e+199   1.54867e+67   9.47972e+66   3.99276e+65   7.85461e+66   4.81201e+65   2.08981e+64   2.55033e+66
   1.19716e+59  -5.97958e+45   1.23679e+59   1.48451e+67  1.92477e+133  -9.7638e+198    1.4182e+67    7.9155e+66  -3.10922e+65   7.24052e+66   4.52713e+65  -1.23132e+65   5.75606e+66
   1.10134e+59   3.66921e+58   1.26285e+59   1.41624e+67  1.41484e+133 -1.27042e+199   1.36537e+67   7.81113e+66  -4.56069e+65   6.80731e+66  -7.85655e+65  -1.71184e+65   5.63124e+66
   4.38039e+59  -8.22578e+45  -3.70079e+58   6.51334e+66 -1.38279e+133 -5.47298e+198    7.5001e+66   7.09431e+66   3.61282e+65  -9.42257e+65  -4.60988e+65  -1.82902e+64   3.02539e+66
   4.28281e+59  -1.08314e+58  -3.73951e+58   6.37598e+66 -1.50417e+133 -5.11102e+198   7.46289e+66   7.10554e+66    3.3208e+65  -1.06164e+66   7.12721e+65  -3.48965e+64   2.99934e+66
   1.60936e+59  -1.04799e+58  -1.18135e+58   3.84546e+66 -4.76148e+133  9.12968e+198   7.89952e+66   5.61777e+66  -1.72692e+65  -1.59962e+66   8.06042e+65   1.01918e+64   6.10613e+66
   1.70087e+59  -2.01701e+45  -1.23807e+58   3.98186e+66 -4.79067e+133  6.90008e+198    7.9851e+66     5.606e+66  -1.43695e+65  -1.48045e+66  -4.32326e+65    2.6798e+64   6.23112e+66
   3.77612e+59  -1.55343e+46   1.66906e+59   1.77336e+67  7.46445e+133  2.53613e+199   1.54867e+67   9.47972e+66   3.99276e+65   7.85461e+66  -4.81201e+65  -2.08981e+64   2.55033e+66
   3.67427e+59   -3.5675e+58   1.66464e+59   1.70499e+67   6.6984e+133   1.2577e+199   1.49571e+67    9.3748e+66   2.53926e+65    7.4212e+66   6.92509e+65   2.71545e+64   2.52445e+66
   1.10134e+59  -3.66921e+58   1.26285e+59   1.41624e+67  1.41484e+133 -1.27042e+199   1.36537e+67   7.81113e+66  -4.56069e+65   6.80731e+66   7.85655e+65   1.71184e+65   5.63124e+66
   1.19716e+59  -5.97958e+45   1.23679e+59   1.48451e+67  1.92477e+133  -9.7638e+198    1.4182e+67    7.9155e+66  -3.10922e+65   7.24052e+66  -4.52713e+65   1.23132e+65   5.75606e+66
   4.28281e+59  -1.08314e+58  -3.73951e+58   6.55117e+66 -1.38103e+133 -6.77741e+198   7.53181e+66   7.14278e+66   4.32778e+65  -1.02439e+66  -3.70182e+65  -9.01621e+64   2.99934e+66
   3.95602e+59  -2.09913e+58   -3.8952e+58   5.95042e+66 -1.91225e+133 -5.78291e+198   7.38444e+66   7.15877e+66    3.0506e+65  -1.51341e+66   7.59886e+65  -8.97694e+64   3.07002e+66
   1.28549e+59  -2.06481e+58  -9.54661e+57   3.29723e+66 -4.87766e+133  1.47948e+199   7.72323e+66    5.6345e+66   -2.5979e+65  -2.07748e+66   8.92409e+65    9.0883e+64   5.94494e+66
   1.60936e+59  -1.04799e+58  -1.18135e+58   3.92678e+66 -4.68051e+133  5.58508e+198   7.88826e+66   5.63506e+66  -1.25948e+65  -1.58233e+66   -2.9175e+65   9.04903e+64   6.10613e+66
   3.67427e+59   -3.5675e+58   1.66464e+59   1.74661e+67  7.28558e+133  3.05664e+199   1.52384e+67   9.46328e+66   4.93139e+65   7.50968e+66  -4.42037e+65   -1.0995e+65   2.52445e+66
   3.33227e+59  -6.97546e+58    1.6312e+59   1.55851e+67  5.21243e+133  1.56836e+198   1.38119e+67   9.20708e+66   9.32328e+64   6.28474e+66    6.8803e+65  -5.54659e+64   2.58991e+66
   7.63356e+58   -7.1925e+58   1.31673e+59   1.26332e+67  3.88924e+132 -1.01233e+199   1.24783e+67    7.6193e+66  -6.43299e+65   5.65717e+66    8.2577e+65    3.5705e+65   5.46483e+66
   1.10134e+59  -3.66921e+58   1.26285e+59    1.4543e+67  1.89246e+133 -8.20299e+198   1.38771e+67   7.89206e+66  -2.37269e+65   6.88824e+66  -3.58389e+65   3.02566e+65   5.63124e+66
   1.28549e+59   2.06481e+58  -9.54661e+57   6.88618e+66  2.24678e+132 -1.85936e+197   6.72106e+66    6.3975e+66   5.03216e+65   -1.4538e+64  -8.92409e+65   1.74197e+65  -2.13266e+65
   1.60936e+59   1.04799e+58  -1.18135e+58   7.16675e+66  5.32189e+132   8.9116e+197   6.78531e+66   6.32387e+66   5.62865e+65   2.80013e+65    2.9175e+65   9.40135e+64   2.68352e+65
   1.71571e+58   6.22311e+57   1.34823e+57   2.28261e+66 -1.70621e+133  5.10805e+198   4.71936e+66   3.35609e+66  -3.15128e+65  -7.58347e+65   3.30498e+65  -2.34374e+64   3.68627e+66
  -8.15645e+57   1.46941e+58   6.10115e+57   2.00045e+66 -1.33435e+133  4.93596e+198   4.16478e+66    3.4288e+66  -3.75114e+65  -1.05324e+66  -9.18272e+65   5.67466e+64   2.82748e+66
   7.63356e+58    7.1925e+58   1.31673e+59   1.71378e+67  7.38357e+133  1.58646e+199   1.48279e+67   8.57697e+66   3.14372e+65   8.24643e+66   -8.2577e+65   3.35119e+65  -1.17827e+66
   1.10134e+59   3.66921e+58   1.26285e+59    1.9501e+67  1.01664e+134  6.84372e+199   1.66921e+67   8.94611e+66   8.16789e+65    9.7381e+66   3.58389e+65   3.19545e+65  -6.96361e+65
  -1.32256e+58   2.45412e+58   6.71011e+58   1.42601e+67  3.94394e+133 -1.34989e+199   1.28028e+67   5.90248e+66  -2.66271e+65   8.62389e+66    3.9685e+65  -1.75078e+65   2.72156e+66
  -3.99436e+58   5.94444e+58   8.29578e+58   1.18953e+67  2.54974e+133 -3.24862e+199   1.07704e+67   5.53243e+66  -7.69025e+65   7.13189e+66   -8.5192e+65  -1.59505e+65   1.86248e+66
   1.60936e+59   1.04799e+58  -1.18135e+58   7.08543e+66  4.29534e+132  3.80261e+197   6.77554e+66   6.30658e+66    5.1612e+65   2.62724e+65  -8.06042e+65   1.74312e+65   2.68352e+65
   1.70087e+59  -2.01701e+45  -1.23807e+58   6.87882e+66  3.68168e+132  3.46795e+197   6.60579e+66   6.22188e+66   4.72195e+65   1.84736e+65   4.32326e+65   -2.6798e+64   5.52517e+65
   2.23323e+58   9.37307e+44   1.14151e+57   2.73078e+66 -1.75297e+133  1.52842e+197   4.99868e+66   3.43536e+66  -7.45166e+63  -6.97131e+65   2.44495e+65  -9.76671e+63   3.88001e+66
   1.71571e+58   6.22311e+57   1.34823e+57   2.86901e+66  -1.6154e+133 -1.10552e+198   4.93814e+66   3.48075e+66   2.19363e+64   -6.3368e+65  -6.20925e+65   1.91343e+65   3.68627e+66
   1.10134e+59   3.66921e+58   1.26285e+59   1.91203e+67  9.53833e+133  4.36353e+199   1.64379e+67   8.86519e+66   5.97989e+65   9.65717e+66  -7.85655e+65   4.50927e+65  -6.96361e+65
   1.19716e+59  -5.97958e+45   1.23679e+59   1.84144e+67  8.82709e+133  3.40402e+199   1.58373e+67   8.67434e+66   4.47911e+65   9.29218e+66   4.52713e+65  -1.23132e+65  -3.99813e+65
  -7.88104e+57  -4.28892e+44   6.67693e+58   1.63257e+67  6.48142e+133  5.40129e+199   1.42026e+67   6.32562e+66   1.15197e+66   8.84812e+66   2.52498e+65  -1.56734e+64   2.92768e+66
  -1.32256e+58   2.45412e+58   6.71011e+58   1.69633e+67  7.16691e+133  5.98363e+199   1.46998e+67   6.47717e+66   1.28751e+66   9.19858e+66  -6.12922e+65   5.58385e+65   2.72156e+66
   1.70087e+59  -2.01701e+45  -1.23807e+58   6.87882e+66  3.68168e+132  3.46795e+197   6.60579e+66   6.22188e+66   4.72195e+65   1.84736e+65  -4.32326e+65    2.6798e+64   5.52517e+65
   1.60936e+59  -1.04799e+58  -1.18135e+58   7.08543e+66  4.29534e+132  3.80261e+197   6.77554e+66   6.30658e+66    5.1612e+65   2.62724e+65   8.06042e+65  -1.74312e+65   2.68352e+65
   1.71571e+58  -6.22311e+57   1.34823e+57   2.86901e+66  -1.6154e+133 -1.10552e+198   4.93814e+66   3.48075e+66   2.19363e+64   -6.3368e+65   6.20925e+65  -1.91343e+65   3.68627e+66
   2.23323e+58   9.37307e+44   1.14151e+57   2.73078e+66 -1.75297e+133  1.52842e+197   4.99868e+66   3.43536e+66  -7.45166e+63  -6.97131e+65  -2.44495e+65   9.76671e+63   3.88001e+66
   1.19716e+59  -5.97958e+45   1.23679e+59   1.84144e+67  8.82709e+133  3.40402e+199   1.58373e+67   8.67434e+66   4.47911e+65   9.29218e+66  -4.52713e+65   1.23132e+65  -3.99813e+65
   1.10134e+59  -3.66921e+58   1.26285e+59   1.91203e+67  9.53833e+133  4.36353e+199   1.64379e+67   8.86519e+66   5.97989e+65   9.65717e+66   7.85655e+65  -4.50927e+65  -6.96361e+65
  -1.32256e+58  -2.45412e+58   6.71011e+58   1.69633e+67  7.16691e+133  5.98363e+199   1.46998e+67   6.47717e+66   1.28751e+66   9.19858e+66   6.12922e+65  -5.58385e+65   2.72156e+66
  -7.88104e+57  -4.28892e+44   6.67693e+58   1.63257e+67  6.48142e+133  5.40129e+199   1.42026e+67   6.32562e+66   1.15197e+66   8.84812e+66  -2.52498e+65   1.56734e+64   2.92768e+66
   1.60936e+59  -1.04799e+58  -1.18135e+58   7.16675e+66  5.32189e+132   8.9116e+197   6.78531e+66   6.32387e+66   5.62865e+65   2.80013e+65   -2.9175e+65  -9.40135e+64   2.68352e+65
   1.28549e+59  -2.06481e+58  -9.54661e+57   6.88618e+66  2.24678e+132 -1.85936e+197   6.72106e+66    6.3975e+66   5.03216e+65   -1.4538e+64   8.92409e+65  -1.74197e+65  -2.13266e+65
  -8.15645e+57  -1.46941e+58   6.10115e+57   2.00045e+66 -1.33435e+133  4.93596e+198   4.16478e+66    3.4288e+66  -3.75114e+65  -1.05324e+66   9.18272e+65  -5.67466e+64   2.82748e+66
   1.71571e+58  -6.22311e+57   1.34823e+57   2.28261e+66 -1.70621e+133  5.10805e+198   4.71936e+66   3.35609e+66  -3.15128e+65  -7.58347e+65  -3.30498e+65   2.34374e+64   3.68627e+66
   1.10134e+59  -3.66921e+58   1.26285e+59    1.9501e+67  1.01664e+134  6.84372e+199   1.66921e+67   8.94611e+66   8.16789e+65    9.7381e+66  -3.58389e+65  -3.19545e+65  -6.96361e+65
   7.63356e+58   -7.1925e+58   1.31673e+59   1.71378e+67  7.38357e+133  1.58646e+199   1.48279e+67   8.57697e+66   3.14372e+65   8.24643e+66    8.2577e+65  -3.35119e+65  -1.17827e+66
  -3.99436e+58  -5.94444e+58   8.29578e+58   1.18953e+67  2.54974e+133 -3.24862e+199   1.07704e+67   5.53243e+66  -7.69025e+65   7.13189e+66    8.5192e+65   1.59505e+65   1.86248e+66
  -1.32256e+58  -2.45412e+58   6.71011e+58   1.42601e+67  3.94394e+133 -1.34989e+199   1.28028e+67   5.90248e+66  -2.66271e+65   8.62389e+66   -3.9685e+65   1.75078e+65   2.72156e+66
  -8.15645e+57   1.46941e+58   6.10115e+57   7.67408e+66 -1.27382e+132 -4.32097e+198   7.75664e+66   4.63501e+66   8.31091e+65   2.20799e+66  -9.18272e+65   4.69661e+65  -4.01637e+66
   1.71571e+58   6.22311e+57   1.34823e+57   6.06782e+66  3.24361e+132  2.64681e+196   5.79437e+66   4.16081e+66   4.89601e+65    1.4174e+66   3.30498e+65   6.94578e+64  -2.29586e+66
           280            -5           -50   3.51713e+65 -7.07643e+131 -5.44615e+196   9.11781e+65   7.47737e+64   7.47737e+64   2.02166e+65  -2.97854e+51   2.94005e+65   8.10573e+65
           280           -10           -50   1.59161e+66  1.03208e+131 -1.08568e+197   1.55885e+66   3.38373e+65   3.38373e+65    9.1486e+65   2.59124e+51   6.94209e+65  -3.85344e+65
  -3.99436e+58   5.94444e+58   8.29578e+58   2.08283e+67   7.8005e+133  4.75538e+199    1.8863e+67   7.43157e+66   1.13011e+66   1.22666e+67   -8.5192e+65   2.05926e+66  -5.51812e+66
  -1.32256e+58   2.45412e+58   6.71011e+58   1.63253e+67  5.07599e+133  4.51746e+198   1.46887e+67   6.34155e+66   1.72797e+65     9.811e+66    3.9685e+65   4.10288e+65  -3.73126e+66
           275            -5           -50   1.75046e+67   8.7003e+133  1.32891e+200   1.48125e+67   3.72146e+66   3.72146e+66   1.00617e+67  -5.69401e+51   1.15942e+66   -6.2483e+65
           275           -10           -50   2.16412e+67  1.24184e+134  2.10646e+200   1.85514e+67   4.60088e+66   4.60088e+66   1.24394e+67   5.26141e+51    2.8084e+66   -1.8871e+66
   1.71571e+58   6.22311e+57   1.34823e+57   6.65421e+66  5.68862e+132  9.75316e+197   6.21208e+66   4.28548e+66   8.26665e+65   1.54207e+66  -6.20925e+65   2.84239e+65  -2.29586e+66
   2.23323e+58   9.37307e+44   1.14151e+57    6.5561e+66  6.76988e+132  1.68926e+198   6.01768e+66   4.24862e+66   8.05805e+65   1.50167e+66   2.44495e+65  -9.76671e+63  -2.04546e+66
           280             0           -50   2.97784e+65 -1.08749e+132 -6.97869e+196   1.08451e+66   6.33084e+64   6.33084e+64   1.71167e+65   -5.6414e+50   4.39386e+52   1.05507e+66
           280            -5           -50   3.51713e+65 -7.07643e+131 -5.44615e+196   9.11781e+65   7.47737e+64   7.47737e+64   2.02166e+65   6.68272e+50   2.94005e+65   8.10573e+65
  -1.32256e+58   2.45412e+58   6.71011e+58   1.90285e+67  8.60969e+133  9.22642e+199   1.66129e+67   6.91624e+66   1.72658e+66   1.03857e+67  -6.12922e+65   1.14375e+66  -3.73126e+66
  -7.88104e+57  -4.28892e+44   6.67693e+58   1.88978e+67  8.80612e+133  9.94392e+199   1.64032e+67   6.87244e+66   1.69879e+66   1.03265e+67   2.52498e+65  -1.56734e+64  -3.47286e+66
           275             0           -50   1.74181e+67  8.77237e+133  1.36777e+200   1.46856e+67   3.70306e+66   3.70306e+66    1.0012e+67  -1.12243e+51  -2.03909e+52  -3.72332e+65
           275            -5           -50   1.75046e+67   8.7003e+133  1.32891e+200   1.48125e+67   3.72146e+66   3.72146e+66   1.00617e+67   1.75965e+51   1.15942e+66   -6.2483e+65
   2.23323e+58   9.37307e+44   1.14151e+57    6.5561e+66  6.76988e+132  1.68926e+198   6.01768e+66   4.24862e+66   8.05805e+65   1.50167e+66  -2.44495e+65   9.76671e+63  -2.04546e+66
   1.71571e+58  -6.22311e+57   1.34823e+57   6.65421e+66  5.68862e+132  9.75316e+197   6.21208e+66   4.28548e+66   8.26665e+65   1.54207e+66   6.20925e+65  -2.84239e+65  -2.29586e+66
           280             5           -50   3.51713e+65 -7.07643e+131 -5.44615e+196   9.11781e+65   7.47737e+64   7.47737e+64   2.02166e+65   1.31937e+51  -2.94005e+65   8.10573e+65
           280             0           -50   2.97784e+65 -1.08749e+132 -6.97869e+196   1.08451e+66   6.33084e+64   6.33084e+64   1.71167e+65  -4.96911e+50     4.457e+52   1.05507e+66
  -7.88104e+57  -4.28892e+44   6.67693e+58   1.88978e+67  8.80612e+133  9.94392e+199   1.64032e+67   6.87244e+66   1.69879e+66   1.03265e+67  -2.52498e+65   1.56734e+64  -3.47286e+66
  -1.32256e+58  -2.45412e+58   6.71011e+58   1.90285e+67  8.60969e+133  9.22642e+199   1.66129e+67   6.91624e+66   1.72658e+66   1.03857e+67   6.12922e+65  -1.14375e+66  -3.73126e+66
           275             5           -50   1.75046e+67   8.7003e+133  1.32891e+200   1.48125e+67   3.72146e+66   3.72146e+66   1.00617e+67   2.98292e+51  -1.15942e+66   -6.2483e+65
           275             0           -50   1.74181e+67  8.77237e+133  1.36777e+200   1.46856e+67   3.70306e+66   3.70306e+66    1.0012e+67  -1.28612e+51  -2.03441e+52  -3.72332e+65
   1.71571e+58  -6.22311e+57   1.34823e+57   6.06782e+66  3.24361e+132  2.64681e+196   5.79437e+66   4.16081e+66   4.89601e+65    1.4174e+66  -3.30498e+65  -6.94578e+64  -2.29586e+66
  -8.15645e+57  -1.46941e+58   6.10115e+57   7.67408e+66 -1.27382e+132 -4.32097e+198   7.75664e+66   4.63501e+66   8.31091e+65   2.20799e+66   9.18272e+65  -4.69661e+65  -4.01637e+66
           280            10           -50   1.59161e+66  1.03208e+131 -1.08568e+197   1.55885e+66   3.38373e+65   3.38373e+65    9.1486e+65   4.15359e+51  -6.94209e+65  -3.85344e+65
           280             5           -50   3.51713e+65 -7.07643e+131 -5.44615e+196   9.11781e+65   7.47737e+64   7.47737e+64   2.02166e+65  -2.17471e+51  -2.94005e+65   8.10573e+65
  -1.32256e+58  -2.45412e+58   6.71011e+58   1.63253e+67  5.07599e+133  4.51746e+198   1.46887e+67   6.34155e+66   1.72797e+65     9.811e+66   -3.9685e+65  -4.10288e+65  -3.73126e+66
  -3.99436e+58  -5.94444e+58   8.29578e+58   2.08283e+67   7.8005e+133  4.75538e+199    1.8863e+67   7.43157e+66   1.13011e+66   1.22666e+67    8.5192e+65  -2.05926e+66  -5.51812e+66
           275            10           -50   2.16412e+67  1.24184e+134  2.10646e+200   1.85514e+67   4.60088e+66   4.60088e+66   1.24394e+67    8.2341e+51   -2.8084e+66   -1.8871e+66
           275             5           -50   1.75046e+67   8.7003e+133  1.32891e+200   1.48125e+67   3.72146e+66   3.72146e+66   1.00617e+67  -4.46635e+51  -1.15942e+66   -6.2483e+65
   8.36151e+59  -2.24832e+58  -3.13215e+59  -4.90473e+66 -8.65744e+133  1.02561e+198   1.05181e+67   4.27612e+66   1.19785e+64  -9.19283e+66  -5.48462e+65   8.95599e+64   6.84814e+66
   8.63181e+59  -1.13208e+58   -3.1331e+59  -5.19463e+66 -7.82739e+133  5.22897e+198   1.02595e+67   4.04765e+66  -4.96533e+64  -9.19262e+66   3.46605e+65   5.47544e+64   6.41855e+66
   4.84616e+59  -1.25751e+58  -2.27709e+59  -4.53046e+66 -1.19445e+134 -1.77997e+199   1.18309e+67    4.3598e+66   1.61159e+65  -9.05142e+66   3.57728e+65   2.38343e+64   8.89372e+66
   4.53638e+59  -2.44742e+58   -2.2696e+59  -4.25755e+66 -1.27355e+134 -2.41065e+199   1.20616e+67   4.57851e+66   2.19179e+65  -9.05524e+66   -6.8443e+65   5.86399e+64   9.18926e+66
    7.7986e+59   1.61556e+58  -7.56534e+58      3.08e+66 -6.53077e+133  5.76967e+198   8.64836e+66   5.97366e+66  -8.06155e+64  -2.81305e+66  -4.65041e+65   1.00707e+64   6.93054e+66
   8.08655e+59   8.37237e+57  -7.06045e+58   3.53033e+66 -5.65406e+133   1.8466e+197   8.30685e+66   5.90256e+66   1.51237e+64  -2.38735e+66   4.30026e+65   1.22356e+65   6.50402e+66
   4.28281e+59   1.08314e+58  -3.73951e+58    3.3823e+66 -9.63073e+133   2.3063e+199   1.03801e+67   6.04204e+66  -2.40917e+65  -2.41882e+66   4.38072e+65  -4.26209e+64    8.9792e+66
   3.95602e+59   2.09913e+58   -3.8952e+58   2.91498e+66 -1.04843e+134  3.77938e+199   1.06462e+67   6.10338e+66  -3.40269e+65  -2.84813e+66  -6.04086e+65  -1.54906e+65   9.27166e+66
   8.63181e+59  -1.13208e+58   -3.1331e+59  -5.15331e+66 -7.85979e+133  4.07225e+198   1.02545e+67   4.05643e+66  -2.59066e+64  -9.18384e+66  -5.24076e+65   6.88664e+64   6.41855e+66
   8.71781e+59  -7.55212e+45  -3.13107e+59  -5.30297e+66 -7.65111e+133  5.99722e+198    1.0229e+67   3.98504e+66  -5.77243e+64  -9.23029e+66   4.06309e+65   9.60919e+63   6.31392e+66
   4.94037e+59  -1.37882e+45  -2.27351e+59  -4.48246e+66  -1.1898e+134  -2.5754e+199   1.17929e+67   4.33816e+66    2.3523e+65  -9.05585e+66   4.45065e+65   1.69281e+64   8.85361e+66
   4.84616e+59  -1.25751e+58  -2.27709e+59  -4.35413e+66  -1.2039e+134 -2.81551e+199   1.18046e+67   4.39729e+66   2.62514e+65  -9.01393e+66  -6.60754e+65   7.61854e+64   8.89372e+66
   8.08655e+59   8.37237e+57  -7.06045e+58   3.37663e+66 -5.70162e+133  5.01032e+198   8.27151e+66   5.86988e+66  -7.32231e+64  -2.42003e+66  -5.04291e+65  -4.06934e+64   6.50402e+66
   8.17674e+59  -1.75689e+46  -6.90068e+58   3.58319e+66 -5.45807e+133  2.38018e+198   8.21097e+66   5.87423e+66  -2.93092e+64  -2.26173e+66   4.26094e+65   7.54833e+64   6.40326e+66
   4.38039e+59  -8.22578e+45  -3.70079e+58     3.435e+66 -9.50906e+133  2.81308e+199   1.03388e+67    6.0214e+66  -2.93167e+65  -2.29323e+66   4.60988e+65   1.82902e+64   8.94295e+66
   4.28281e+59   1.08314e+58  -3.73951e+58   3.20712e+66 -9.70119e+133  3.46786e+199   1.03585e+67    6.0048e+66  -3.41615e+65  -2.45607e+66  -6.44831e+65  -9.78865e+64    8.9792e+66
   8.71781e+59  -7.55212e+45  -3.13107e+59  -5.30297e+66 -7.65111e+133  5.99722e+198    1.0229e+67   3.98504e+66  -5.77243e+64  -9.23029e+66  -4.06309e+65  -9.60919e+63   6.31392e+66
   8.63181e+59   1.13208e+58   -3.1331e+59  -5.15331e+66 -7.85979e+133  4.07225e+198   1.02545e+67   4.05643e+66  -2.59066e+64  -9.18384e+66   5.24076e+65  -6.88664e+64   6.41855e+66
   4.84616e+59   1.25751e+58  -2.27709e+59  -4.35413e+66  -1.2039e+134 -2.81551e+199   1.18046e+67   4.39729e+66   2.62514e+65  -9.01393e+66   6.60754e+65  -7.61854e+64   8.89372e+66
   4.94037e+59  -1.37882e+45  -2.27351e+59  -4.48246e+66  -1.1898e+134  -2.5754e+199   1.17929e+67   4.33816e+66    2.3523e+65  -9.05585e+66  -4.45065e+65  -1.69281e+64   8.85361e+66
   8.17674e+59  -1.75689e+46  -6.90068e+58   3.58319e+66 -5.45807e+133  2.38018e+198   8.21097e+66   5.87423e+66  -2.93092e+64  -2.26173e+66  -4.26094e+65  -7.54833e+64   6.40326e+66
   8.08655e+59  -8.37237e+57  -7.06045e+58   3.37663e+66 -5.70162e+133  5.01032e+198   8.27151e+66   5.86988e+66  -7.32231e+64  -2.42003e+66   5.04291e+65   4.06934e+64   6.50402e+66
   4.28281e+59  -1.08314e+58  -3.73951e+58   3.20712e+66 -9.70119e+133  3.46786e+199   1.03585e+67    6.0048e+66  -3.41615e+65  -2.45607e+66   6.44831e+65   9.78865e+64    8.9792e+66
   4.38039e+59  -8.22578e+45  -3.70079e+58     3.435e+66 -9.50906e+133  2.81308e+199   1.03388e+67    6.0214e+66  -2.93167e+65  -2.29323e+66  -4.60988e+65  -1.82902e+64   8.94295e+66
   8.63181e+59   1.13208e+58   -3.1331e+59  -5.19463e+66 -7.82739e+133  5.22897e+198   1.02595e+67   4.04765e+66  -4.96533e+64  -9.19262e+66  -3.46605e+65  -5.47544e+64   6.41855e+66
   8.36151e+59   2.24832e+58  -3.13215e+59  -4.90473e+66 -8.65744e+133  1.02561e+198   1.05181e+67   4.27612e+66   1.19785e+64  -9.19283e+66   5.48462e+65  -8.95599e+64   6.84814e+66
   4.53638e+59   2.44742e+58   -2.2696e+59  -4.25755e+66 -1.27355e+134 -2.41065e+199   1.20616e+67   4.57851e+66   2.19179e+65  -9.05524e+66    6.8443e+65  -5.86399e+64   9.18926e+66
   4.84616e+59   1.25751e+58  -2.27709e+59  -4.53046e+66 -1.19445e+134 -1.77997e+199   1.18309e+67    4.3598e+66   1.61159e+65  -9.05142e+66  -3.57728e+65  -2.38343e+64   8.89372e+66
   8.08655e+59  -8.37237e+57  -7.06045e+58   3.53033e+66 -5.65406e+133   1.8466e+197   8.30685e+66   5.90256e+66   1.51237e+64  -2.38735e+66  -4.30026e+65  -1.22356e+65   6.50402e+66
    7.7986e+59  -1.61556e+58  -7.56534e+58      3.08e+66 -6.53077e+133  5.76967e+198   8.64836e+66   5.97366e+66  -8.06155e+64  -2.81305e+66   4.65041e+65  -1.00707e+64   6.93054e+66
   3.95602e+59  -2.09913e+58   -3.8952e+58   2.91498e+66 -1.04843e+134  3.77938e+199   1.06462e+67   6.10338e+66  -3.40269e+65  -2.84813e+66   6.04086e+65   1.54906e+65   9.27166e+66
   4.28281e+59  -1.08314e+58  -3.73951e+58    3.3823e+66 -9.63073e+133   2.3063e+199   1.03801e+67   6.04204e+66  -2.40917e+65  -2.41882e+66  -4.38072e+65   4.26209e+64    8.9792e+66
   4.53638e+59  -2.44742e+58   -2.2696e+59  -3.97891e+66 -6.02582e+133 -1.27962e+199   8.72295e+66   4.63775e+66   2.78418e+65  -8.89507e+66   -6.8443e+65   1.04994e+65   4.16416e+66
   4.84616e+59  -1.25751e+58  -2.27709e+59  -4.86789e+66  -5.6735e+133 -3.71914e+198   8.96835e+66   4.28807e+66   8.94219e+64  -9.24538e+66   3.57728e+65   4.40761e+64   4.06411e+66
   2.08278e+59  -1.42578e+58  -1.40815e+59  -6.87747e+66 -7.62362e+133  1.79953e+199   1.11147e+67   3.01112e+66  -2.15977e+65  -9.67261e+66   2.85909e+65   1.24729e+65   6.96076e+66
   1.77489e+59  -2.74463e+58  -1.41773e+59  -6.01525e+66 -7.79469e+133   6.5855e+198   1.06832e+67   3.34542e+66  -3.26699e+64    -9.328e+66   -8.1756e+65   1.85646e+65   6.79951e+66
   3.95602e+59   2.09913e+58   -3.8952e+58   4.81829e+66 -2.54289e+133 -1.44994e+198   6.97458e+66   6.50802e+66   6.43713e+64   -1.7541e+66  -6.04086e+65   8.97694e+64   3.73446e+66
   4.28281e+59   1.08314e+58  -3.73951e+58   5.37217e+66 -2.07422e+133 -3.43377e+198    7.0429e+66   6.46509e+66   1.82125e+65  -1.27504e+66   4.38072e+65   9.01621e+64   3.63925e+66
   1.60936e+59   1.04799e+58  -1.18135e+58   3.02404e+66 -5.29965e+133  1.62265e+199   7.88298e+66   5.11616e+66  -3.17868e+65  -1.77425e+66   3.61407e+65  -9.04903e+64   6.53591e+66
   1.28549e+59   2.06481e+58  -9.54661e+57   2.44341e+66 -5.40261e+133  2.50944e+199   7.74573e+66   5.14372e+66   -4.4131e+65    -2.259e+66  -7.42062e+65   -9.0883e+64   6.36981e+66
   4.84616e+59  -1.25751e+58  -2.27709e+59  -4.69156e+66 -5.77235e+133  -7.2875e+198    8.9294e+66   4.32555e+66   1.90776e+65  -9.20789e+66  -6.60754e+65   9.64271e+64   4.06411e+66
   4.94037e+59  -1.37882e+45  -2.27351e+59  -5.00496e+66 -5.70973e+133 -5.07106e+198    9.0635e+66   4.22708e+66   1.24146e+65  -9.35619e+66   4.45065e+65   1.69281e+64   4.08814e+66
   2.17161e+59   1.77437e+45  -1.39593e+59  -6.89388e+66 -7.84729e+133  1.14193e+199   1.12249e+67   2.98233e+66  -1.18436e+65  -9.75777e+66   4.19676e+65   5.77641e+64   7.07072e+66
   2.08278e+59  -1.42578e+58  -1.40815e+59  -6.59854e+66 -7.81849e+133  8.24316e+198   1.10329e+67   3.07042e+66  -5.56472e+64  -9.61331e+66  -7.49036e+65   1.37263e+65   6.96076e+66
   4.28281e+59   1.08314e+58  -3.73951e+58   5.19698e+66 -2.16798e+133 -1.39122e+198   6.97771e+66   6.42784e+66   8.14265e+64  -1.31229e+66  -6.44831e+65   3.48965e+64   3.63925e+66
   4.38039e+59  -8.22578e+45  -3.70079e+58   5.35802e+66 -2.06884e+133 -2.12631e+198   7.02829e+66   6.43023e+66   1.15664e+65  -1.18787e+66   4.60988e+65   1.82902e+64   3.66655e+66
   1.70087e+59  -2.01701e+45  -1.23807e+58   3.12183e+66 -5.40267e+133  1.73658e+199   7.98577e+66   5.11165e+66  -3.26534e+65  -1.66329e+66   4.32326e+65   -2.6798e+64   6.64913e+66
   1.60936e+59   1.04799e+58  -1.18135e+58   2.94272e+66 -5.36012e+133  1.99753e+199   7.89055e+66   5.09887e+66  -3.64613e+65  -1.79154e+66  -7.36385e+65  -1.01918e+64   6.53591e+66
   4.94037e+59  -1.37882e+45  -2.27351e+59  -5.00496e+66 -5.70973e+133 -5.07106e+198    9.0635e+66   4.22708e+66   1.24146e+65  -9.35619e+66  -4.45065e+65  -1.69281e+64   4.08814e+66
   4.84616e+59   1.25751e+58  -2.27709e+59  -4.69156e+66 -5.77235e+133  -7.2875e+198    8.9294e+66   4.32555e+66   1.90776e+65  -9.20789e+66   6.60754e+65  -9.64271e+64   4.06411e+66
   2.08278e+59   1.42578e+58  -1.40815e+59  -6.59854e+66 -7.81849e+133  8.24316e+198   1.10329e+67   3.07042e+66  -5.56472e+64  -9.61331e+66   7.49036e+65  -1.37263e+65   6.96076e+66
   2.17161e+59   1.77437e+45  -1.39593e+59  -6.89388e+66 -7.84729e+133  1.14193e+199   1.12249e+67   2.98233e+66  -1.18436e+65  -9.75777e+66  -4.19676e+65  -5.77641e+64   7.07072e+66
   4.38039e+59  -8.22578e+45  -3.70079e+58   5.35802e+66 -2.06884e+133 -2.12631e+198   7.02829e+66   6.43023e+66   1.15664e+65  -1.18787e+66  -4.60988e+65  -1.82902e+64   3.66655e+66
   4.28281e+59  -1.08314e+58  -3.73951e+58   5.19698e+66 -2.16798e+133 -1.39122e+198   6.97771e+66   6.42784e+66   8.14265e+64  -1.31229e+66   6.44831e+65  -3.48965e+64   3.63925e+66
   1.60936e+59  -1.04799e+58  -1.18135e+58   2.94272e+66 -5.36012e+133  1.99753e+199   7.89055e+66   5.09887e+66  -3.64613e+65  -1.79154e+66   7.36385e+65   1.01918e+64   6.53591e+66
   1.70087e+59  -2.01701e+45  -1.23807e+58   3.12183e+66 -5.40267e+133  1.73658e+199   7.98577e+66   5.11165e+66  -3.26534e+65  -1.66329e+66  -4.32326e+65    2.6798e+64   6.64913e+66
   4.84616e+59   1.25751e+58  -2.27709e+59  -4.86789e+66  -5.6735e+133 -3.71914e+198   8.96835e+66   4.28807e+66   8.94219e+64  -9.24538e+66  -3.57728e+65  -4.40761e+64   4.06411e+66
   4.53638e+59   2.44742e+58   -2.2696e+59  -3.97891e+66 -6.02582e+133 -1.27962e+199   8.72295e+66   4.63775e+66   2.78418e+65  -8.89507e+66    6.8443e+65  -1.04994e+65   4.16416e+66
   1.77489e+59   2.74463e+58  -1.41773e+59  -6.01525e+66 -7.79469e+133   6.5855e+198   1.06832e+67   3.34542e+66  -3.26699e+64    -9.328e+66    8.1756e+65  -1.85646e+65   6.79951e+66
   2.08278e+59   1.42578e+58  -1.40815e+59  -6.87747e+66 -7.62362e+133  1.79953e+199   1.11147e+67   3.01112e+66  -2.15977e+65  -9.67261e+66  -2.85909e+65  -1.24729e+65   6.96076e+66
   4.28281e+59  -1.08314e+58  -3.73951e+58   5.37217e+66 -2.07422e+133 -3.43377e+198    7.0429e+66   6.46509e+66   1.82125e+65  -1.27504e+66  -4.38072e+65  -9.01621e+64   3.63925e+66
   3.95602e+59  -2.09913e+58   -3.8952e+58   4.81829e+66 -2.54289e+133 -1.44994e+198   6.97458e+66   6.50802e+66   6.43713e+64   -1.7541e+66   6.04086e+65  -8.97694e+64   3.73446e+66
   1.28549e+59  -2.06481e+58  -9.54661e+57   2.44341e+66 -5.40261e+133  2.50944e+199   7.74573e+66   5.14372e+66   -4.4131e+65    -2.259e+66   7.42062e+65    9.0883e+64   6.36981e+66
   1.60936e+59  -1.04799e+58  -1.18135e+58   3.02404e+66 -5.29965e+133  1.62265e+199   7.88298e+66   5.11616e+66  -3.17868e+65  -1.77425e+66  -3.61407e+65   9.04903e+64   6.53591e+66
   1.77489e+59  -2.74463e+58  -1.41773e+59  -3.65172e+66 -3.46164e+133 -9.79502e+198    6.9247e+66    3.8479e+66   4.69812e+65  -7.96944e+66   -8.1756e+65   4.05184e+64   1.15948e+66
   2.08278e+59  -1.42578e+58  -1.40815e+59   -5.2788e+66 -3.27383e+133 -3.38338e+198   7.78486e+66   3.35099e+66   1.23896e+65  -8.75369e+66   2.85909e+65  -1.06658e+65   1.62549e+66
   4.48699e+58  -1.10428e+58  -6.00493e+58  -9.58679e+66 -2.44342e+133  1.57189e+199   1.07861e+67   5.80394e+65  -4.97622e+65  -9.66956e+66   3.25222e+65   1.12512e+65   4.81939e+66
   2.07201e+58  -2.73466e+58  -6.56458e+58    -8.073e+66  -2.4546e+133  8.95508e+198   9.47202e+66   1.01219e+66  -1.75792e+65  -8.90939e+66  -8.45239e+65   2.59689e+65   4.01676e+66
   1.28549e+59   2.06481e+58  -9.54661e+57   6.03236e+66  5.32554e+130 -5.12931e+197   6.02794e+66   5.90672e+66   3.21695e+65  -1.96058e+65  -7.42062e+65   1.74197e+65   2.11604e+65
   1.60936e+59   1.04799e+58  -1.18135e+58   6.26401e+66  2.07053e+132  -6.4755e+195    6.0965e+66   5.80498e+66   3.70944e+65   8.80922e+64   3.61407e+65   9.40135e+64   6.98132e+65
   1.71571e+58   6.22311e+57   1.34823e+57   1.58611e+66 -1.89214e+133  8.31758e+198   4.63003e+66   2.95574e+66  -4.63202e+65  -9.06422e+65   3.80204e+65  -2.34374e+64   3.89203e+66
  -8.15645e+57   1.46941e+58   6.10115e+57   1.24117e+66 -1.46343e+133  7.47695e+198   4.02179e+66   2.99236e+66  -5.36536e+65  -1.21466e+66  -7.90257e+65   5.67466e+64   3.06888e+66
   2.08278e+59  -1.42578e+58  -1.40815e+59  -4.99987e+66 -3.43644e+133 -4.10141e+198   7.70475e+66   3.41029e+66   2.84227e+65  -8.69439e+66  -7.49036e+65  -9.41236e+64   1.62549e+66
   2.17161e+59   1.77437e+45  -1.39593e+59  -4.74895e+66 -3.47943e+133 -9.52358e+198   7.57277e+66   3.43834e+66   3.37573e+65  -8.52486e+66   4.19676e+65   5.77641e+64   1.89379e+66
    4.9864e+58   2.23416e+45  -6.00563e+58  -1.06857e+67  -1.6791e+133  3.53703e+199   1.14444e+67    3.2966e+65  -1.22834e+66    -9.787e+66   2.35939e+65  -3.29567e+62   5.01257e+66
   4.48699e+58  -1.10428e+58  -6.00493e+58  -1.09592e+67  -1.4017e+133  3.77719e+199   1.15811e+67   2.88619e+65   -1.2865e+66  -9.96134e+66  -5.79775e+65  -1.52217e+65   4.81939e+66
   1.60936e+59   1.04799e+58  -1.18135e+58   6.18269e+66  1.24907e+132 -4.18635e+197   6.08084e+66   5.78769e+66   3.24199e+65    7.0803e+64  -7.36385e+65   1.74312e+65   6.98132e+65
   1.70087e+59  -2.01701e+45  -1.23807e+58   6.01879e+66  5.39158e+131 -2.96362e+197   5.97383e+66   5.72754e+66   2.89355e+65    1.8961e+63   4.32326e+65   -2.6798e+64   9.70525e+65
   2.23323e+58   9.37307e+44   1.14151e+57   2.03122e+66 -1.96896e+133  3.04307e+198   4.88011e+66   3.03325e+66  -1.56176e+65  -8.45855e+65   2.44495e+65  -9.76671e+63    4.0893e+66
   1.71571e+58   6.22311e+57   1.34823e+57   2.17251e+66 -1.82089e+133    1.506e+198   4.78839e+66    3.0804e+66  -1.26138e+65  -7.81755e+65  -5.71219e+65   1.91343e+65   3.89203e+66
   2.17161e+59   1.77437e+45  -1.39593e+59  -4.74895e+66 -3.47943e+133 -9.52358e+198   7.57277e+66   3.43834e+66   3.37573e+65  -8.52486e+66  -4.19676e+65  -5.77641e+64   1.89379e+66
   2.08278e+59   1.42578e+58  -1.40815e+59  -4.99987e+66 -3.43644e+133 -4.10141e+198   7.70475e+66   3.41029e+66   2.84227e+65  -8.69439e+66   7.49036e+65   9.41236e+64   1.62549e+66
   4.48699e+58   1.10428e+58  -6.00493e+58  -1.09592e+67  -1.4017e+133  3.77719e+199   1.15811e+67   2.88619e+65   -1.2865e+66  -9.96134e+66   5.79775e+65   1.52217e+65   4.81939e+66
    4.9864e+58   2.23416e+45  -6.00563e+58  -1.06857e+67  -1.6791e+133  3.53703e+199   1.14444e+67    3.2966e+65  -1.22834e+66    -9.787e+66  -2.35939e+65   3.29567e+62   5.01257e+66
   1.70087e+59  -2.01701e+45  -1.23807e+58   6.01879e+66  5.39158e+131 -2.96362e+197   5.97383e+66   5.72754e+66   2.89355e+65    1.8961e+63  -4.32326e+65    2.6798e+64   9.70525e+65
   1.60936e+59  -1.04799e+58  -1.18135e+58   6.18269e+66  1.24907e+132 -4.18635e+197   6.08084e+66   5.78769e+66   3.24199e+65    7.0803e+64   7.36385e+65  -1.74312e+65   6.98132e+65
   1.71571e+58  -6.22311e+57   1.34823e+57   2.17251e+66 -1.82089e+133    1.506e+198   4.78839e+66    3.0804e+66  -1.26138e+65  -7.81755e+65   5.71219e+65  -1.91343e+65   3.89203e+66
   2.23323e+58   9.37307e+44   1.14151e+57   2.03122e+66 -1.96896e+133  3.04307e+198   4.88011e+66   3.03325e+66  -1.56176e+65  -8.45855e+65  -2.44495e+65   9.76671e+63    4.0893e+66
   2.08278e+59   1.42578e+58  -1.40815e+59   -5.2788e+66 -3.27383e+133 -3.38338e+198   7.78486e+66   3.35099e+66   1.23896e+65  -8.75369e+66  -2.85909e+65   1.06658e+65   1.62549e+66
   1.77489e+59   2.74463e+58  -1.41773e+59  -3.65172e+66 -3.46164e+133 -9.79502e+198    6.9247e+66    3.8479e+66   4.69812e+65  -7.96944e+66    8.1756e+65  -4.05184e+64   1.15948e+66
   2.07201e+58   2.73466e+58  -6.56458e+58    -8.073e+66  -2.4546e+133  8.95508e+198   9.47202e+66   1.01219e+66  -1.75792e+65  -8.90939e+66   8.45239e+65  -2.59689e+65   4.01676e+66
   4.48699e+58   1.10428e+58  -6.00493e+58  -9.58679e+66 -2.44342e+133  1.57189e+199   1.07861e+67   5.80394e+65  -4.97622e+65  -9.66956e+66  -3.25222e+65  -1.12512e+65   4.81939e+66
   1.60936e+59  -1.04799e+58  -1.18135e+58   6.26401e+66  2.07053e+132  -6.4755e+195    6.0965e+66   5.80498e+66   3.70944e+65   8.80922e+64  -3.61407e+65  -9.40135e+64   6.98132e+65
   1.28549e+59  -2.06481e+58  -9.54661e+57   6.03236e+66  5.32554e+130 -5.12931e+197   6.02794e+66   5.90672e+66   3.21695e+65  -1.96058e+65   7.42062e+65  -1.74197e+65   2.11604e+65
  -8.15645e+57  -1.46941e+58   6.10115e+57   1.24117e+66 -1.46343e+133  7.47695e+198   4.02179e+66   2.99236e+66  -5.36536e+65  -1.21466e+66   7.90257e+65  -5.67466e+64   3.06888e+66
   1.71571e+58  -6.22311e+57   1.34823e+57   1.58611e+66 -1.89214e+133  8.31758e+198   4.63003e+66   2.95574e+66  -4.63202e+65  -9.06422e+65  -3.80204e+65   2.34374e+64   3.89203e+66
   2.07201e+58  -2.73466e+58  -6.56458e+58  -5.33882e+66 -2.16037e+133 -7.72555e+198   7.07861e+66   1.59347e+66    4.0549e+65  -7.33778e+66  -8.45239e+65  -1.02757e+66  -2.41072e+66
   4.48699e+58  -1.10428e+58  -6.00493e+58  -4.18246e+66   -1.528e+133  -7.0793e+198   5.72477e+66   1.72935e+66    6.5133e+65  -6.56314e+66   3.25222e+65  -2.57308e+65  -7.80835e+65
           285            -5           -50   -1.5665e+67  6.63007e+133 -8.39977e+199   1.33826e+67  -3.33036e+66  -3.33036e+66  -9.00432e+66   4.34066e+51  -5.21708e+65   2.11984e+66
           285           -10           -50   -1.7125e+67   8.2303e+133  -1.2091e+200   1.45245e+67  -3.64075e+66  -3.64075e+66   -9.8435e+66  -4.34797e+51  -1.29197e+66   9.78902e+65
  -8.15645e+57   1.46941e+58   6.10115e+57    6.9148e+66 -2.32065e+132 -3.19084e+198   7.08061e+66   4.19857e+66   6.69668e+65   2.04656e+66  -7.90257e+65   4.69661e+65  -3.77496e+66
   1.71571e+58   6.22311e+57   1.34823e+57   5.37132e+66  1.97316e+132 -1.73793e+197   5.18439e+66   3.76046e+66   3.41526e+65   1.26933e+66   3.80204e+65   6.94578e+64   -2.0901e+66
           280            -5           -50   3.51713e+65 -7.07643e+131 -5.44615e+196   9.11781e+65   7.47737e+64   7.47737e+64   2.02166e+65   1.53165e+51   2.94005e+65   8.10573e+65
           280           -10           -50   1.59161e+66  1.03208e+131 -1.08568e+197   1.55885e+66   3.38373e+65   3.38373e+65    9.1486e+65  -1.34458e+51   6.94209e+65  -3.85344e+65
   4.48699e+58  -1.10428e+58  -6.00493e+58  -5.55489e+66 -1.03277e+133  2.87904e+198   6.41751e+66   1.43757e+66  -1.37544e+65  -6.85491e+66  -5.79775e+65  -5.22038e+65  -7.80835e+65
    4.9864e+58   2.23416e+45  -6.00563e+58  -5.60395e+66  -9.2163e+132   1.8573e+198   6.37343e+66   1.41003e+66  -1.47974e+65    -6.866e+66   2.35939e+65  -3.29567e+62  -5.35459e+65
           285             0           -50  -1.56669e+67  6.55335e+133   -8.142e+199   1.34133e+67  -3.33075e+66  -3.33075e+66  -9.00536e+66   9.09054e+50   1.05538e+53   2.35578e+66
           285            -5           -50   -1.5665e+67  6.63007e+133 -8.39977e+199   1.33826e+67  -3.33036e+66  -3.33036e+66  -9.00432e+66   -1.2536e+51  -5.21708e+65   2.11984e+66
   1.71571e+58   6.22311e+57   1.34823e+57   5.95771e+66  4.22261e+132   6.2068e+197   5.59212e+66   3.88513e+66    6.7859e+65   1.39399e+66  -5.71219e+65   2.84239e+65   -2.0901e+66
   2.23323e+58   9.37307e+44   1.14151e+57   5.85654e+66  5.18922e+132  1.13171e+198   5.39536e+66   3.84651e+66   6.57081e+65   1.35295e+66   2.44495e+65  -9.76671e+63  -1.83617e+66
           280             0           -50   2.97784e+65 -1.08749e+132 -6.97869e+196   1.08451e+66   6.33084e+64   6.33084e+64   1.71167e+65   4.32604e+50   4.43478e+52   1.05507e+66
           280            -5           -50   3.51713e+65 -7.07643e+131 -5.44615e+196   9.11781e+65   7.47737e+64   7.47737e+64   2.02166e+65  -4.42835e+50   2.94005e+65   8.10573e+65
    4.9864e+58   2.23416e+45  -6.00563e+58  -5.60395e+66  -9.2163e+132   1.8573e+198   6.37343e+66   1.41003e+66  -1.47974e+65    -6.866e+66  -2.35939e+65   3.29567e+62  -5.35459e+65
   4.48699e+58   1.10428e+58  -6.00493e+58  -5.55489e+66 -1.03277e+133  2.87904e+198   6.41751e+66   1.43757e+66  -1.37544e+65  -6.85491e+66   5.79775e+65   5.22038e+65  -7.80835e+65
           285             5           -50   -1.5665e+67  6.63007e+133 -8.39977e+199   1.33826e+67  -3.33036e+66  -3.33036e+66  -9.00432e+66  -1.87255e+51   5.21708e+65   2.11984e+66
           285             0           -50  -1.56669e+67  6.55335e+133   -8.142e+199   1.34133e+67  -3.33075e+66  -3.33075e+66  -9.00536e+66   8.21364e+50   1.05941e+53   2.35578e+66
   2.23323e+58   9.37307e+44   1.14151e+57   5.85654e+66  5.18922e+132  1.13171e+198   5.39536e+66   3.84651e+66   6.57081e+65   1.35295e+66  -2.44495e+65   9.76671e+63  -1.83617e+66
   1.71571e+58  -6.22311e+57   1.34823e+57   5.95771e+66  4.22261e+132   6.2068e+197   5.59212e+66   3.88513e+66    6.7859e+65   1.39399e+66   5.71219e+65  -2.84239e+65   -2.0901e+66
           280             5           -50   3.51713e+65 -7.07643e+131 -5.44615e+196   9.11781e+65   7.47737e+64   7.47737e+64   2.02166e+65   -8.3744e+50  -2.94005e+65   8.10573e+65
           280             0           -50   2.97784e+65 -1.08749e+132 -6.97869e+196   1.08451e+66   6.33084e+64   6.33084e+64   1.71167e+65   1.87072e+50   4.40292e+52   1.05507e+66
   4.48699e+58   1.10428e+58  -6.00493e+58  -4.18246e+66   -1.528e+133  -7.0793e+198   5.72477e+66   1.72935e+66    6.5133e+65  -6.56314e+66  -3.25222e+65   2.57308e+65  -7.80835e+65
   2.07201e+58   2.73466e+58  -6.56458e+58  -5.33882e+66 -2.16037e+133 -7.72555e+198   7.07861e+66   1.59347e+66    4.0549e+65  -7.33778e+66   8.45239e+65   1.02757e+66  -2.41072e+66
           285            10           -50   -1.7125e+67   8.2303e+133  -1.2091e+200   1.45245e+67  -3.64075e+66  -3.64075e+66   -9.8435e+66   -5.8007e+51   1.29197e+66   9.78902e+65
           285             5           -50   -1.5665e+67  6.63007e+133 -8.39977e+199   1.33826e+67  -3.33036e+66  -3.33036e+66  -9.00432e+66   3.22992e+51   5.21708e+65   2.11984e+66
   1.71571e+58  -6.22311e+57   1.34823e+57   5.37132e+66  1.97316e+132 -1.73793e+197   5.18439e+66   3.76046e+66   3.41526e+65   1.26933e+66  -3.80204e+65  -6.94578e+64   -2.0901e+66
  -8.15645e+57  -1.46941e+58   6.10115e+57    6.9148e+66 -2.32065e+132 -3.19084e+198   7.08061e+66   4.19857e+66   6.69668e+65   2.04656e+66   7.90257e+65  -4.69661e+65  -3.77496e+66
           280            10           -50   1.59161e+66  1.03208e+131 -1.08568e+197   1.55885e+66   3.38373e+65   3.38373e+65    9.1486e+65  -2.18933e+51  -6.94209e+65  -3.85344e+65
           280             5           -50   3.51713e+65 -7.07643e+131 -5.44615e+196   9.11781e+65   7.47737e+64   7.47737e+64   2.02166e+65   1.19259e+51  -2.94005e+65   8.10573e+65
    8.8855e+59  -5.86145e+58  -5.59638e+59  -1.41171e+67  -6.6608e+133  2.14884e+199   1.63065e+67   1.94976e+66  -2.69007e+65  -1.57978e+67  -4.81627e+65   1.61664e+65   6.26682e+66
   9.14486e+59   -2.9698e+58   -5.6501e+59  -1.50121e+67 -5.42526e+133  2.98862e+199   1.67217e+67   1.65624e+66  -4.59277e+65   -1.6209e+67   3.57147e+65  -2.59485e+64    5.8277e+66
   5.39434e+59  -3.45201e+58  -4.27241e+59  -1.30599e+67   -1.113e+134 -3.25453e+199   1.67887e+67   2.40312e+66   3.30973e+65   -1.5794e+67   3.78445e+65   8.45057e+64   8.29232e+66
   5.09478e+59  -6.74077e+58  -4.24208e+59  -1.21832e+67 -1.22141e+134 -5.68405e+199    1.6449e+67   2.68617e+66   5.17368e+65  -1.53867e+67  -6.13136e+65   2.72118e+65   8.59007e+66
   8.36151e+59  -2.24832e+58  -3.13215e+59  -5.92025e+66 -7.51059e+133  1.67287e+199   1.04955e+67    3.6924e+66  -2.03919e+65  -9.40873e+66      -4.3e+65   8.95599e+64   6.42945e+66
   8.63181e+59  -1.13208e+58   -3.1331e+59  -6.03459e+66 -6.81753e+133  1.76467e+199    1.0227e+67   3.56484e+66  -2.28228e+65   -9.3712e+66   4.08775e+65   5.47544e+64   5.99363e+66
   4.84616e+59  -1.25751e+58  -2.27709e+59  -4.92619e+66 -1.09861e+134 -6.58486e+198   1.15814e+67   4.13234e+66   7.70266e+64  -9.13555e+66   4.26771e+65   2.38343e+64   8.45825e+66
   4.53638e+59  -2.44742e+58   -2.2696e+59  -4.83008e+66 -1.16409e+134 -8.93387e+198   1.18211e+67   4.24942e+66   9.74602e+64  -9.17696e+66   -5.6481e+65   5.86399e+64   8.75269e+66
   9.14486e+59   -2.9698e+58   -5.6501e+59  -1.48082e+67 -5.67411e+133  2.36504e+199    1.6614e+67   1.69958e+66  -3.42089e+65  -1.61657e+67  -4.73182e+65   1.69896e+65    5.8277e+66
   9.22848e+59   2.38728e+45  -5.66236e+59  -1.52329e+67 -5.24134e+133  2.76508e+199   1.68658e+67   1.58674e+66  -4.32377e+65  -1.63872e+67   3.95032e+65  -5.79214e+64   5.71412e+66
    5.4877e+59   5.45486e+45  -4.27078e+59  -1.30184e+67 -1.12982e+134 -4.92718e+199   1.68066e+67   2.40398e+66   4.94048e+65  -1.59165e+67   4.41086e+65   7.71466e+63   8.23705e+66
   5.39434e+59  -3.45201e+58  -4.27241e+59   -1.2634e+67 -1.15938e+134 -5.90309e+199   1.65999e+67   2.49366e+66    5.7577e+65  -1.57035e+67  -5.95689e+65   2.35532e+65   8.29232e+66
   8.63181e+59  -1.13208e+58   -3.1331e+59  -5.99328e+66 -6.84157e+133  1.57865e+199   1.02145e+67   3.57362e+66  -2.04481e+65  -9.36241e+66  -4.61906e+65   6.88664e+64   5.99363e+66
   8.71781e+59  -7.55212e+45  -3.13107e+59  -6.09595e+66 -6.66685e+133  1.69483e+199   1.01897e+67   3.52924e+66  -2.26311e+65  -9.39888e+66   4.06309e+65   9.60919e+63   5.88734e+66
   4.94037e+59  -1.37882e+45  -2.27351e+59  -4.81224e+66 -1.09613e+134 -1.59974e+199   1.15226e+67    4.1486e+66   1.65118e+65  -9.12597e+66   4.45065e+65   1.69281e+64   8.41028e+66
   4.84616e+59  -1.25751e+58  -2.27709e+59  -4.74986e+66 -1.10714e+134 -1.71304e+199   1.15445e+67   4.16982e+66   1.78381e+65  -9.09806e+66  -5.91711e+65   7.61854e+64   8.45825e+66
   9.22848e+59   2.38728e+45  -5.66236e+59  -1.52329e+67 -5.24134e+133  2.76508e+199   1.68658e+67   1.58674e+66  -4.32377e+65  -1.63872e+67  -3.95032e+65   5.79214e+64   5.71412e+66
   9.14486e+59    2.9698e+58   -5.6501e+59  -1.48082e+67 -5.67411e+133  2.36504e+199    1.6614e+67   1.69958e+66  -3.42089e+65  -1.61657e+67   4.73182e+65  -1.69896e+65    5.8277e+66
   5.39434e+59   3.45201e+58  -4.27241e+59   -1.2634e+67 -1.15938e+134 -5.90309e+199   1.65999e+67   2.49366e+66    5.7577e+65  -1.57035e+67   5.95689e+65  -2.35532e+65   8.29232e+66
    5.4877e+59   5.45486e+45  -4.27078e+59  -1.30184e+67 -1.12982e+134 -4.92718e+199   1.68066e+67   2.40398e+66   4.94048e+65  -1.59165e+67  -4.41086e+65  -7.71466e+63   8.23705e+66
   8.71781e+59  -7.55212e+45  -3.13107e+59  -6.09595e+66 -6.66685e+133  1.69483e+199   1.01897e+67   3.52924e+66  -2.26311e+65  -9.39888e+66  -4.06309e+65  -9.60919e+63   5.88734e+66
   8.63181e+59   1.13208e+58   -3.1331e+59  -5.99328e+66 -6.84157e+133  1.57865e+199   1.02145e+67   3.57362e+66  -2.04481e+65  -9.36241e+66   4.61906e+65  -6.88664e+64   5.99363e+66
   4.84616e+59   1.25751e+58  -2.27709e+59  -4.74986e+66 -1.10714e+134 -1.71304e+199   1.15445e+67   4.16982e+66   1.78381e+65  -9.09806e+66   5.91711e+65  -7.61854e+64   8.45825e+66
   4.94037e+59  -1.37882e+45  -2.27351e+59  -4.81224e+66 -1.09613e+134 -1.59974e+199   1.15226e+67    4.1486e+66   1.65118e+65  -9.12597e+66  -4.45065e+65  -1.69281e+64   8.41028e+66
   9.14486e+59    2.9698e+58   -5.6501e+59  -1.50121e+67 -5.42526e+133  2.98862e+199   1.67217e+67   1.65624e+66  -4.59277e+65   -1.6209e+67  -3.57147e+65   2.59485e+64    5.8277e+66
    8.8855e+59   5.86145e+58  -5.59638e+59  -1.41171e+67  -6.6608e+133  2.14884e+199   1.63065e+67   1.94976e+66  -2.69007e+65  -1.57978e+67   4.81627e+65  -1.61664e+65   6.26682e+66
   5.09478e+59   6.74077e+58  -4.24208e+59  -1.21832e+67 -1.22141e+134 -5.68405e+199    1.6449e+67   2.68617e+66   5.17368e+65  -1.53867e+67   6.13136e+65  -2.72118e+65   8.59007e+66
   5.39434e+59   3.45201e+58  -4.27241e+59  -1.30599e+67   -1.113e+134 -3.25453e+199   1.67887e+67   2.40312e+66   3.30973e+65   -1.5794e+67  -3.78445e+65  -8.45057e+64   8.29232e+66
   8.63181e+59   1.13208e+58   -3.1331e+59  -6.03459e+66 -6.81753e+133  1.76467e+199    1.0227e+67   3.56484e+66  -2.28228e+65   -9.3712e+66  -4.08775e+65  -5.47544e+64   5.99363e+66
   8.36151e+59   2.24832e+58  -3.13215e+59  -5.92025e+66 -7.51059e+133  1.67287e+199   1.04955e+67    3.6924e+66  -2.03919e+65  -9.40873e+66       4.3e+65  -8.95599e+64   6.42945e+66
   4.53638e+59   2.44742e+58   -2.2696e+59  -4.83008e+66 -1.16409e+134 -8.93387e+198   1.18211e+67   4.24942e+66   9.74602e+64  -9.17696e+66    5.6481e+65  -5.86399e+64   8.75269e+66
   4.84616e+59   1.25751e+58  -2.27709e+59  -4.92619e+66 -1.09861e+134 -6.58486e+198   1.15814e+67   4.13234e+66   7.70266e+64  -9.13555e+66  -4.26771e+65  -2.38343e+64   8.45825e+66
   5.09478e+59  -6.74077e+58  -4.24208e+59  -1.44201e+67 -5.42973e+133   3.4509e+198   1.61937e+67   2.21059e+66   4.17945e+64  -1.66725e+67  -6.13136e+65   1.12792e+65   4.05562e+66
   5.39434e+59  -3.45201e+58  -4.27241e+59   -1.6497e+67 -3.90543e+133  2.06728e+199    1.7641e+67    1.6724e+66  -3.99742e+65  -1.77696e+67   3.78445e+65   3.87374e+62    3.9532e+66
   2.56226e+59  -3.75618e+58  -2.76298e+59  -1.76685e+67 -5.55504e+133  2.96162e+199   1.91762e+67   7.74204e+65  -4.23995e+65  -1.80187e+67   3.08779e+65   3.28185e+65   6.97917e+66
   2.26386e+59  -7.28286e+58  -2.80202e+59  -1.56107e+67 -6.96807e+133  3.52473e+198   1.77024e+67   1.30141e+66   1.34782e+64  -1.69256e+67  -7.34289e+65    4.4059e+65   6.83445e+66
   4.53638e+59  -2.44742e+58   -2.2696e+59  -4.55143e+66 -5.38131e+133  -5.8783e+198     8.633e+66   4.30866e+66   1.56699e+65  -9.01679e+66   -5.6481e+65   1.04994e+65   3.72759e+66
   4.84616e+59  -1.25751e+58  -2.27709e+59  -5.26362e+66 -5.12623e+133  1.55782e+198   8.88639e+66    4.0606e+66    5.2893e+63  -9.32951e+66   4.26771e+65   4.40761e+64   3.62863e+66
   2.08278e+59  -1.42578e+58  -1.40815e+59  -6.71943e+66 -7.31319e+133  1.52738e+199   1.08758e+67   3.10196e+66  -1.82379e+65  -9.63901e+66   3.53644e+65   1.24729e+65    6.6546e+66
   1.77489e+59  -2.74463e+58  -1.41773e+59  -6.02636e+66 -7.37877e+133  5.22866e+198   1.04931e+67   3.33903e+66  -3.50326e+64  -9.33036e+66  -6.89424e+65   1.85646e+65   6.50642e+66
   5.39434e+59  -3.45201e+58  -4.27241e+59  -1.60711e+67 -4.47067e+133  1.27705e+199   1.74065e+67   1.76295e+66  -1.54946e+65  -1.76791e+67  -5.95689e+65   1.51414e+65    3.9532e+66
    5.4877e+59   5.45486e+45  -4.27078e+59  -1.68384e+67  -3.9516e+133  1.77287e+199   1.79735e+67   1.59187e+66  -3.18062e+65  -1.81122e+67   4.41086e+65   7.71466e+63   3.96783e+66
   2.65057e+59     5.726e+45  -2.73277e+59  -1.78285e+67 -5.96645e+133  1.93845e+199   1.94299e+67   7.35311e+65  -2.41175e+65  -1.83227e+67   4.17241e+65   1.42687e+65   7.08794e+66
   2.56226e+59  -3.75618e+58  -2.76298e+59  -1.70698e+67 -6.40301e+133  1.07357e+199   1.88523e+67   9.01483e+65  -7.98719e+64  -1.78914e+67  -6.83734e+65   2.86387e+65   6.97917e+66
   4.84616e+59  -1.25751e+58  -2.27709e+59  -5.08729e+66 -5.21598e+133 -2.66396e+198   8.83404e+66   4.09809e+66   1.06644e+65  -9.29202e+66  -5.91711e+65   9.64271e+64   3.62863e+66
   4.94037e+59  -1.37882e+45  -2.27351e+59  -5.33475e+66  -5.1833e+133 -8.53394e+197   8.96061e+66   4.03752e+66    5.4035e+64   -9.4263e+66   4.45065e+65   1.69281e+64   3.64481e+66
   2.17161e+59   1.77437e+45  -1.39593e+59  -6.67943e+66 -7.56243e+133  7.55899e+198   1.09654e+67   3.10559e+66  -7.28442e+64  -9.71218e+66   4.19676e+65   5.77641e+64   6.76491e+66
   2.08278e+59  -1.42578e+58  -1.40815e+59   -6.4405e+66 -7.49091e+133  4.78655e+198   1.07884e+67   3.16126e+66   -2.2049e+64  -9.57971e+66    -6.813e+65   1.37263e+65    6.6546e+66
    5.4877e+59   5.45486e+45  -4.27078e+59  -1.68384e+67  -3.9516e+133  1.77287e+199   1.79735e+67   1.59187e+66  -3.18062e+65  -1.81122e+67  -4.41086e+65  -7.71466e+63   3.96783e+66
   5.39434e+59   3.45201e+58  -4.27241e+59  -1.60711e+67 -4.47067e+133  1.27705e+199   1.74065e+67   1.76295e+66  -1.54946e+65  -1.76791e+67   5.95689e+65  -1.51414e+65    3.9532e+66
   2.56226e+59   3.75618e+58  -2.76298e+59  -1.70698e+67 -6.40301e+133  1.07357e+199   1.88523e+67   9.01483e+65  -7.98719e+64  -1.78914e+67   6.83734e+65  -2.86387e+65   6.97917e+66
   2.65057e+59     5.726e+45  -2.73277e+59  -1.78285e+67 -5.96645e+133  1.93845e+199   1.94299e+67   7.35311e+65  -2.41175e+65  -1.83227e+67  -4.17241e+65  -1.42687e+65   7.08794e+66
   4.94037e+59  -1.37882e+45  -2.27351e+59  -5.33475e+66  -5.1833e+133 -8.53394e+197   8.96061e+66   4.03752e+66    5.4035e+64   -9.4263e+66  -4.45065e+65  -1.69281e+64   3.64481e+66
   4.84616e+59   1.25751e+58  -2.27709e+59  -5.08729e+66 -5.21598e+133 -2.66396e+198   8.83404e+66   4.09809e+66   1.06644e+65  -9.29202e+66   5.91711e+65  -9.64271e+64   3.62863e+66
   2.08278e+59   1.42578e+58  -1.40815e+59   -6.4405e+66 -7.49091e+133  4.78655e+198   1.07884e+67   3.16126e+66   -2.2049e+64  -9.57971e+66     6.813e+65  -1.37263e+65    6.6546e+66
   2.17161e+59   1.77437e+45  -1.39593e+59  -6.67943e+66 -7.56243e+133  7.55899e+198   1.09654e+67   3.10559e+66  -7.28442e+64  -9.71218e+66  -4.19676e+65  -5.77641e+64   6.76491e+66
   5.39434e+59   3.45201e+58  -4.27241e+59   -1.6497e+67 -3.90543e+133  2.06728e+199    1.7641e+67    1.6724e+66  -3.99742e+65  -1.77696e+67  -3.78445e+65  -3.87374e+62    3.9532e+66
   5.09478e+59   6.74077e+58  -4.24208e+59  -1.44201e+67 -5.42973e+133   3.4509e+198   1.61937e+67   2.21059e+66   4.17945e+64  -1.66725e+67   6.13136e+65  -1.12792e+65   4.05562e+66
   2.26386e+59   7.28286e+58  -2.80202e+59  -1.56107e+67 -6.96807e+133  3.52473e+198   1.77024e+67   1.30141e+66   1.34782e+64  -1.69256e+67   7.34289e+65   -4.4059e+65   6.83445e+66
   2.56226e+59   3.75618e+58  -2.76298e+59  -1.76685e+67 -5.55504e+133  2.96162e+199   1.91762e+67   7.74204e+65  -4.23995e+65  -1.80187e+67  -3.08779e+65  -3.28185e+65   6.97917e+66
   4.84616e+59   1.25751e+58  -2.27709e+59  -5.26362e+66 -5.12623e+133  1.55782e+198   8.88639e+66    4.0606e+66    5.2893e+63  -9.32951e+66  -4.26771e+65  -4.40761e+64   3.62863e+66
   4.53638e+59   2.44742e+58   -2.2696e+59  -4.55143e+66 -5.38131e+133  -5.8783e+198     8.633e+66   4.30866e+66   1.56699e+65  -9.01679e+66    5.6481e+65  -1.04994e+65   3.72759e+66
   1.77489e+59   2.74463e+58  -1.41773e+59  -6.02636e+66 -7.37877e+133  5.22866e+198   1.04931e+67   3.33903e+66  -3.50326e+64  -9.33036e+66   6.89424e+65  -1.85646e+65   6.50642e+66
   2.08278e+59   1.42578e+58  -1.40815e+59  -6.71943e+66 -7.31319e+133  1.52738e+199   1.08758e+67   3.10196e+66  -1.82379e+65  -9.63901e+66  -3.53644e+65  -1.24729e+65    6.6546e+66
   2.26386e+59  -7.28286e+58  -2.80202e+59  -1.46728e+67 -3.16181e+133  3.02817e+198   1.57134e+67   1.50081e+66   2.12883e+65  -1.63865e+67  -7.34289e+65  -5.15639e+64   1.82051e+66
   2.56226e+59  -3.75618e+58  -2.76298e+59   -1.7918e+67 -1.00781e+133  9.94307e+198   1.81971e+67    7.2116e+65  -4.77039e+65  -1.81621e+67   3.08779e+65  -2.96599e+65   2.26209e+66
   7.28626e+58  -2.73788e+58  -1.24397e+59  -2.17706e+67  2.27571e+133 -1.67388e+198   2.12416e+67  -1.98342e+66  -8.06034e+65  -1.89812e+67   3.35655e+65   2.46247e+65   5.62276e+66
    4.9422e+58  -6.78322e+58  -1.39792e+59  -1.85882e+67 -7.47185e+131  7.91251e+198   1.86083e+67  -1.23983e+66  -1.29451e+65  -1.72189e+67  -8.05272e+65   4.91282e+65   4.85751e+66
   1.77489e+59  -2.74463e+58  -1.41773e+59  -3.66283e+66 -3.37821e+133 -1.09316e+199   6.87011e+66   3.84151e+66   4.67449e+65   -7.9718e+66  -6.89424e+65   4.05184e+64    8.6639e+65
   2.08278e+59  -1.42578e+58  -1.40815e+59  -5.12077e+66 -3.27215e+133 -4.04915e+198   7.67748e+66   3.44183e+66   1.57495e+65  -8.72009e+66   3.53644e+65  -1.06658e+65   1.31933e+66
   4.48699e+58  -1.10428e+58  -6.00493e+58  -9.51376e+66 -2.37057e+133  1.51522e+199   1.06872e+67   6.22373e+65  -4.82095e+65  -9.65404e+66   3.69157e+65   1.12512e+65   4.68001e+66
   2.07201e+58  -2.73466e+58  -6.56458e+58  -8.11857e+66 -2.32223e+133  8.13851e+198   9.44105e+66   9.85993e+65  -1.85479e+65  -8.91908e+66   -7.7177e+65   2.59689e+65   3.90339e+66
   2.56226e+59  -3.75618e+58  -2.76298e+59  -1.73193e+67 -1.87162e+133  1.20947e+199   1.78515e+67   8.48439e+65  -1.32916e+65  -1.80348e+67  -6.83734e+65  -3.38398e+65   2.26209e+66
   2.65057e+59     5.726e+45  -2.73277e+59  -1.66088e+67 -2.44094e+133  2.91464e+198   1.73281e+67   9.94625e+65   1.81388e+64  -1.76216e+67   4.17241e+65   1.42687e+65   2.52716e+66
   7.78811e+58   3.80599e+45  -1.24152e+59  -2.44511e+67  7.23666e+133  -3.9079e+199   2.29235e+67  -2.55097e+66  -2.61129e+66  -1.92888e+67   2.37093e+65   1.15769e+64   5.81482e+66
   7.28626e+58  -2.73788e+58  -1.24397e+59  -2.51814e+67  8.32654e+133  -5.1146e+199   2.34699e+67  -2.70854e+66  -2.76655e+66  -1.97063e+67  -5.34685e+65  -4.69508e+65   5.62276e+66
   2.08278e+59  -1.42578e+58  -1.40815e+59  -4.84184e+66 -3.41761e+133 -6.03221e+198   7.59075e+66   3.50113e+66   3.17825e+65  -8.66079e+66    -6.813e+65  -9.41236e+64   1.31933e+66
   2.17161e+59   1.77437e+45  -1.39593e+59   -4.5345e+66 -3.47852e+133 -1.09792e+199   7.43955e+66    3.5616e+66   3.83164e+65  -8.47927e+66   4.19676e+65   5.77641e+64   1.58799e+66
    4.9864e+58   2.23416e+45  -6.00563e+58   -1.0559e+67 -1.65133e+133  3.38218e+199    1.1314e+67   4.02458e+65  -1.20142e+66  -9.76007e+66   2.35939e+65  -3.29567e+62   4.87565e+66
   4.48699e+58  -1.10428e+58  -6.00493e+58  -1.08862e+67 -1.32802e+133  3.56278e+199   1.14799e+67   3.30597e+65  -1.27097e+66  -9.94581e+66   -5.3584e+65  -1.52217e+65   4.68001e+66
   2.65057e+59     5.726e+45  -2.73277e+59  -1.66088e+67 -2.44094e+133  2.91464e+198   1.73281e+67   9.94625e+65   1.81388e+64  -1.76216e+67  -4.17241e+65  -1.42687e+65   2.52716e+66
   2.56226e+59   3.75618e+58  -2.76298e+59  -1.73193e+67 -1.87162e+133  1.20947e+199   1.78515e+67   8.48439e+65  -1.32916e+65  -1.80348e+67   6.83734e+65   3.38398e+65   2.26209e+66
   7.28626e+58   2.73788e+58  -1.24397e+59  -2.51814e+67  8.32654e+133  -5.1146e+199   2.34699e+67  -2.70854e+66  -2.76655e+66  -1.97063e+67   5.34685e+65   4.69508e+65   5.62276e+66
   7.78811e+58   3.80599e+45  -1.24152e+59  -2.44511e+67  7.23666e+133  -3.9079e+199   2.29235e+67  -2.55097e+66  -2.61129e+66  -1.92888e+67  -2.37093e+65  -1.15769e+64   5.81482e+66
   2.17161e+59   1.77437e+45  -1.39593e+59   -4.5345e+66 -3.47852e+133 -1.09792e+199   7.43955e+66    3.5616e+66   3.83164e+65  -8.47927e+66  -4.19676e+65  -5.77641e+64   1.58799e+66
   2.08278e+59   1.42578e+58  -1.40815e+59  -4.84184e+66 -3.41761e+133 -6.03221e+198   7.59075e+66   3.50113e+66   3.17825e+65  -8.66079e+66     6.813e+65   9.41236e+64   1.31933e+66
   4.48699e+58   1.10428e+58  -6.00493e+58  -1.08862e+67 -1.32802e+133  3.56278e+199   1.14799e+67   3.30597e+65  -1.27097e+66  -9.94581e+66    5.3584e+65   1.52217e+65   4.68001e+66
    4.9864e+58   2.23416e+45  -6.00563e+58   -1.0559e+67 -1.65133e+133  3.38218e+199    1.1314e+67   4.02458e+65  -1.20142e+66  -9.76007e+66  -2.35939e+65   3.29567e+62   4.87565e+66
   2.56226e+59   3.75618e+58  -2.76298e+59   -1.7918e+67 -1.00781e+133  9.94307e+198   1.81971e+67    7.2116e+65  -4.77039e+65  -1.81621e+67  -3.08779e+65   2.96599e+65   2.26209e+66
   2.26386e+59   7.28286e+58  -2.80202e+59  -1.46728e+67 -3.16181e+133  3.02817e+198   1.57134e+67   1.50081e+66   2.12883e+65  -1.63865e+67   7.34289e+65   5.15639e+64   1.82051e+66
    4.9422e+58   6.78322e+58  -1.39792e+59  -1.85882e+67 -7.47185e+131  7.91251e+198   1.86083e+67  -1.23983e+66  -1.29451e+65  -1.72189e+67   8.05272e+65  -4.91282e+65   4.85751e+66
   7.28626e+58   2.73788e+58  -1.24397e+59  -2.17706e+67  2.27571e+133 -1.67388e+198   2.12416e+67  -1.98342e+66  -8.06034e+65  -1.89812e+67  -3.35655e+65  -2.46247e+65   5.62276e+66
   2.08278e+59   1.42578e+58  -1.40815e+59  -5.12077e+66 -3.27215e+133 -4.04915e+198   7.67748e+66   3.44183e+66   1.57495e+65  -8.72009e+66  -3.53644e+65   1.06658e+65   1.31933e+66
   1.77489e+59   2.74463e+58  -1.41773e+59  -3.66283e+66 -3.37821e+133 -1.09316e+199   6.87011e+66   3.84151e+66   4.67449e+65   -7.9718e+66   6.89424e+65  -4.05184e+64    8.6639e+65
   2.07201e+58   2.73466e+58  -6.56458e+58  -8.11857e+66 -2.32223e+133  8.13851e+198   9.44105e+66   9.85993e+65  -1.85479e+65  -8.91908e+66    7.7177e+65  -2.59689e+65   3.90339e+66
   4.48699e+58   1.10428e+58  -6.00493e+58  -9.51376e+66 -2.37057e+133  1.51522e+199   1.06872e+67   6.22373e+65  -4.82095e+65  -9.65404e+66  -3.69157e+65  -1.12512e+65   4.68001e+66
    4.9422e+58  -6.78322e+58  -1.39792e+59  -1.84271e+67  1.42423e+133  1.20084e+199   1.80365e+67  -1.20558e+66  -9.52026e+64  -1.71263e+67  -8.05272e+65  -2.47734e+66   -1.1681e+66
   7.28626e+58  -2.73788e+58  -1.24397e+59   -1.4596e+67 -4.80519e+132   6.4469e+198   1.47596e+67  -4.58094e+65   7.19293e+65  -1.48572e+67   3.35655e+65  -5.66155e+65   4.02269e+65
           290            -5           -50  -3.24515e+67  2.91457e+134  -7.9456e+200   2.75978e+67  -6.89913e+66  -6.89913e+66  -1.86532e+67   4.37866e+51  -1.29349e+66   3.44233e+66
           290           -10           -50  -3.64676e+67  3.69417e+134 -1.13808e+201   3.09914e+67  -7.75296e+66  -7.75296e+66  -2.09617e+67  -1.40889e+51  -3.20467e+66    2.3349e+66
   2.07201e+58  -2.73466e+58  -6.56458e+58  -5.38439e+66 -2.18259e+133 -8.36148e+198   7.12864e+66   1.56728e+66   3.95803e+65  -7.34747e+66   -7.7177e+65  -1.02757e+66  -2.52409e+66
   4.48699e+58  -1.10428e+58  -6.00493e+58  -4.10943e+66 -1.58323e+133 -7.34902e+198   5.72012e+66   1.77132e+66   6.66856e+65  -6.54761e+66   3.69157e+65  -2.57308e+65  -9.20222e+65
           285            -5           -50   -1.5665e+67  6.63007e+133 -8.39977e+199   1.33826e+67  -3.33036e+66  -3.33036e+66  -9.00432e+66   1.80057e+51  -5.21708e+65   2.11984e+66
           285           -10           -50   -1.7125e+67   8.2303e+133  -1.2091e+200   1.45245e+67  -3.64075e+66  -3.64075e+66   -9.8435e+66   7.21982e+50  -1.29197e+66   9.78902e+65
   7.28626e+58  -2.73788e+58  -1.24397e+59  -1.80067e+67   3.7156e+133 -1.57333e+199   1.69436e+67  -1.18322e+66  -1.24123e+66  -1.55823e+67  -5.34685e+65  -1.28191e+66   4.02269e+65
   7.78811e+58   3.80599e+45  -1.24152e+59  -1.79364e+67  3.81348e+133 -2.08274e+199   1.68398e+67  -1.16596e+66  -1.22628e+66  -1.55442e+67   2.37093e+65   1.15769e+64   6.51269e+65
           290             0           -50  -3.23875e+67  2.90241e+134 -7.89401e+200   2.75447e+67  -6.88554e+66  -6.88554e+66  -1.86165e+67    8.8567e+50   1.80197e+53   3.67942e+66
           290            -5           -50  -3.24515e+67  2.91457e+134  -7.9456e+200   2.75978e+67  -6.89913e+66  -6.89913e+66  -1.86532e+67  -1.13997e+50  -1.29349e+66   3.44233e+66
   4.48699e+58  -1.10428e+58  -6.00493e+58  -5.48186e+66 -1.08717e+133  2.38376e+198   6.39706e+66   1.47955e+66  -1.22017e+65  -6.83939e+66   -5.3584e+65  -5.22038e+65  -9.20222e+65
    4.9864e+58   2.23416e+45  -6.00563e+58   -5.4773e+66 -1.00006e+133  1.66312e+198   6.32467e+66   1.48283e+66  -1.21049e+65  -6.83908e+66   2.35939e+65  -3.29567e+62  -6.72377e+65
           285             0           -50  -1.56669e+67  6.55335e+133   -8.142e+199   1.34133e+67  -3.33075e+66  -3.33075e+66  -9.00536e+66   1.98764e+50   1.06023e+53   2.35578e+66
           285            -5           -50   -1.5665e+67  6.63007e+133 -8.39977e+199   1.33826e+67  -3.33036e+66  -3.33036e+66  -9.00432e+66   3.56606e+50  -5.21708e+65   2.11984e+66
   7.78811e+58   3.80599e+45  -1.24152e+59  -1.79364e+67  3.81348e+133 -2.08274e+199   1.68398e+67  -1.16596e+66  -1.22628e+66  -1.55442e+67  -2.37093e+65  -1.15769e+64   6.51269e+65
   7.28626e+58   2.73788e+58  -1.24397e+59  -1.80067e+67   3.7156e+133 -1.57333e+199   1.69436e+67  -1.18322e+66  -1.24123e+66  -1.55823e+67   5.34685e+65   1.28191e+66   4.02269e+65
           290             5           -50  -3.24515e+67  2.91457e+134  -7.9456e+200   2.75978e+67  -6.89913e+66  -6.89913e+66  -1.86532e+67  -2.45167e+51   1.29349e+66   3.44233e+66
           290             0           -50  -3.23875e+67  2.90241e+134 -7.89401e+200   2.75447e+67  -6.88554e+66  -6.88554e+66  -1.86165e+67   3.56606e+50   1.79174e+53   3.67942e+66
    4.9864e+58   2.23416e+45  -6.00563e+58   -5.4773e+66 -1.00006e+133  1.66312e+198   6.32467e+66   1.48283e+66  -1.21049e+65  -6.83908e+66  -2.35939e+65   3.29567e+62  -6.72377e+65
   4.48699e+58   1.10428e+58  -6.00493e+58  -5.48186e+66 -1.08717e+133  2.38376e+198   6.39706e+66   1.47955e+66  -1.22017e+65  -6.83939e+66    5.3584e+65   5.22038e+65  -9.20222e+65
           285             5           -50   -1.5665e+67  6.63007e+133 -8.39977e+199   1.33826e+67  -3.33036e+66  -3.33036e+66  -9.00432e+66  -1.16774e+51   5.21708e+65   2.11984e+66
           285             0           -50  -1.56669e+67  6.55335e+133   -8.142e+199   1.34133e+67  -3.33075e+66  -3.33075e+66  -9.00536e+66    2.3384e+50   1.05813e+53   2.35578e+66
   7.28626e+58   2.73788e+58  -1.24397e+59   -1.4596e+67 -4.80519e+132   6.4469e+198   1.47596e+67  -4.58094e+65   7.19293e+65  -1.48572e+67  -3.35655e+65   5.66155e+65   4.02269e+65
    4.9422e+58   6.78322e+58  -1.39792e+59  -1.84271e+67  1.42423e+133  1.20084e+199   1.80365e+67  -1.20558e+66  -9.52026e+64  -1.71263e+67   8.05272e+65   2.47734e+66   -1.1681e+66
           290            10           -50  -3.64676e+67  3.69417e+134 -1.13808e+201   3.09914e+67  -7.75296e+66  -7.75296e+66  -2.09617e+67  -5.61436e+51   3.20467e+66    2.3349e+66
           290             5           -50  -3.24515e+67  2.91457e+134  -7.9456e+200   2.75978e+67  -6.89913e+66  -6.89913e+66  -1.86532e+67   1.67488e+51   1.29349e+66   3.44233e+66
   4.48699e+58   1.10428e+58  -6.00493e+58  -4.10943e+66 -1.58323e+133 -7.34902e+198   5.72012e+66   1.77132e+66   6.66856e+65  -6.54761e+66  -3.69157e+65   2.57308e+65  -9.20222e+65
   2.07201e+58   2.73466e+58  -6.56458e+58  -5.38439e+66 -2.18259e+133 -8.36148e+198   7.12864e+66   1.56728e+66   3.95803e+65  -7.34747e+66    7.7177e+65   1.02757e+66  -2.52409e+66
           285            10           -50   -1.7125e+67   8.2303e+133  -1.2091e+200   1.45245e+67  -3.64075e+66  -3.64075e+66   -9.8435e+66  -3.25915e+51   1.29197e+66   9.78902e+65
           285             5           -50   -1.5665e+67  6.63007e+133 -8.39977e+199   1.33826e+67  -3.33036e+66  -3.33036e+66  -9.00432e+66  -7.01521e+49   5.21708e+65   2.11984e+66
    9.4052e+59  -9.37887e+58  -8.43761e+59    -2.378e+67  8.55306e+131   1.3468e+199    2.3762e+67  -1.45031e+65  -6.77431e+65  -2.29576e+67  -4.37843e+65   2.16297e+65    4.2292e+66
   9.66426e+59  -4.74531e+58  -8.54246e+59  -2.50618e+67   1.8446e+133  7.27744e+198    2.4691e+67  -4.20393e+65  -9.49931e+65  -2.36914e+67   3.85105e+65  -1.11426e+65   3.77592e+66
   5.97266e+59  -5.55797e+58    -6.599e+59  -2.17149e+67 -7.05119e+133  -2.0342e+199    2.3282e+67   8.47941e+65   4.17048e+65  -2.29799e+67   4.40683e+65   1.19273e+65   6.44886e+66
   5.66879e+59  -1.08852e+59  -6.54298e+59  -2.05537e+67 -8.40281e+133 -4.34219e+199   2.25052e+67   1.05401e+66    6.6392e+65  -2.22716e+67  -5.22376e+65   4.46996e+65   6.78189e+66
    8.8855e+59  -5.86145e+58  -5.59638e+59  -1.42288e+67  -4.6091e+133  1.69559e+199   1.57655e+67   1.88553e+66  -2.92763e+65  -1.58216e+67  -4.36413e+65   1.61664e+65   4.48577e+66
   9.14486e+59   -2.9698e+58   -5.6501e+59  -1.48466e+67 -3.87967e+133  2.13184e+199   1.61003e+67   1.75133e+66  -4.24106e+65  -1.61739e+67   3.86536e+65  -2.59485e+64   4.05432e+66
   5.39434e+59  -3.45201e+58  -4.27241e+59  -1.22734e+67 -9.64197e+133 -4.15551e+199    1.5718e+67   2.85519e+66   4.98176e+65  -1.56268e+67   4.20282e+65   8.45057e+64   6.72726e+66
   5.09478e+59  -6.74077e+58  -4.24208e+59  -1.17762e+67 -1.02063e+134 -5.46852e+199   1.55158e+67    2.9201e+66   6.03891e+65  -1.53002e+67  -5.42777e+65   2.72118e+65   7.03846e+66
   9.66426e+59  -4.74531e+58  -8.54246e+59  -2.47702e+67  1.27088e+133  8.26204e+198   2.45124e+67  -3.58412e+65  -7.82351e+65  -2.36295e+67  -4.42002e+65   2.72511e+65   3.77592e+66
   9.74826e+59   1.18413e+46  -8.56604e+59  -2.53813e+67  2.03801e+133  5.07591e+198   2.49766e+67  -4.84744e+65  -9.12266e+65  -2.39843e+67   3.96824e+65  -1.11419e+65    3.6604e+66
   6.06979e+59   1.23024e+46  -6.59878e+59  -2.16359e+67 -7.63211e+133 -3.52549e+199   2.33331e+67   9.00273e+65   6.51864e+65   -2.3188e+67   4.58851e+65   1.04106e+63   6.38016e+66
   5.97266e+59  -5.55797e+58    -6.599e+59   -2.1113e+67 -8.10168e+133 -4.49882e+199   2.29516e+67   9.75906e+65   7.63028e+65  -2.28519e+67  -5.36087e+65   3.84971e+65   6.44886e+66
   9.14486e+59   -2.9698e+58   -5.6501e+59  -1.46428e+67 -4.12124e+133  1.64437e+199   1.59882e+67   1.79467e+66  -3.06918e+65  -1.61305e+67  -4.43793e+65   1.69896e+65   4.05432e+66
   9.22848e+59   2.38728e+45  -5.66236e+59  -1.49953e+67 -3.83725e+133  1.90858e+199   1.62244e+67   1.72331e+66  -3.81866e+65  -1.63367e+67   3.95032e+65  -5.79214e+64   3.95477e+66
    5.4877e+59   5.45486e+45  -4.27078e+59  -1.21119e+67 -9.95267e+133 -5.90779e+199   1.56915e+67   2.92506e+66   6.86777e+65  -1.57237e+67   4.41086e+65   7.71466e+63   6.67453e+66
   5.39434e+59  -3.45201e+58  -4.27241e+59  -1.18476e+67 -1.00738e+134 -6.47793e+199   1.55275e+67   2.94573e+66   7.42973e+65  -1.55363e+67  -5.53852e+65   2.35532e+65   6.72726e+66
   9.74826e+59   1.18413e+46  -8.56604e+59  -2.53813e+67  2.03801e+133  5.07591e+198   2.49766e+67  -4.84744e+65  -9.12266e+65  -2.39843e+67  -3.96824e+65   1.11419e+65    3.6604e+66
   9.66426e+59   4.74531e+58  -8.54246e+59  -2.47702e+67  1.27088e+133  8.26204e+198   2.45124e+67  -3.58412e+65  -7.82351e+65  -2.36295e+67   4.42002e+65  -2.72511e+65   3.77592e+66
   5.97266e+59   5.55797e+58    -6.599e+59   -2.1113e+67 -8.10168e+133 -4.49882e+199   2.29516e+67   9.75906e+65   7.63028e+65  -2.28519e+67   5.36087e+65  -3.84971e+65   6.44886e+66
   6.06979e+59   1.23024e+46  -6.59878e+59  -2.16359e+67 -7.63211e+133 -3.52549e+199   2.33331e+67   9.00273e+65   6.51864e+65   -2.3188e+67  -4.58851e+65  -1.04106e+63   6.38016e+66
   9.22848e+59   2.38728e+45  -5.66236e+59  -1.49953e+67 -3.83725e+133  1.90858e+199   1.62244e+67   1.72331e+66  -3.81866e+65  -1.63367e+67  -3.95032e+65   5.79214e+64   3.95477e+66
   9.14486e+59    2.9698e+58   -5.6501e+59  -1.46428e+67 -4.12124e+133  1.64437e+199   1.59882e+67   1.79467e+66  -3.06918e+65  -1.61305e+67   4.43793e+65  -1.69896e+65   4.05432e+66
   5.39434e+59   3.45201e+58  -4.27241e+59  -1.18476e+67 -1.00738e+134 -6.47793e+199   1.55275e+67   2.94573e+66   7.42973e+65  -1.55363e+67   5.53852e+65  -2.35532e+65   6.72726e+66
    5.4877e+59   5.45486e+45  -4.27078e+59  -1.21119e+67 -9.95267e+133 -5.90779e+199   1.56915e+67   2.92506e+66   6.86777e+65  -1.57237e+67  -4.41086e+65  -7.71466e+63   6.67453e+66
   9.66426e+59   4.74531e+58  -8.54246e+59  -2.50618e+67   1.8446e+133  7.27744e+198    2.4691e+67  -4.20393e+65  -9.49931e+65  -2.36914e+67  -3.85105e+65   1.11426e+65   3.77592e+66
    9.4052e+59   9.37887e+58  -8.43761e+59    -2.378e+67  8.55306e+131   1.3468e+199    2.3762e+67  -1.45031e+65  -6.77431e+65  -2.29576e+67   4.37843e+65  -2.16297e+65    4.2292e+66
   5.66879e+59   1.08852e+59  -6.54298e+59  -2.05537e+67 -8.40281e+133 -4.34219e+199   2.25052e+67   1.05401e+66    6.6392e+65  -2.22716e+67   5.22376e+65  -4.46996e+65   6.78189e+66
   5.97266e+59   5.55797e+58    -6.599e+59  -2.17149e+67 -7.05119e+133  -2.0342e+199    2.3282e+67   8.47941e+65   4.17048e+65  -2.29799e+67  -4.40683e+65  -1.19273e+65   6.44886e+66
   9.14486e+59    2.9698e+58   -5.6501e+59  -1.48466e+67 -3.87967e+133  2.13184e+199   1.61003e+67   1.75133e+66  -4.24106e+65  -1.61739e+67  -3.86536e+65   2.59485e+64   4.05432e+66
    8.8855e+59   5.86145e+58  -5.59638e+59  -1.42288e+67  -4.6091e+133  1.69559e+199   1.57655e+67   1.88553e+66  -2.92763e+65  -1.58216e+67   4.36413e+65  -1.61664e+65   4.48577e+66
   5.09478e+59   6.74077e+58  -4.24208e+59  -1.17762e+67 -1.02063e+134 -5.46852e+199   1.55158e+67    2.9201e+66   6.03891e+65  -1.53002e+67   5.42777e+65  -2.72118e+65   7.03846e+66
   5.39434e+59   3.45201e+58  -4.27241e+59  -1.22734e+67 -9.64197e+133 -4.15551e+199    1.5718e+67   2.85519e+66   4.98176e+65  -1.56268e+67  -4.20282e+65  -8.45057e+64   6.72726e+66
   5.66879e+59  -1.08852e+59  -6.54298e+59  -2.52637e+67  7.44543e+131   8.9757e+198    2.5249e+67   5.26709e+64   -3.3742e+65   -2.4979e+67  -5.22376e+65   1.27798e+65   2.46195e+66
   5.97266e+59  -5.55797e+58    -6.599e+59  -2.82967e+67  3.59937e+133 -4.13018e+198   2.76534e+67   -5.5133e+65  -9.82223e+65  -2.67631e+67   4.40683e+65  -6.50461e+64   2.32207e+66
   3.15457e+59  -5.98048e+58  -4.40325e+59   -2.6867e+67 -2.05559e+133  1.47656e+199   2.72469e+67  -1.15259e+65  -2.92596e+65  -2.64592e+67   4.03303e+65   5.04632e+65   5.56452e+66
   2.84677e+59  -1.17159e+59  -4.46781e+59  -2.39666e+67 -4.87984e+133 -7.92588e+198   2.49639e+67   4.12578e+65   3.24036e+65  -2.47032e+67  -6.40195e+65   6.97476e+65   5.46252e+66
   5.09478e+59  -6.74077e+58  -4.24208e+59  -1.40131e+67 -4.89369e+133 -1.45853e+198   1.56622e+67   2.44453e+66   1.28317e+65   -1.6586e+67  -5.42777e+65   1.12792e+65   2.50402e+66
   5.39434e+59  -3.45201e+58  -4.27241e+59  -1.57105e+67 -3.96765e+133  1.31322e+199   1.69262e+67   2.12447e+66  -2.32539e+65  -1.76024e+67   4.20282e+65   3.87374e+62   2.38814e+66
   2.56226e+59  -3.75618e+58  -2.76298e+59   -1.4725e+67 -7.78449e+133 -1.17508e+199    1.7166e+67   2.46611e+66    2.0178e+65  -1.73929e+67   3.58905e+65   3.28185e+65   5.63059e+66
   2.26386e+59  -7.28286e+58  -2.80202e+59  -1.31602e+67 -8.27392e+133 -3.61135e+199   1.59978e+67      2.71e+66   5.34466e+65  -1.64046e+67  -6.84593e+65    4.4059e+65   5.50459e+66
   5.97266e+59  -5.55797e+58    -6.599e+59  -2.76948e+67  2.27725e+133  3.42827e+198   2.72805e+67  -4.23365e+65  -6.36243e+65  -2.66352e+67  -5.36087e+65   2.00652e+65   2.32207e+66
   6.06979e+59   1.23024e+46  -6.59878e+59   -2.8728e+67  3.48645e+133 -3.86008e+198   2.81146e+67  -6.07488e+65  -8.55897e+65  -2.72646e+67   4.58851e+65   1.04106e+63   2.31159e+66
    3.2525e+59   1.00353e+46  -4.35966e+59  -2.71082e+67 -2.68151e+133  1.01611e+199   2.75984e+67  -7.56938e+64  -1.12326e+65  -2.69202e+67   4.62663e+65   2.05919e+65   5.62394e+66
   3.15457e+59  -5.98048e+58  -4.40325e+59  -2.62278e+67 -3.39869e+133  4.09025e+198   2.68679e+67   2.06501e+64    7.4861e+64  -2.63233e+67  -5.88187e+65    4.0553e+65   5.56452e+66
   5.39434e+59  -3.45201e+58  -4.27241e+59  -1.52846e+67 -4.50095e+133  4.37513e+198   1.66922e+67   2.21501e+66   1.22574e+64  -1.75119e+67  -5.53852e+65   1.51414e+65   2.38814e+66
    5.4877e+59   5.45486e+45  -4.27078e+59  -1.59318e+67  -4.1862e+133  8.97321e+198   1.71955e+67   2.11295e+66  -1.25334e+65  -1.79194e+67   4.41086e+65   7.71466e+63   2.40531e+66
   2.65057e+59     5.726e+45  -2.73277e+59  -1.46208e+67 -8.50223e+133 -3.07646e+199   1.72856e+67   2.57911e+66   4.40778e+65  -1.76407e+67   4.17241e+65   1.42687e+65   5.71766e+66
   2.56226e+59  -3.75618e+58  -2.76298e+59  -1.41264e+67 -8.49732e+133 -3.70754e+199   1.68679e+67   2.59339e+66   5.45903e+65  -1.72656e+67  -6.33609e+65   2.86387e+65   5.63059e+66
   6.06979e+59   1.23024e+46  -6.59878e+59   -2.8728e+67  3.48645e+133 -3.86008e+198   2.81146e+67  -6.07488e+65  -8.55897e+65  -2.72646e+67  -4.58851e+65  -1.04106e+63   2.31159e+66
   5.97266e+59   5.55797e+58    -6.599e+59  -2.76948e+67  2.27725e+133  3.42827e+198   2.72805e+67  -4.23365e+65  -6.36243e+65  -2.66352e+67   5.36087e+65  -2.00652e+65   2.32207e+66
   3.15457e+59   5.98048e+58  -4.40325e+59  -2.62278e+67 -3.39869e+133  4.09025e+198   2.68679e+67   2.06501e+64    7.4861e+64  -2.63233e+67   5.88187e+65   -4.0553e+65   5.56452e+66
    3.2525e+59   1.00353e+46  -4.35966e+59  -2.71082e+67 -2.68151e+133  1.01611e+199   2.75984e+67  -7.56938e+64  -1.12326e+65  -2.69202e+67  -4.62663e+65  -2.05919e+65   5.62394e+66
    5.4877e+59   5.45486e+45  -4.27078e+59  -1.59318e+67  -4.1862e+133  8.97321e+198   1.71955e+67   2.11295e+66  -1.25334e+65  -1.79194e+67  -4.41086e+65  -7.71466e+63   2.40531e+66
   5.39434e+59   3.45201e+58  -4.27241e+59  -1.52846e+67 -4.50095e+133  4.37513e+198   1.66922e+67   2.21501e+66   1.22574e+64  -1.75119e+67   5.53852e+65  -1.51414e+65   2.38814e+66
   2.56226e+59   3.75618e+58  -2.76298e+59  -1.41264e+67 -8.49732e+133 -3.70754e+199   1.68679e+67   2.59339e+66   5.45903e+65  -1.72656e+67   6.33609e+65  -2.86387e+65   5.63059e+66
   2.65057e+59     5.726e+45  -2.73277e+59  -1.46208e+67 -8.50223e+133 -3.07646e+199   1.72856e+67   2.57911e+66   4.40778e+65  -1.76407e+67  -4.17241e+65  -1.42687e+65   5.71766e+66
   5.97266e+59   5.55797e+58    -6.599e+59  -2.82967e+67  3.59937e+133 -4.13018e+198   2.76534e+67   -5.5133e+65  -9.82223e+65  -2.67631e+67  -4.40683e+65   6.50461e+64   2.32207e+66
   5.66879e+59   1.08852e+59  -6.54298e+59  -2.52637e+67  7.44543e+131   8.9757e+198    2.5249e+67   5.26709e+64   -3.3742e+65   -2.4979e+67   5.22376e+65  -1.27798e+65   2.46195e+66
   2.84677e+59   1.17159e+59  -4.46781e+59  -2.39666e+67 -4.87984e+133 -7.92588e+198   2.49639e+67   4.12578e+65   3.24036e+65  -2.47032e+67   6.40195e+65  -6.97476e+65   5.46252e+66
   3.15457e+59   5.98048e+58  -4.40325e+59   -2.6867e+67 -2.05559e+133  1.47656e+199   2.72469e+67  -1.15259e+65  -2.92596e+65  -2.64592e+67  -4.03303e+65  -5.04632e+65   5.56452e+66
   5.39434e+59   3.45201e+58  -4.27241e+59  -1.57105e+67 -3.96765e+133  1.31322e+199   1.69262e+67   2.12447e+66  -2.32539e+65  -1.76024e+67  -4.20282e+65  -3.87374e+62   2.38814e+66
   5.09478e+59   6.74077e+58  -4.24208e+59  -1.40131e+67 -4.89369e+133 -1.45853e+198   1.56622e+67   2.44453e+66   1.28317e+65   -1.6586e+67   5.42777e+65  -1.12792e+65   2.50402e+66
   2.26386e+59   7.28286e+58  -2.80202e+59  -1.31602e+67 -8.27392e+133 -3.61135e+199   1.59978e+67      2.71e+66   5.34466e+65  -1.64046e+67   6.84593e+65   -4.4059e+65   5.50459e+66
   2.56226e+59   3.75618e+58  -2.76298e+59   -1.4725e+67 -7.78449e+133 -1.17508e+199    1.7166e+67   2.46611e+66    2.0178e+65  -1.73929e+67  -3.58905e+65  -3.28185e+65   5.63059e+66
   2.84677e+59  -1.17159e+59  -4.46781e+59  -2.77174e+67  2.08843e+133  7.37975e+198   2.73381e+67  -3.84839e+65   -4.7338e+65  -2.68592e+67  -6.40195e+65  -1.98409e+65   1.37831e+66
   3.15457e+59  -5.98048e+58  -4.40325e+59  -3.25106e+67  8.16518e+133 -4.89274e+199   3.12296e+67  -1.31506e+66   -1.4924e+66  -2.97031e+67   4.03303e+65  -4.79546e+65   1.81894e+66
   1.12929e+59  -4.31981e+58  -1.99116e+59  -3.59578e+67  1.37681e+134 -1.27383e+200   3.39894e+67   -3.8588e+66    -1.663e+66   -3.0436e+67   3.86692e+65   4.32906e+65   6.03825e+66
   8.89244e+58  -1.06503e+59  -2.24886e+59  -3.10665e+67  6.98368e+133 -2.27843e+199   2.99214e+67  -2.87217e+66  -6.23115e+65  -2.75712e+67  -6.92908e+65   7.14043e+65   5.22802e+66
   2.26386e+59  -7.28286e+58  -2.80202e+59  -1.22222e+67 -5.63794e+133  -2.6589e+199   1.43444e+67   2.90941e+66    7.3387e+65  -1.58655e+67  -6.84593e+65  -5.15639e+64   4.90648e+65
   2.56226e+59  -3.75618e+58  -2.76298e+59  -1.49745e+67 -4.56171e+133 -4.56594e+198   1.64272e+67   2.41307e+66   1.48736e+65  -1.75363e+67   3.58905e+65  -2.96599e+65   9.13504e+65
   7.28626e+58  -2.73788e+58  -1.24397e+59  -1.86211e+67 -2.08452e+133  6.45711e+198   1.91726e+67  -1.73049e+65  -1.36444e+65  -1.83116e+67   3.60065e+65   2.46247e+65   5.13282e+66
    4.9422e+58  -6.78322e+58  -1.39792e+59  -1.57707e+67 -3.35339e+133 -6.36443e+198   1.68002e+67   3.79693e+65   4.69552e+65  -1.66199e+67  -7.19535e+65   4.91282e+65   4.34036e+66
   3.15457e+59  -5.98048e+58  -4.40325e+59  -3.18713e+67  6.54628e+133 -2.36362e+199   3.08272e+67  -1.17915e+66  -1.12494e+66  -2.95672e+67  -5.88187e+65  -5.78648e+65   1.81894e+66
    3.2525e+59   1.00353e+46  -4.35966e+59  -3.05895e+67   4.4298e+133   -9.747e+198   2.98566e+67  -8.15794e+65  -8.52426e+65  -2.89212e+67   4.62663e+65   2.05919e+65   2.09474e+66
   1.18222e+59   5.75567e+45  -1.98709e+59  -4.01002e+67  2.65062e+134 -4.72051e+200   3.66465e+67   -4.7135e+66  -4.44354e+66  -3.09432e+67   2.50088e+65   1.91966e+64   6.25845e+66
   1.12929e+59  -4.31981e+58  -1.99116e+59   -4.1203e+67  2.90503e+134 -5.48258e+200   3.75125e+67  -4.97393e+66  -4.67799e+66  -3.15511e+67   -4.9728e+65   -7.6537e+65   6.03825e+66
   2.56226e+59  -3.75618e+58  -2.76298e+59  -1.43759e+67 -5.29037e+133 -1.51181e+199   1.61111e+67   2.54035e+66   4.92859e+65  -1.74091e+67  -6.33609e+65  -3.38398e+65   9.13504e+65
   2.65057e+59     5.726e+45  -2.73277e+59  -1.34011e+67 -5.94868e+133 -3.15697e+199   1.54621e+67   2.83842e+66   7.00092e+65  -1.69396e+67   4.17241e+65   1.42687e+65   1.15688e+66
   7.78811e+58   3.80599e+45  -1.24152e+59  -2.12361e+67  2.19374e+133  3.04332e+199   2.07132e+67  -7.03017e+65   -1.9278e+66  -1.86053e+67   2.37093e+65   1.15769e+64   5.32059e+66
   7.28626e+58  -2.73788e+58  -1.24397e+59  -2.20319e+67  3.20743e+133   2.7006e+199   2.12915e+67  -8.98172e+65  -2.09696e+66  -1.90367e+67  -5.10275e+65  -4.69508e+65   5.13282e+66
    3.2525e+59   1.00353e+46  -4.35966e+59  -3.05895e+67   4.4298e+133   -9.747e+198   2.98566e+67  -8.15794e+65  -8.52426e+65  -2.89212e+67  -4.62663e+65  -2.05919e+65   2.09474e+66
   3.15457e+59   5.98048e+58  -4.40325e+59  -3.18713e+67  6.54628e+133 -2.36362e+199   3.08272e+67  -1.17915e+66  -1.12494e+66  -2.95672e+67   5.88187e+65   5.78648e+65   1.81894e+66
   1.12929e+59   4.31981e+58  -1.99116e+59   -4.1203e+67  2.90503e+134 -5.48258e+200   3.75125e+67  -4.97393e+66  -4.67799e+66  -3.15511e+67    4.9728e+65    7.6537e+65   6.03825e+66
   1.18222e+59   5.75567e+45  -1.98709e+59  -4.01002e+67  2.65062e+134 -4.72051e+200   3.66465e+67   -4.7135e+66  -4.44354e+66  -3.09432e+67  -2.50088e+65  -1.91966e+64   6.25845e+66
   2.65057e+59     5.726e+45  -2.73277e+59  -1.34011e+67 -5.94868e+133 -3.15697e+199   1.54621e+67   2.83842e+66   7.00092e+65  -1.69396e+67  -4.17241e+65  -1.42687e+65   1.15688e+66
   2.56226e+59   3.75618e+58  -2.76298e+59  -1.43759e+67 -5.29037e+133 -1.51181e+199   1.61111e+67   2.54035e+66   4.92859e+65  -1.74091e+67   6.33609e+65   3.38398e+65   9.13504e+65
   7.28626e+58   2.73788e+58  -1.24397e+59  -2.20319e+67  3.20743e+133   2.7006e+199   2.12915e+67  -8.98172e+65  -2.09696e+66  -1.90367e+67   5.10275e+65   4.69508e+65   5.13282e+66
   7.78811e+58   3.80599e+45  -1.24152e+59  -2.12361e+67  2.19374e+133  3.04332e+199   2.07132e+67  -7.03017e+65   -1.9278e+66  -1.86053e+67  -2.37093e+65  -1.15769e+64   5.32059e+66
   3.15457e+59   5.98048e+58  -4.40325e+59  -3.25106e+67  8.16518e+133 -4.89274e+199   3.12296e+67  -1.31506e+66   -1.4924e+66  -2.97031e+67  -4.03303e+65   4.79546e+65   1.81894e+66
   2.84677e+59   1.17159e+59  -4.46781e+59  -2.77174e+67  2.08843e+133  7.37975e+198   2.73381e+67  -3.84839e+65   -4.7338e+65  -2.68592e+67   6.40195e+65   1.98409e+65   1.37831e+66
   8.89244e+58   1.06503e+59  -2.24886e+59  -3.10665e+67  6.98368e+133 -2.27843e+199   2.99214e+67  -2.87217e+66  -6.23115e+65  -2.75712e+67   6.92908e+65  -7.14043e+65   5.22802e+66
   1.12929e+59   4.31981e+58  -1.99116e+59  -3.59578e+67  1.37681e+134 -1.27383e+200   3.39894e+67   -3.8588e+66    -1.663e+66   -3.0436e+67  -3.86692e+65  -4.32906e+65   6.03825e+66
   2.56226e+59   3.75618e+58  -2.76298e+59  -1.49745e+67 -4.56171e+133 -4.56594e+198   1.64272e+67   2.41307e+66   1.48736e+65  -1.75363e+67  -3.58905e+65   2.96599e+65   9.13504e+65
   2.26386e+59   7.28286e+58  -2.80202e+59  -1.22222e+67 -5.63794e+133  -2.6589e+199   1.43444e+67   2.90941e+66    7.3387e+65  -1.58655e+67   6.84593e+65   5.15639e+64   4.90648e+65
    4.9422e+58   6.78322e+58  -1.39792e+59  -1.57707e+67 -3.35339e+133 -6.36443e+198   1.68002e+67   3.79693e+65   4.69552e+65  -1.66199e+67   7.19535e+65  -4.91282e+65   4.34036e+66
   7.28626e+58   2.73788e+58  -1.24397e+59  -1.86211e+67 -2.08452e+133  6.45711e+198   1.91726e+67  -1.73049e+65  -1.36444e+65  -1.83116e+67  -3.60065e+65  -2.46247e+65   5.13282e+66
   8.89244e+58  -1.06503e+59  -2.24886e+59  -3.18465e+67  9.45655e+133 -8.52597e+198   3.03255e+67    -3.038e+66  -7.88946e+65  -2.80195e+67  -6.92908e+65  -3.81417e+66   1.81004e+65
   1.12929e+59  -4.31981e+58  -1.99116e+59  -2.49769e+67  1.54624e+133   2.5996e+199   2.46654e+67  -1.52429e+66   6.71518e+65  -2.41241e+67   3.86692e+65  -8.23383e+65   1.80521e+66
           295            -5           -50  -5.19432e+67  7.48747e+134 -3.28072e+201   4.41515e+67  -1.10431e+67  -1.10431e+67  -2.98571e+67   6.30492e+51  -2.04086e+66   5.33521e+66
           295           -10           -50  -5.86658e+67  9.53751e+134 -4.70969e+201   4.98791e+67  -1.24723e+67  -1.24723e+67  -3.37213e+67  -6.09738e+51  -5.03164e+66   4.20115e+66
    4.9422e+58  -6.78322e+58  -1.39792e+59  -1.56096e+67 -2.44543e+133 -4.86927e+198   1.63742e+67   4.13941e+65     5.038e+65  -1.65273e+67  -7.19535e+65  -2.47734e+66  -1.68525e+66
   7.28626e+58  -2.73788e+58  -1.24397e+59  -1.14464e+67 -3.74701e+133 -2.52154e+199   1.29804e+67   1.35228e+66   1.38888e+66  -1.41876e+67   3.60065e+65  -5.66155e+65  -8.76768e+64
           290            -5           -50  -3.24515e+67  2.91457e+134  -7.9456e+200   2.75978e+67  -6.89913e+66  -6.89913e+66  -1.86532e+67   3.82329e+51  -1.29349e+66   3.44233e+66
           290           -10           -50  -3.64676e+67  3.69417e+134 -1.13808e+201   3.09914e+67  -7.75296e+66  -7.75296e+66  -2.09617e+67  -4.93111e+51  -3.20467e+66    2.3349e+66
   1.12929e+59  -4.31981e+58  -1.99116e+59  -3.02222e+67  1.24357e+134  -1.2782e+200   2.80895e+67  -2.63942e+66  -2.34348e+66  -2.52393e+67   -4.9728e+65  -2.02166e+66   1.80521e+66
   1.18222e+59   5.75567e+45  -1.98709e+59  -3.00444e+67  1.24449e+134 -1.38027e+200   2.78966e+67  -2.57564e+66  -2.30569e+66  -2.51631e+67   2.50088e+65   1.91966e+64   2.06291e+66
           295             0           -50  -5.18372e+67  7.46995e+134 -3.27501e+201   4.40466e+67  -1.10205e+67  -1.10205e+67  -2.97962e+67   1.06982e+51   2.72377e+53    5.5853e+66
           295            -5           -50  -5.19432e+67  7.48747e+134 -3.28072e+201   4.41515e+67  -1.10431e+67  -1.10431e+67  -2.98571e+67  -2.25583e+51  -2.04086e+66   5.33521e+66
   7.28626e+58  -2.73788e+58  -1.24397e+59  -1.48572e+67 -3.09778e+132  8.08833e+198   1.49611e+67   6.27154e+65  -5.71637e+65  -1.49127e+67  -5.10275e+65  -1.28191e+66  -8.76768e+64
   7.78811e+58   3.80599e+45  -1.24152e+59  -1.47215e+67 -2.51973e+132  6.35062e+198   1.48068e+67   6.81988e+65  -5.42792e+65  -1.48607e+67   2.37093e+65   1.15769e+64   1.57036e+65
           290             0           -50  -3.23875e+67  2.90241e+134 -7.89401e+200   2.75447e+67  -6.88554e+66  -6.88554e+66  -1.86165e+67   8.47671e+50   1.81086e+53   3.67942e+66
           290            -5           -50  -3.24515e+67  2.91457e+134  -7.9456e+200   2.75978e+67  -6.89913e+66  -6.89913e+66  -1.86532e+67  -7.35135e+50  -1.29349e+66   3.44233e+66
   1.18222e+59   5.75567e+45  -1.98709e+59  -3.00444e+67  1.24449e+134 -1.38027e+200   2.78966e+67  -2.57564e+66  -2.30569e+66  -2.51631e+67  -2.50088e+65  -1.91966e+64   2.06291e+66
   1.12929e+59   4.31981e+58  -1.99116e+59  -3.02222e+67  1.24357e+134  -1.2782e+200   2.80895e+67  -2.63942e+66  -2.34348e+66  -2.52393e+67    4.9728e+65   2.02166e+66   1.80521e+66
           295             5           -50  -5.19432e+67  7.48747e+134 -3.28072e+201   4.41515e+67  -1.10431e+67  -1.10431e+67  -2.98571e+67  -3.25696e+51   2.04086e+66   5.33521e+66
           295             0           -50  -5.18372e+67  7.46995e+134 -3.27501e+201   4.40466e+67  -1.10205e+67  -1.10205e+67  -2.97962e+67   1.32704e+51   2.71605e+53    5.5853e+66
   7.78811e+58   3.80599e+45  -1.24152e+59  -1.47215e+67 -2.51973e+132  6.35062e+198   1.48068e+67   6.81988e+65  -5.42792e+65  -1.48607e+67  -2.37093e+65  -1.15769e+64   1.57036e+65
   7.28626e+58   2.73788e+58  -1.24397e+59  -1.48572e+67 -3.09778e+132  8.08833e+198   1.49611e+67   6.27154e+65  -5.71637e+65  -1.49127e+67   5.10275e+65   1.28191e+66  -8.76768e+64
           290             5           -50  -3.24515e+67  2.91457e+134  -7.9456e+200   2.75978e+67  -6.89913e+66  -6.89913e+66  -1.86532e+67  -1.76842e+51   1.29349e+66   3.44233e+66
           290             0           -50  -3.23875e+67  2.90241e+134 -7.89401e+200   2.75447e+67  -6.88554e+66  -6.88554e+66  -1.86165e+67   5.55371e+50   1.78841e+53   3.67942e+66
   1.12929e+59   4.31981e+58  -1.99116e+59  -2.49769e+67  1.54624e+133   2.5996e+199   2.46654e+67  -1.52429e+66   6.71518e+65  -2.41241e+67  -3.86692e+65   8.23383e+65   1.80521e+66
   8.89244e+58   1.06503e+59  -2.24886e+59  -3.18465e+67  9.45655e+133 -8.52597e+198   3.03255e+67    -3.038e+66  -7.88946e+65  -2.80195e+67   6.92908e+65   3.81417e+66   1.81004e+65
           295            10           -50  -5.86658e+67  9.53751e+134 -4.70969e+201   4.98791e+67  -1.24723e+67  -1.24723e+67  -3.37213e+67  -7.63854e+51   5.03164e+66   4.20115e+66
           295             5           -50  -5.19432e+67  7.48747e+134 -3.28072e+201   4.41515e+67  -1.10431e+67  -1.10431e+67  -2.98571e+67   4.57742e+51   2.04086e+66   5.33521e+66
   7.28626e+58   2.73788e+58  -1.24397e+59  -1.14464e+67 -3.74701e+133 -2.52154e+199   1.29804e+67   1.35228e+66   1.38888e+66  -1.41876e+67  -3.60065e+65   5.66155e+65  -8.76768e+64
    4.9422e+58   6.78322e+58  -1.39792e+59  -1.56096e+67 -2.44543e+133 -4.86927e+198   1.63742e+67   4.13941e+65     5.038e+65  -1.65273e+67   7.19535e+65   2.47734e+66  -1.68525e+66
           290            10           -50  -3.64676e+67  3.69417e+134 -1.13808e+201   3.09914e+67  -7.75296e+66  -7.75296e+66  -2.09617e+67  -4.75865e+51   3.20467e+66    2.3349e+66
           290             5           -50  -3.24515e+67  2.91457e+134  -7.9456e+200   2.75978e+67  -6.89913e+66  -6.89913e+66  -1.86532e+67   3.05162e+51   1.29349e+66   3.44233e+66
   9.99284e+59  -1.29774e+59  -1.19861e+60  -3.50534e+67  1.05041e+134 -7.45634e+199   3.35217e+67  -1.89975e+66  -1.34266e+66   -3.1811e+67  -4.35577e+65   4.65052e+65   4.98387e+65
   1.02605e+60  -6.51139e+58  -1.21035e+60  -3.63522e+67  1.24371e+134 -1.04576e+200   3.45993e+67  -2.09467e+66  -1.61878e+66  -3.26388e+67   4.30163e+65  -2.05358e+64   1.91397e+65
   6.65891e+59  -7.64191e+58   -9.4672e+59  -3.13231e+67 -2.02054e+133  7.00433e+198   3.16439e+67  -1.75067e+65   4.21586e+65  -3.15696e+67    5.2769e+65   2.55275e+65   3.46489e+66
   6.33882e+59  -1.51358e+59  -9.40818e+59  -3.02231e+67 -3.20149e+133 -2.31333e+198   3.07482e+67  -9.44463e+64   6.55429e+65  -3.07841e+67  -4.95916e+65   7.40863e+65   3.72677e+66
    9.4052e+59  -9.37887e+58  -8.43761e+59  -2.20076e+67 -1.42668e+133  1.10643e+199   2.23293e+67   8.73786e+65  -3.00608e+65  -2.25807e+67  -4.76175e+65   2.16297e+65    8.8758e+65
   9.66426e+59  -4.74531e+58  -8.54246e+59  -2.30572e+67 -5.76805e+132   1.2585e+199    2.3182e+67   7.31821e+65   -5.2377e+65  -2.32653e+67   3.89565e+65  -1.11426e+65   6.16603e+65
   5.97266e+59  -5.55797e+58    -6.599e+59  -1.88998e+67 -9.07705e+133 -6.64838e+199   2.11653e+67   2.46611e+66   1.01555e+66  -2.23814e+67   4.51079e+65   1.19273e+65    3.8901e+66
   5.66879e+59  -1.08852e+59  -6.54298e+59  -1.80489e+67 -9.47069e+133 -8.06096e+199   2.05054e+67   2.49377e+66   1.19643e+66  -2.17391e+67  -5.72527e+65   4.46996e+65   4.11596e+66
   1.02605e+60  -6.51139e+58  -1.21035e+60  -3.62339e+67  1.20846e+134 -9.83156e+199   3.45261e+67  -2.06952e+66  -1.55078e+66  -3.26136e+67  -4.26242e+65      4.65e+65   1.91397e+65
   1.03469e+60   2.19993e+46  -1.21182e+60  -3.66844e+67  1.27985e+134 -1.10543e+200   3.48964e+67   -2.1427e+66  -1.64656e+66  -3.28952e+67   4.08124e+65  -6.91073e+64   1.40784e+65
   6.76496e+59   1.96308e+46  -9.46217e+59  -3.12167e+67 -2.81897e+133  2.57816e+198    3.1665e+67    -6.807e+64   5.84076e+65  -3.17328e+67   5.01049e+65   2.37807e+64   3.39471e+66
   6.65891e+59  -7.64191e+58   -9.4672e+59  -3.09368e+67 -2.99481e+133  -3.2229e+197   3.14171e+67  -9.29585e+64   6.43583e+65  -3.14875e+67  -4.83494e+65   5.57888e+65   3.46489e+66
   9.66426e+59  -4.74531e+58  -8.54246e+59  -2.27657e+67 -1.10827e+133  1.09321e+199   2.30078e+67   7.93803e+65  -3.56189e+65  -2.32033e+67  -4.37542e+65   2.72511e+65   6.16603e+65
   9.74826e+59   1.18413e+46  -8.56604e+59  -2.33243e+67 -6.10155e+132  1.16178e+199   2.34547e+67   6.97649e+65  -4.74943e+65   -2.3547e+67   3.96824e+65  -1.11419e+65   5.96888e+65
   6.06979e+59   1.23024e+46  -6.59878e+59  -1.86858e+67 -9.91429e+133 -8.91235e+199   2.11732e+67   2.59598e+66   1.27904e+66  -2.25609e+67   4.58851e+65   1.04106e+63   3.85081e+66
   5.97266e+59  -5.55797e+58    -6.599e+59  -1.82979e+67 -1.00051e+134 -9.50099e+199   2.08534e+67   2.59407e+66   1.36153e+66  -2.22534e+67  -5.25691e+65   3.84971e+65    3.8901e+66
   1.03469e+60   2.19993e+46  -1.21182e+60  -3.66844e+67  1.27985e+134 -1.10543e+200   3.48964e+67   -2.1427e+66  -1.64656e+66  -3.28952e+67  -4.08124e+65   6.91073e+64   1.40784e+65
   1.02605e+60   6.51139e+58  -1.21035e+60  -3.62339e+67  1.20846e+134 -9.83156e+199   3.45261e+67  -2.06952e+66  -1.55078e+66  -3.26136e+67   4.26242e+65     -4.65e+65   1.91397e+65
   6.65891e+59   7.64191e+58   -9.4672e+59  -3.09368e+67 -2.99481e+133  -3.2229e+197   3.14171e+67  -9.29585e+64   6.43583e+65  -3.14875e+67   4.83494e+65  -5.57888e+65   3.46489e+66
   6.76496e+59   1.96308e+46  -9.46217e+59  -3.12167e+67 -2.81897e+133  2.57816e+198    3.1665e+67    -6.807e+64   5.84076e+65  -3.17328e+67  -5.01049e+65  -2.37807e+64   3.39471e+66
   9.74826e+59   1.18413e+46  -8.56604e+59  -2.33243e+67 -6.10155e+132  1.16178e+199   2.34547e+67   6.97649e+65  -4.74943e+65   -2.3547e+67  -3.96824e+65   1.11419e+65   5.96888e+65
   9.66426e+59   4.74531e+58  -8.54246e+59  -2.27657e+67 -1.10827e+133  1.09321e+199   2.30078e+67   7.93803e+65  -3.56189e+65  -2.32033e+67   4.37542e+65  -2.72511e+65   6.16603e+65
   5.97266e+59   5.55797e+58    -6.599e+59  -1.82979e+67 -1.00051e+134 -9.50099e+199   2.08534e+67   2.59407e+66   1.36153e+66  -2.22534e+67   5.25691e+65  -3.84971e+65    3.8901e+66
   6.06979e+59   1.23024e+46  -6.59878e+59  -1.86858e+67 -9.91429e+133 -8.91235e+199   2.11732e+67   2.59598e+66   1.27904e+66  -2.25609e+67  -4.58851e+65  -1.04106e+63   3.85081e+66
   1.02605e+60   6.51139e+58  -1.21035e+60  -3.63522e+67  1.24371e+134 -1.04576e+200   3.45993e+67  -2.09467e+66  -1.61878e+66  -3.26388e+67  -4.30163e+65   2.05358e+64   1.91397e+65
   9.99284e+59   1.29774e+59  -1.19861e+60  -3.50534e+67  1.05041e+134 -7.45634e+199   3.35217e+67  -1.89975e+66  -1.34266e+66   -3.1811e+67   4.35577e+65  -4.65052e+65   4.98387e+65
   6.33882e+59   1.51358e+59  -9.40818e+59  -3.02231e+67 -3.20149e+133 -2.31333e+198   3.07482e+67  -9.44463e+64   6.55429e+65  -3.07841e+67   4.95916e+65  -7.40863e+65   3.72677e+66
   6.65891e+59   7.64191e+58   -9.4672e+59  -3.13231e+67 -2.02054e+133  7.00433e+198   3.16439e+67  -1.75067e+65   4.21586e+65  -3.15696e+67   -5.2769e+65  -2.55275e+65   3.46489e+66
   9.66426e+59   4.74531e+58  -8.54246e+59  -2.30572e+67 -5.76805e+132   1.2585e+199    2.3182e+67   7.31821e+65   -5.2377e+65  -2.32653e+67  -3.89565e+65   1.11426e+65   6.16603e+65
    9.4052e+59   9.37887e+58  -8.43761e+59  -2.20076e+67 -1.42668e+133  1.10643e+199   2.23293e+67   8.73786e+65  -3.00608e+65  -2.25807e+67   4.76175e+65  -2.16297e+65    8.8758e+65
   5.66879e+59   1.08852e+59  -6.54298e+59  -1.80489e+67 -9.47069e+133 -8.06096e+199   2.05054e+67   2.49377e+66   1.19643e+66  -2.17391e+67   5.72527e+65  -4.46996e+65   4.11596e+66
   5.97266e+59   5.55797e+58    -6.599e+59  -1.88998e+67 -9.07705e+133 -6.64838e+199   2.11653e+67   2.46611e+66   1.01555e+66  -2.23814e+67  -4.51079e+65  -1.19273e+65    3.8901e+66
   6.33882e+59  -1.51358e+59  -9.40818e+59  -3.67874e+67   7.7808e+133 -2.94662e+199   3.57142e+67  -1.49001e+66  -7.40131e+65  -3.45573e+67  -4.95916e+65   1.41753e+65  -3.10197e+65
   6.65891e+59  -7.64191e+58   -9.4672e+59  -3.96343e+67   1.2158e+134 -8.45037e+199   3.80697e+67  -1.94203e+66  -1.34538e+66  -3.63469e+67    5.2769e+65  -2.99973e+64  -4.90553e+65
   3.89454e+59  -8.16861e+58  -6.51226e+59  -3.72842e+67  4.16606e+133   5.4237e+198   3.67212e+67  -9.34661e+65   -5.0224e+65  -3.58473e+67   6.44648e+65   5.62193e+65   3.09616e+66
   3.53928e+59   -1.6026e+59  -6.57858e+59  -3.52526e+67  2.37817e+133   1.6416e+198   3.49136e+67  -9.51268e+65  -7.03238e+64   -3.4231e+67  -3.57863e+65   7.33943e+65     3.254e+66
   5.66879e+59  -1.08852e+59  -6.54298e+59  -2.27589e+67 -4.13486e+133  8.92652e+197   2.36499e+67   1.49243e+66   1.95094e+65  -2.44465e+67  -5.72527e+65   1.27798e+65  -2.03981e+65
   5.97266e+59  -5.55797e+58    -6.599e+59  -2.54815e+67 -1.85465e+133  1.60656e+199   2.58429e+67   1.06684e+66  -3.83723e+65  -2.61646e+67   4.51079e+65  -6.50461e+64  -2.36687e+65
   3.15457e+59  -5.98048e+58  -4.40325e+59  -2.30149e+67 -7.78633e+133 -2.88169e+199   2.46485e+67   2.09897e+66   5.26364e+65  -2.56402e+67   4.20387e+65   5.04632e+65   3.35003e+66
   2.84677e+59  -1.17159e+59  -4.46781e+59  -2.11076e+67 -8.21924e+133 -5.22477e+199   2.29722e+67   2.05593e+66   9.31852e+65  -2.40954e+67  -5.82125e+65   6.97476e+65   3.36022e+66
   6.65891e+59  -7.64191e+58   -9.4672e+59  -3.92481e+67  1.09729e+134 -6.67562e+199   3.78244e+67  -1.85992e+66  -1.12338e+66  -3.62648e+67  -4.83494e+65   2.72615e+65  -4.90553e+65
   6.76496e+59   1.96308e+46  -9.46217e+59  -4.00664e+67  1.21613e+134 -8.36139e+199   3.85189e+67  -1.94949e+66  -1.29735e+66  -3.68196e+67   5.01049e+65   2.37807e+64   -4.6062e+65
   3.99908e+59    1.5127e+46  -6.46692e+59  -3.73514e+67  3.04195e+133  4.54386e+198   3.69419e+67  -8.86566e+65  -2.22471e+65  -3.62424e+67   4.93855e+65   2.14172e+65   3.11161e+66
   3.89454e+59  -8.16861e+58  -6.51226e+59  -3.64723e+67  1.83908e+133  8.38844e+198   3.62193e+67  -7.62062e+65  -3.55837e+64  -3.56747e+67  -5.39911e+65   4.63007e+65   3.09616e+66
   5.97266e+59  -5.55797e+58    -6.599e+59  -2.48796e+67 -3.05436e+133  8.37337e+198    2.5486e+67    1.1948e+66  -3.77437e+64  -2.60367e+67  -5.25691e+65   2.00652e+65  -2.36687e+65
   6.06979e+59   1.23024e+46  -6.59878e+59  -2.57779e+67 -2.34019e+133  1.22489e+199   2.62279e+67   1.08822e+66  -2.28716e+65  -2.66374e+67   4.58851e+65   1.04106e+63   -2.1776e+65
    3.2525e+59   1.00353e+46  -4.35966e+59  -2.33347e+67 -8.27586e+133 -3.93437e+199   2.50453e+67   2.09337e+66   6.89929e+65   -2.6118e+67   4.62663e+65   2.05919e+65   3.35447e+66
   3.15457e+59  -5.98048e+58  -4.40325e+59  -2.23756e+67  -8.9511e+133 -5.45787e+199   2.42936e+67   2.23487e+66   8.93821e+65  -2.55043e+67  -5.71103e+65    4.0553e+65   3.35003e+66
   6.76496e+59   1.96308e+46  -9.46217e+59  -4.00664e+67  1.21613e+134 -8.36139e+199   3.85189e+67  -1.94949e+66  -1.29735e+66  -3.68196e+67  -5.01049e+65  -2.37807e+64   -4.6062e+65
   6.65891e+59   7.64191e+58   -9.4672e+59  -3.92481e+67  1.09729e+134 -6.67562e+199   3.78244e+67  -1.85992e+66  -1.12338e+66  -3.62648e+67   4.83494e+65  -2.72615e+65  -4.90553e+65
   3.89454e+59   8.16861e+58  -6.51226e+59  -3.64723e+67  1.83908e+133  8.38844e+198   3.62193e+67  -7.62062e+65  -3.55837e+64  -3.56747e+67   5.39911e+65  -4.63007e+65   3.09616e+66
   3.99908e+59    1.5127e+46  -6.46692e+59  -3.73514e+67  3.04195e+133  4.54386e+198   3.69419e+67  -8.86566e+65  -2.22471e+65  -3.62424e+67  -4.93855e+65  -2.14172e+65   3.11161e+66
   6.06979e+59   1.23024e+46  -6.59878e+59  -2.57779e+67 -2.34019e+133  1.22489e+199   2.62279e+67   1.08822e+66  -2.28716e+65  -2.66374e+67  -4.58851e+65  -1.04106e+63   -2.1776e+65
   5.97266e+59   5.55797e+58    -6.599e+59  -2.48796e+67 -3.05436e+133  8.37337e+198    2.5486e+67    1.1948e+66  -3.77437e+64  -2.60367e+67   5.25691e+65  -2.00652e+65  -2.36687e+65
   3.15457e+59   5.98048e+58  -4.40325e+59  -2.23756e+67  -8.9511e+133 -5.45787e+199   2.42936e+67   2.23487e+66   8.93821e+65  -2.55043e+67   5.71103e+65   -4.0553e+65   3.35003e+66
    3.2525e+59   1.00353e+46  -4.35966e+59  -2.33347e+67 -8.27586e+133 -3.93437e+199   2.50453e+67   2.09337e+66   6.89929e+65   -2.6118e+67  -4.62663e+65  -2.05919e+65   3.35447e+66
   6.65891e+59   7.64191e+58   -9.4672e+59  -3.96343e+67   1.2158e+134 -8.45037e+199   3.80697e+67  -1.94203e+66  -1.34538e+66  -3.63469e+67   -5.2769e+65   2.99973e+64  -4.90553e+65
   6.33882e+59   1.51358e+59  -9.40818e+59  -3.67874e+67   7.7808e+133 -2.94662e+199   3.57142e+67  -1.49001e+66  -7.40131e+65  -3.45573e+67   4.95916e+65  -1.41753e+65  -3.10197e+65
   3.53928e+59    1.6026e+59  -6.57858e+59  -3.52526e+67  2.37817e+133   1.6416e+198   3.49136e+67  -9.51268e+65  -7.03238e+64   -3.4231e+67   3.57863e+65  -7.33943e+65     3.254e+66
   3.89454e+59   8.16861e+58  -6.51226e+59  -3.72842e+67  4.16606e+133   5.4237e+198   3.67212e+67  -9.34661e+65   -5.0224e+65  -3.58473e+67  -6.44648e+65  -5.62193e+65   3.09616e+66
   5.97266e+59   5.55797e+58    -6.599e+59  -2.54815e+67 -1.85465e+133  1.60656e+199   2.58429e+67   1.06684e+66  -3.83723e+65  -2.61646e+67  -4.51079e+65   6.50461e+64  -2.36687e+65
   5.66879e+59   1.08852e+59  -6.54298e+59  -2.27589e+67 -4.13486e+133  8.92652e+197   2.36499e+67   1.49243e+66   1.95094e+65  -2.44465e+67   5.72527e+65  -1.27798e+65  -2.03981e+65
   2.84677e+59   1.17159e+59  -4.46781e+59  -2.11076e+67 -8.21924e+133 -5.22477e+199   2.29722e+67   2.05593e+66   9.31852e+65  -2.40954e+67   5.82125e+65  -6.97476e+65   3.36022e+66
   3.15457e+59   5.98048e+58  -4.40325e+59  -2.30149e+67 -7.78633e+133 -2.88169e+199   2.46485e+67   2.09897e+66   5.26364e+65  -2.56402e+67  -4.20387e+65  -5.04632e+65   3.35003e+66
   3.53928e+59   -1.6026e+59  -6.57858e+59   -3.9847e+67  1.09747e+134 -6.79518e+199   3.84452e+67  -1.92803e+66  -1.04709e+66  -3.68719e+67  -3.57863e+65  -2.14039e+65  -1.34031e+66
   3.89454e+59  -8.16861e+58  -6.51226e+59  -4.41598e+67   1.7646e+134 -1.66991e+200   4.21145e+67  -2.39642e+66  -1.96399e+66  -3.97994e+67   6.44648e+65  -7.28436e+65  -9.17763e+65
    1.9798e+59  -5.96348e+58  -3.29375e+59   -3.8436e+67 -1.43715e+133  9.07942e+198   3.86225e+67  -1.35118e+65   2.81681e+65  -3.85825e+67   4.87665e+65   2.76893e+65   2.89209e+66
   1.71221e+59  -1.49097e+59  -3.57287e+59  -3.36034e+67  -7.5001e+133 -2.01176e+199   3.47015e+67   6.31988e+65   1.30907e+66  -3.55445e+67  -7.48105e+65   7.91289e+65   2.37667e+66
   2.84677e+59  -1.17159e+59  -4.46781e+59  -2.48584e+67    -3.73e+133  4.16709e+198   2.55977e+67   1.25851e+66   1.34435e+65  -2.62514e+67  -5.82125e+65  -1.98409e+65  -7.23986e+65
   3.15457e+59  -5.98048e+58  -4.40325e+59  -2.86584e+67 -7.68849e+132  2.26529e+199   2.87922e+67   8.99162e+65   -6.7344e+65  -2.88841e+67   4.20387e+65  -4.79546e+65  -3.95556e+65
   1.12929e+59  -4.31981e+58  -1.99116e+59  -2.42226e+67 -1.13471e+134 -7.27071e+199   2.64614e+67   2.88663e+66   8.31892e+65  -2.79411e+67   3.57522e+65   4.32906e+65    3.4143e+66
   8.89244e+58  -1.06503e+59  -2.24886e+59  -1.99029e+67 -1.37457e+134 -1.58135e+200   2.30994e+67   3.54471e+66   1.75025e+66  -2.51978e+67  -8.78248e+65   7.14043e+65   2.99299e+66
   3.89454e+59  -8.16861e+58  -6.51226e+59   -4.3348e+67  1.48969e+134 -1.18434e+200   4.15942e+67  -2.22382e+66  -1.49734e+66  -3.96268e+67  -5.39911e+65  -8.27622e+65  -9.17763e+65
   3.99908e+59    1.5127e+46  -6.46692e+59  -4.13272e+67  1.08756e+134 -6.12298e+199   3.99897e+67  -1.73181e+66  -1.06772e+66  -3.85276e+67   4.93855e+65   2.14172e+65   -8.1378e+65
   2.06407e+59   8.63773e+45  -3.31927e+59   -4.3551e+67  1.72548e+134 -9.56333e+199   4.15228e+67  -9.26488e+65  -3.62409e+66  -3.90004e+67   3.98125e+65   -1.2061e+65   2.84801e+66
    1.9798e+59  -5.96348e+58  -3.29375e+59   -4.6217e+67  2.38266e+134 -2.55957e+200   4.35631e+67  -1.78935e+66  -4.19088e+66  -4.02368e+67  -3.78413e+65   -1.1624e+66   2.89209e+66
   3.15457e+59  -5.98048e+58  -4.40325e+59  -2.80191e+67 -2.20942e+133  1.79213e+199   2.84107e+67   1.03507e+66  -3.05983e+65  -2.87482e+67  -5.71103e+65  -5.78648e+65  -3.95556e+65
    3.2525e+59   1.00353e+46  -4.35966e+59  -2.68159e+67 -3.69966e+133  7.83906e+198   2.74971e+67   1.35327e+66   -5.0171e+64   -2.8119e+67   4.62663e+65   2.05919e+65  -1.74727e+65
   1.18222e+59   5.75567e+45  -1.98709e+59  -2.76194e+67 -3.55936e+133  1.48177e+200   2.82564e+67   2.46055e+66  -1.79012e+66  -2.82898e+67   2.50088e+65   1.91966e+64   3.48707e+66
   1.12929e+59  -4.31981e+58  -1.99116e+59  -2.94678e+67 -4.42814e+132  1.47587e+200   2.95429e+67    1.7715e+66   -2.1831e+66  -2.90562e+67   -5.2645e+65   -7.6537e+65    3.4143e+66
   3.99908e+59    1.5127e+46  -6.46692e+59  -4.13272e+67  1.08756e+134 -6.12298e+199   3.99897e+67  -1.73181e+66  -1.06772e+66  -3.85276e+67  -4.93855e+65  -2.14172e+65   -8.1378e+65
   3.89454e+59   8.16861e+58  -6.51226e+59   -4.3348e+67  1.48969e+134 -1.18434e+200   4.15942e+67  -2.22382e+66  -1.49734e+66  -3.96268e+67   5.39911e+65   8.27622e+65  -9.17763e+65
    1.9798e+59   5.96348e+58  -3.29375e+59   -4.6217e+67  2.38266e+134 -2.55957e+200   4.35631e+67  -1.78935e+66  -4.19088e+66  -4.02368e+67   3.78413e+65    1.1624e+66   2.89209e+66
   2.06407e+59   8.63773e+45  -3.31927e+59   -4.3551e+67  1.72548e+134 -9.56333e+199   4.15228e+67  -9.26488e+65  -3.62409e+66  -3.90004e+67  -3.98125e+65    1.2061e+65   2.84801e+66
    3.2525e+59   1.00353e+46  -4.35966e+59  -2.68159e+67 -3.69966e+133  7.83906e+198   2.74971e+67   1.35327e+66   -5.0171e+64   -2.8119e+67  -4.62663e+65  -2.05919e+65  -1.74727e+65
   3.15457e+59   5.98048e+58  -4.40325e+59  -2.80191e+67 -2.20942e+133  1.79213e+199   2.84107e+67   1.03507e+66  -3.05983e+65  -2.87482e+67   5.71103e+65   5.78648e+65  -3.95556e+65
   1.12929e+59   4.31981e+58  -1.99116e+59  -2.94678e+67 -4.42814e+132  1.47587e+200   2.95429e+67    1.7715e+66   -2.1831e+66  -2.90562e+67    5.2645e+65    7.6537e+65    3.4143e+66
   1.18222e+59   5.75567e+45  -1.98709e+59  -2.76194e+67 -3.55936e+133  1.48177e+200   2.82564e+67   2.46055e+66  -1.79012e+66  -2.82898e+67  -2.50088e+65  -1.91966e+64   3.48707e+66
   3.89454e+59   8.16861e+58  -6.51226e+59  -4.41598e+67   1.7646e+134 -1.66991e+200   4.21145e+67  -2.39642e+66  -1.96399e+66  -3.97994e+67  -6.44648e+65   7.28436e+65  -9.17763e+65
   3.53928e+59    1.6026e+59  -6.57858e+59   -3.9847e+67  1.09747e+134 -6.79518e+199   3.84452e+67  -1.92803e+66  -1.04709e+66  -3.68719e+67   3.57863e+65   2.14039e+65  -1.34031e+66
   1.71221e+59   1.49097e+59  -3.57287e+59  -3.36034e+67  -7.5001e+133 -2.01176e+199   3.47015e+67   6.31988e+65   1.30907e+66  -3.55445e+67   7.48105e+65  -7.91289e+65   2.37667e+66
    1.9798e+59   5.96348e+58  -3.29375e+59   -3.8436e+67 -1.43715e+133  9.07942e+198   3.86225e+67  -1.35118e+65   2.81681e+65  -3.85825e+67  -4.87665e+65  -2.76893e+65   2.89209e+66
   3.15457e+59   5.98048e+58  -4.40325e+59  -2.86584e+67 -7.68849e+132  2.26529e+199   2.87922e+67   8.99162e+65   -6.7344e+65  -2.88841e+67  -4.20387e+65   4.79546e+65  -3.95556e+65
   2.84677e+59   1.17159e+59  -4.46781e+59  -2.48584e+67    -3.73e+133  4.16709e+198   2.55977e+67   1.25851e+66   1.34435e+65  -2.62514e+67   5.82125e+65   1.98409e+65  -7.23986e+65
   8.89244e+58   1.06503e+59  -2.24886e+59  -1.99029e+67 -1.37457e+134 -1.58135e+200   2.30994e+67   3.54471e+66   1.75025e+66  -2.51978e+67   8.78248e+65  -7.14043e+65   2.99299e+66
   1.12929e+59   4.31981e+58  -1.99116e+59  -2.42226e+67 -1.13471e+134 -7.27071e+199   2.64614e+67   2.88663e+66   8.31892e+65  -2.79411e+67  -3.57522e+65  -4.32906e+65    3.4143e+66
   1.71221e+59  -1.49097e+59  -3.57287e+59  -4.83987e+67  1.59519e+134 -7.43877e+199   4.67217e+67  -2.51346e+66  -1.83638e+66  -4.40489e+67  -7.48105e+65  -5.72526e+66   1.83399e+66
    1.9798e+59  -5.96348e+58  -3.29375e+59  -4.03987e+67  1.46739e+133  4.42178e+198   4.02166e+67  -5.52377e+65  -1.35578e+65  -3.97107e+67   4.87665e+65  -1.49871e+66   3.19941e+66
           300            -5           -50  -8.59238e+67  2.04268e+135 -1.47377e+202   7.30768e+67  -1.82673e+67  -1.82673e+67  -4.93893e+67   7.81611e+51  -2.81739e+66   9.35337e+66
           300           -10           -50  -9.32052e+67  2.40079e+135 -1.87561e+202    7.9287e+67  -1.98153e+67  -1.98153e+67  -5.35747e+67  -9.25788e+51  -7.04395e+66   8.08916e+66
   8.89244e+58  -1.06503e+59  -2.24886e+59  -2.06829e+67 -1.41474e+134 -1.87119e+200   2.38591e+67   3.37888e+66   1.58442e+66  -2.56462e+67  -8.78248e+65  -3.81417e+66  -2.05402e+66
   1.12929e+59  -4.31981e+58  -1.99116e+59  -1.32417e+67  -1.6636e+134 -3.59996e+200   1.84852e+67   5.22115e+66   3.16641e+66  -2.16293e+67   3.57522e+65  -8.23383e+65  -8.18747e+65
           295            -5           -50  -5.19432e+67  7.48747e+134 -3.28072e+201   4.41515e+67  -1.10431e+67  -1.10431e+67  -2.98571e+67   5.20295e+51  -2.04086e+66   5.33521e+66
           295           -10           -50  -5.86658e+67  9.53751e+134 -4.70969e+201   4.98791e+67  -1.24723e+67  -1.24723e+67  -3.37213e+67  -5.76709e+51  -5.03164e+66   4.20115e+66
    1.9798e+59  -5.96348e+58  -3.29375e+59  -4.81797e+67  2.73049e+134 -3.41359e+200   4.52574e+67  -2.20661e+66  -4.60814e+66  -4.13649e+67  -3.78413e+65    -2.938e+66   3.19941e+66
   2.06407e+59   8.63773e+45  -3.31927e+59  -4.80282e+67  2.64796e+134 -2.96341e+200   4.51876e+67  -1.87834e+66  -4.57594e+66   -4.1574e+67   3.98125e+65   -1.2061e+65   3.45773e+66
           300             0           -50  -8.65898e+67  2.07629e+135 -1.51165e+202   7.36308e+67  -1.84089e+67  -1.84089e+67  -4.97721e+67   1.55504e+51   4.07022e+53   9.75149e+66
           300            -5           -50  -8.59238e+67  2.04268e+135 -1.47377e+202   7.30768e+67  -1.82673e+67  -1.82673e+67  -4.93893e+67  -2.56494e+51  -2.81739e+66   9.35337e+66
   1.12929e+59  -4.31981e+58  -1.99116e+59   -1.8487e+67 -1.01245e+134 -2.64625e+199   2.10479e+67   4.10601e+66   1.51411e+65  -2.27444e+67   -5.2645e+65  -2.02166e+66  -8.18747e+65
   1.18222e+59   5.75567e+45  -1.98709e+59  -1.75635e+67 -1.10302e+134 -3.47682e+199   2.04641e+67   4.59841e+66    3.4773e+65  -2.25097e+67   2.50088e+65   1.91966e+64  -7.08466e+65
           295             0           -50  -5.18372e+67  7.46995e+134 -3.27501e+201   4.40466e+67  -1.10205e+67  -1.10205e+67  -2.97962e+67   4.32604e+50   2.72938e+53    5.5853e+66
           295            -5           -50  -5.19432e+67  7.48747e+134 -3.28072e+201   4.41515e+67  -1.10431e+67  -1.10431e+67  -2.98571e+67   -1.3972e+51  -2.04086e+66   5.33521e+66
   2.06407e+59   8.63773e+45  -3.31927e+59  -4.80282e+67  2.64796e+134 -2.96341e+200   4.51876e+67  -1.87834e+66  -4.57594e+66   -4.1574e+67  -3.98125e+65    1.2061e+65   3.45773e+66
    1.9798e+59   5.96348e+58  -3.29375e+59  -4.81797e+67  2.73049e+134 -3.41359e+200   4.52574e+67  -2.20661e+66  -4.60814e+66  -4.13649e+67   3.78413e+65     2.938e+66   3.19941e+66
           300             5           -50  -8.59238e+67  2.04268e+135 -1.47377e+202   7.30768e+67  -1.82673e+67  -1.82673e+67  -4.93893e+67   -3.9139e+51   2.81739e+66   9.35337e+66
           300             0           -50  -8.65898e+67  2.07629e+135 -1.51165e+202   7.36308e+67  -1.84089e+67  -1.84089e+67  -4.97721e+67   2.02126e+51   4.04672e+53   9.75149e+66
   1.18222e+59   5.75567e+45  -1.98709e+59  -1.75635e+67 -1.10302e+134 -3.47682e+199   2.04641e+67   4.59841e+66    3.4773e+65  -2.25097e+67  -2.50088e+65  -1.91966e+64  -7.08466e+65
   1.12929e+59   4.31981e+58  -1.99116e+59   -1.8487e+67 -1.01245e+134 -2.64625e+199   2.10479e+67   4.10601e+66   1.51411e+65  -2.27444e+67    5.2645e+65   2.02166e+66  -8.18747e+65
           295             5           -50  -5.19432e+67  7.48747e+134 -3.28072e+201   4.41515e+67  -1.10431e+67  -1.10431e+67  -2.98571e+67  -1.99349e+51   2.04086e+66   5.33521e+66
           295             0           -50  -5.18372e+67  7.46995e+134 -3.27501e+201   4.40466e+67  -1.10205e+67  -1.10205e+67  -2.97962e+67   5.78755e+50   2.72143e+53    5.5853e+66
    1.9798e+59   5.96348e+58  -3.29375e+59  -4.03987e+67  1.46739e+133  4.42178e+198   4.02166e+67  -5.52377e+65  -1.35578e+65  -3.97107e+67  -4.87665e+65   1.49871e+66   3.19941e+66
   1.71221e+59   1.49097e+59  -3.57287e+59  -4.83987e+67  1.59519e+134 -7.43877e+199   4.67217e+67  -2.51346e+66  -1.83638e+66  -4.40489e+67   7.48105e+65   5.72526e+66   1.83399e+66
           300            10           -50  -9.32052e+67  2.40079e+135 -1.87561e+202    7.9287e+67  -1.98153e+67  -1.98153e+67  -5.35747e+67  -9.65468e+51   7.04395e+66   8.08916e+66
           300             5           -50  -8.59238e+67  2.04268e+135 -1.47377e+202   7.30768e+67  -1.82673e+67  -1.82673e+67  -4.93893e+67   5.89277e+51   2.81739e+66   9.35337e+66
   1.12929e+59   4.31981e+58  -1.99116e+59  -1.32417e+67  -1.6636e+134 -3.59996e+200   1.84852e+67   5.22115e+66   3.16641e+66  -2.16293e+67  -3.57522e+65   8.23383e+65  -8.18747e+65
   8.89244e+58   1.06503e+59  -2.24886e+59  -2.06829e+67 -1.41474e+134 -1.87119e+200   2.38591e+67   3.37888e+66   1.58442e+66  -2.56462e+67   8.78248e+65   3.81417e+66  -2.05402e+66
           295            10           -50  -5.86658e+67  9.53751e+134 -4.70969e+201   4.98791e+67  -1.24723e+67  -1.24723e+67  -3.37213e+67  -5.62678e+51   5.03164e+66   4.20115e+66
           295             5           -50  -5.19432e+67  7.48747e+134 -3.28072e+201   4.41515e+67  -1.10431e+67  -1.10431e+67  -2.98571e+67   3.74144e+51   2.04086e+66   5.33521e+66
             1             2             3             4             5             6             7             8
             9            10            11            12            13            14            15            16
            17            18            19            20            21            22            23            24
            25            26            27            28            29            30            31            32
            33            34            35            36            37            38            39            40
            41            42            43            44            45            46            47            48
            49            50            51            52            53            54            55            56
            57            58            59            60            61            62            63            64
            65            66            67            68            69            70            71            72
            73            74            75            76            77            78            79            80
            81            82            83            84            85            86            87            88
            89            90            91            92            93            94            95            96
            97            98            99           100           101           102           103           104
           105           106           107           108           109           110           111           112
           113           114           115           116           117           118           119           120
           121           122           123           124           125           126           127           128
           129           130           131           132           133           134           135           136
           137           138           139           140           141           142           143           144
           145           146           147           148           149           150           151           152
           153           154           155           156           157           158           159           160
           161           162           163           164           165           166           167           168
           169           170           171           172           173           174           175           176
           177           178           179           180           181           182           183           184
           185           186           187           188           189           190           191           192
           193           194           195           196           197           198           199           200
           201           202           203           204           205           206           207           208
           209           210           211           212           213           214           215           216
           217           218           219           220           221           222           223           224
           225           226           227           228           229           230           231           232
           233           234           235           236           237           238           239           240
           241           242           243           244           245           246           247           248
           249           250           251           252           253           254           255           256
           257           258           259           260           261           262           263           264
           265           266           267           268           269           270           271           272
           273           274           275           276           277           278           279           280
           281           282           283           284           285           286           287           288
           289           290           291           292           293           294           295           296
           297           298           299           300           301           302           303           304
           305           306           307           308           309           310           311           312
           313           314           315           316           317           318           319           320
           321           322           323           324           325           326           327           328
           329           330           331           332           333           334           335           336
           337           338           339           340           341           342           343           344
           345           346           347           348           349           350           351           352
           353           354           355           356           357           358           359           360
           361           362           363           364           365           366           367           368
           369           370           371           372           373           374           375           376
           377           378           379           380           381           382           383           384
           385           386           387           388           389           390           391           392
           393           394           395           396           397           398           399           400
           401           402           403           404           405           406           407           408
           409           410           411           412           413           414           415           416
           417           418           419           420           421           422           423           424
           425           426           427           428           429           430           431           432
           433           434           435           436           437           438           439           440
           441           442           443           444           445           446           447           448
           449           450           451           452           453           454           455           456
           457           458           459           460           461           462           463           464
           465           466           467           468           469           470           471           472
           473           474           475           476           477           478           479           480
           481           482           483           484           485           486           487           488
           489           490           491           492           493           494           495           496
           497           498           499           500           501           502           503           504
           505           506           507           508           509           510           511           512
           513           514           515           516           517           518           519           520
           521           522           523           524           525           526           527           528
           529           530           531           532           533           534           535           536
           537           538           539           540           541           542           543           544
           545           546           547           548           549           550           551           552
           553           554           555           556           557           558           559           560
           561           562           563           564           565           566           567           568
           569           570           571           572           573           574           575           576
           577           578           579           580           581           582           583           584
           585           586           587           588           589           590           591           592
           593           594           595           596           597           598           599           600
           601           602           603           604           605           606           607           608
           609           610           611           612           613           614           615           616
           617           618           619           620           621           622           623           624
           625           626           627           628           629           630           631           632
           633           634           635           636           637           638           639           640
           641           642           643           644           645           646           647           648
           649           650           651           652           653           654           655           656
           657           658           659           660           661           662           663           664
           665           666           667           668           669           670           671           672
           673           674           675           676           677           678           679           680
           681           682           683           684           685           686           687           688
           689           690           691           692           693           694           695           696
           697           698           699           700           701           702           703           704
           705           706           707           708           709           710           711           712
           713           714           715           716           717           718           719           720
           721           722           723           724           725           726           727           728
           729           730           731           732           733           734           735           736
           737           738           739           740           741           742           743           744
           745           746           747           748           749           750           751           752
           753           754           755           756           757           758           759           760
           761           762           763           764           765           766           767           768
           769           770           771           772           773           774           775           776
           777           778           779           780           781           782           783           784
           785           786           787           788           789           790           791           792
           793           794           795           796           797           798           799           800
           801           802           803           804           805           806           807           808
           809           810           811           812           813           814           815           816
           817           818           819           820           821           822           823           824
           825           826           827           828           829           830           831           832
           833           834           835           836           837           838           839           840
           841           842           843           844           845           846           847           848
           849           850           851           852           853           854           855           856
           857           858           859           860           861           862           863           864
           865           866           867           868           869           870           871           872
           873           874           875           876           877           878           879           880
           881           882           883           884           885           886           887           888
           889           890           891           892           893           894           895           896
           897           898           899           900           901           902           903           904
           905           906           907           908           909           910           911           912
           913           914           915           916           917           918           919           920
           921           922           923           924           925           926           927           928
           929           930           931           932           933           934           935           936
           937           938           939           940           941           942           943           944
           945           946           947           948           949           950           951           952
           953           954           955           956           957           958           959           960
           961           962           963           964           965           966           967           968
           969           970           971           972           973           974           975           976
           977           978           979           980           981           982           983           984
           985           986           987           988           989           990           991           992
           993           994           995           996           997           998           999          1000
          1001          1002          1003          1004          1005          1006          1007          1008
          1009          1010          1011          1012          1013          1014          1015          1016
          1017          1018          1019          1020          1021          1022          1023          1024
          1025          1026          1027          1028          1029          1030          1031          1032
          1033          1034          1035          1036          1037          1038          1039          1040
          1041          1042          1043          1044          1045          1046          1047          1048
          1049          1050          1051          1052          1053          1054          1055          1056
          1057          1058          1059          1060          1061          1062          1063          1064
          1065          1066          1067          1068          1069          1070          1071          1072
          1073          1074          1075          1076          1077          1078          1079          1080
          1081          1082          1083          1084          1085          1086          1087          1088
          1089          1090          1091          1092          1093          1094          1095          1096
          1097          1098          1099          1100          1101          1102          1103          1104
          1105          1106          1107          1108          1109          1110          1111          1112
          1113          1114          1115          1116          1117          1118          1119          1120
          1121          1122          1123          1124          1125          1126          1127          1128
          1129          1130          1131          1132          1133          1134          1135          1136
          1137          1138          1139          1140          1141          1142          1143          1144
          1145          1146          1147          1148          1149          1150          1151          1152
          1153          1154          1155          1156          1157          1158          1159          1160
          1161          1162          1163          1164          1165          1166          1167          1168
          1169          1170          1171          1172          1173          1174          1175          1176
          1177          1178          1179          1180          1181          1182          1183          1184
          1185          1186          1187          1188          1189          1190          1191          1192
          1193          1194          1195          1196          1197          1198          1199          1200
          1201          1202          1203          1204          1205          1206          1207          1208
          1209          1210          1211          1212          1213          1214          1215          1216
          1217          1218          1219          1220          1221          1222          1223          1224
          1225          1226          1227          1228          1229          1230          1231          1232
          1233          1234          1235          1236          1237          1238          1239          1240
          1241          1242          1243          1244          1245          1246          1247          1248
          1249          1250          1251          1252          1253          1254          1255          1256
          1257          1258          1259          1260          1261          1262          1263          1264
          1265          1266          1267          1268          1269          1270          1271          1272
          1273          1274          1275          1276          1277          1278          1279          1280
          1281          1282          1283          1284          1285          1286          1287          1288
          1289          1290          1291          1292          1293          1294          1295          1296
          1297          1298          1299          1300          1301          1302          1303          1304
          1305          1306          1307          1308          1309          1310          1311          1312
          1313          1314          1315          1316          1317          1318          1319          1320
          1321          1322          1323          1324          1325          1326          1327          1328
          1329          1330          1331          1332          1333          1334          1335          1336
          1337          1338          1339          1340          1341          1342          1343          1344
          1345          1346          1347          1348          1349          1350          1351          1352
          1353          1354          1355          1356          1357          1358          1359          1360
          1361          1362          1363          1364          1365          1366          1367          1368
          1369          1370          1371          1372          1373          1374          1375          1376
          1377          1378          1379          1380          1381          1382          1383          1384
          1385          1386          1387          1388          1389          1390          1391          1392
          1393          1394          1395          1396          1397          1398          1399          1400
          1401          1402          1403          1404          1405          1406          1407          1408
          1409          1410          1411          1412          1413          1414          1415          1416
          1417          1418          1419          1420          1421          1422          1423          1424
          1425          1426          1427          1428          1429          1430          1431          1432
          1433          1434          1435          1436          1437          1438          1439          1440
          1441          1442          1443          1444          1445          1446          1447          1448
          1449          1450          1451          1452          1453          1454          1455          1456
          1457          1458          1459          1460          1461          1462          1463          1464
          1465          1466          1467          1468          1469          1470          1471          1472
          1473          1474          1475          1476          1477          1478          1479          1480
          1481          1482          1483          1484          1485          1486          1487          1488
          1489          1490          1491          1492          1493          1494          1495          1496
          1497          1498          1499          1500          1501          1502          1503          1504
          1505          1506          1507          1508          1509          1510          1511          1512
          1513          1514          1515          1516          1517          1518          1519          1520
          1521          1522          1523          1524          1525          1526          1527          1528
          1529          1530          1531          1532          1533          1534          1535          1536
          1537          1538          1539          1540          1541          1542          1543          1544
          1545          1546          1547          1548          1549          1550          1551          1552
          1553          1554          1555          1556          1557          1558          1559          1560
          1561          1562          1563          1564          1565          1566          1567          1568
          1569          1570          1571          1572          1573          1574          1575          1576
          1577          1578          1579          1580          1581          1582          1583          1584
          1585          1586          1587          1588          1589          1590          1591          1592
          1593          1594          1595          1596          1597          1598          1599          1600
          1601          1602          1603          1604          1605          1606          1607          1608
          1609          1610          1611          1612          1613          1614          1615          1616
          1617          1618          1619          1620          1621          1622          1623          1624
          1625          1626          1627          1628          1629          1630          1631          1632
          1633          1634          1635          1636          1637          1638          1639          1640
          1641          1642          1643          1644          1645          1646          1647          1648
          1649          1650          1651          1652          1653          1654          1655          1656
          1657          1658          1659          1660          1661          1662          1663          1664
          1665          1666          1667          1668          1669          1670          1671          1672
          1673          1674          1675          1676          1677          1678          1679          1680
          1681          1682          1683          1684          1685          1686          1687          1688
          1689          1690          1691          1692          1693          1694          1695          1696
          1697          1698          1699          1700          1701          1702          1703          1704
          1705          1706          1707          1708          1709          1710          1711          1712
          1713          1714          1715          1716          1717          1718          1719          1720
          1721          1722          1723          1724          1725          1726          1727          1728
          1729          1730          1731          1732          1733          1734          1735          1736
          1737          1738          1739          1740          1741          1742          1743          1744
          1745          1746          1747          1748          1749          1750          1751          1752
          1753          1754          1755          1756          1757          1758          1759          1760
          1761          1762          1763          1764          1765          1766          1767          1768
          1769          1770          1771          1772          1773          1774          1775          1776
          1777          1778          1779          1780          1781          1782          1783          1784
          1785          1786          1787          1788          1789          1790          1791          1792
          1793          1794          1795          1796          1797          1798          1799          1800
          1801          1802          1803          1804          1805          1806          1807          1808
          1809          1810          1811          1812          1813          1814          1815          1816
          1817          1818          1819          1820          1821          1822          1823          1824
          1825          1826          1827          1828          1829          1830          1831          1832
          1833          1834          1835          1836          1837          1838          1839          1840
          1841          1842          1843          1844          1845          1846          1847          1848
          1849          1850          1851          1852          1853          1854          1855          1856
          1857          1858          1859          1860          1861          1862          1863          1864
          1865          1866          1867          1868          1869          1870          1871          1872
          1873          1874          1875          1876          1877          1878          1879          1880
          1881          1882          1883          1884          1885          1886          1887          1888
          1889          1890          1891          1892          1893          1894          1895          1896
          1897          1898          1899          1900          1901          1902          1903          1904
          1905          1906          1907          1908          1909          1910          1911          1912
          1913          1914          1915          1916          1917          1918          1919          1920
          1921          1922          1923          1924          1925          1926          1927          1928
          1929          1930          1931          1932          1933          1934          1935          1936
          1937          1938          1939          1940          1941          1942          1943          1944
          1945          1946          1947          1948          1949          1950          1951          1952
          1953          1954          1955          1956          1957          1958          1959          1960
          1961          1962          1963          1964          1965          1966          1967          1968
          1969          1970          1971          1972          1973          1974          1975          1976
          1977          1978          1979          1980          1981          1982          1983          1984
          1985          1986          1987          1988          1989          1990          1991          1992
          1993          1994          1995          1996          1997          1998          1999          2000
          2001          2002          2003          2004          2005          2006          2007          2008
          2009          2010          2011          2012          2013          2014          2015          2016
          2017          2018          2019          2020          2021          2022          2023          2024
          2025          2026          2027          2028          2029          2030          2031          2032
          2033          2034          2035          2036          2037          2038          2039          2040
          2041          2042          2043          2044          2045          2046          2047          2048
          2049          2050          2051          2052          2053          2054          2055          2056
          2057          2058          2059          2060          2061          2062          2063          2064
          2065          2066          2067          2068          2069          2070          2071          2072
          2073          2074          2075          2076          2077          2078          2079          2080
          2081          2082          2083          2084          2085          2086          2087          2088
          2089          2090          2091          2092          2093          2094          2095          2096
          2097          2098          2099          2100          2101          2102          2103          2104
          2105          2106          2107          2108          2109          2110          2111          2112
          2113          2114          2115          2116          2117          2118          2119          2120
          2121          2122          2123          2124          2125          2126          2127          2128
          2129          2130          2131          2132          2133          2134          2135          2136
          2137          2138          2139          2140          2141          2142          2143          2144
          2145          2146          2147          2148          2149          2150          2151          2152
          2153          2154          2155          2156          2157          2158          2159          2160
          2161          2162          2163          2164          2165          2166          2167          2168
          2169          2170          2171          2172          2173          2174          2175          2176
          2177          2178          2179          2180          2181          2182          2183          2184
          2185          2186          2187          2188          2189          2190          2191          2192
          2193          2194          2195          2196          2197          2198          2199          2200
          2201          2202          2203          2204          2205          2206          2207          2208
          2209          2210          2211          2212          2213          2214          2215          2216
          2217          2218          2219          2220          2221          2222          2223          2224
          2225          2226          2227          2228          2229          2230          2231          2232
          2233          2234          2235          2236          2237          2238          2239          2240
          2241          2242          2243          2244          2245          2246          2247          2248
          2249          2250          2251          2252          2253          2254          2255          2256
          2257          2258          2259          2260          2261          2262          2263          2264
          2265          2266          2267          2268          2269          2270          2271          2272
          2273          2274          2275          2276          2277          2278          2279          2280
          2281          2282          2283          2284          2285          2286          2287          2288
          2289          2290          2291          2292          2293          2294          2295          2296
          2297          2298          2299          2300          2301          2302          2303          2304
          2305          2306          2307          2308          2309          2310          2311          2312
          2313          2314          2315          2316          2317          2318          2319          2320
          2321          2322          2323          2324          2325          2326          2327          2328
          2329          2330          2331          2332          2333          2334          2335          2336
          2337          2338          2339          2340          2341          2342          2343          2344
          2345          2346          2347          2348          2349          2350          2351          2352
          2353          2354          2355          2356          2357          2358          2359          2360
          2361          2362          2363          2364          2365          2366          2367          2368
          2369          2370          2371          2372          2373          2374          2375          2376
          2377          2378          2379          2380          2381          2382          2383          2384
          2385          2386          2387          2388          2389          2390          2391          2392
          2393          2394          2395          2396          2397          2398          2399          2400
          2401          2402          2403          2404          2405          2406          2407          2408
          2409          2410          2411          2412          2413          2414          2415          2416
          2417          2418          2419          2420          2421          2422          2423          2424
          2425          2426          2427          2428          2429          2430          2431          2432
          2433          2434          2435          2436          2437          2438          2439          2440
          2441          2442          2443          2444          2445          2446          2447          2448
          2449          2450          2451          2452          2453          2454          2455          2456
          2457          2458          2459          2460          2461          2462          2463          2464
          2465          2466          2467          2468          2469          2470          2471          2472
          2473          2474          2475          2476          2477          2478          2479          2480
          2481          2482          2483          2484          2485          2486          2487          2488
          2489          2490          2491          2492          2493          2494          2495          2496
          2497          2498          2499          2500          2501          2502          2503          2504
          2505          2506          2507          2508          2509          2510          2511          2512
          2513          2514          2515          2516          2517          2518          2519          2520
          2521          2522          2523          2524          2525          2526          2527          2528
          2529          2530          2531          2532          2533          2534          2535          2536
          2537          2538          2539          2540          2541          2542          2543          2544
          2545          2546          2547          2548          2549          2550          2551          2552
          2553          2554          2555          2556          2557          2558          2559          2560
          2561          2562          2563          2564          2565          2566          2567          2568
          2569          2570          2571          2572          2573          2574          2575          2576
          2577          2578          2579          2580          2581          2582          2583          2584
          2585          2586          2587          2588          2589          2590          2591          2592
          2593          2594          2595          2596          2597          2598          2599          2600
          2601          2602          2603          2604          2605          2606          2607          2608
          2609          2610          2611          2612          2613          2614          2615          2616
          2617          2618          2619          2620          2621          2622          2623          2624
          2625          2626          2627          2628          2629          2630          2631          2632
          2633          2634          2635          2636          2637          2638          2639          2640
          2641          2642          2643          2644          2645          2646          2647          2648
          2649          2650          2651          2652          2653          2654          2655          2656
          2657          2658          2659          2660          2661          2662          2663          2664
          2665          2666          2667          2668          2669          2670          2671          2672
          2673          2674          2675          2676          2677          2678          2679          2680
          2681          2682          2683          2684          2685          2686          2687          2688
          2689          2690          2691          2692          2693          2694          2695          2696
          2697          2698          2699          2700          2701          2702          2703          2704
          2705          2706          2707          2708          2709          2710          2711          2712
          2713          2714          2715          2716          2717          2718          2719          2720
          2721          2722          2723          2724          2725          2726          2727          2728
          2729          2730          2731          2732          2733          2734          2735          2736
          2737          2738          2739          2740          2741          2742          2743          2744
          2745          2746          2747          2748          2749          2750          2751          2752
          2753          2754          2755          2756          2757          2758          2759          2760
          2761          2762          2763          2764          2765          2766          2767          2768
          2769          2770          2771          2772          2773          2774          2775          2776
          2777          2778          2779          2780          2781          2782          2783          2784
          2785          2786          2787          2788          2789          2790          2791          2792
          2793          2794          2795          2796          2797          2798          2799          2800
          2801          2802          2803          2804          2805          2806          2807          2808
          2809          2810          2811          2812          2813          2814          2815          2816
          2817          2818          2819          2820          2821          2822          2823          2824
          2825          2826          2827          2828          2829          2830          2831          2832
          2833          2834          2835          2836          2837          2838          2839          2840
          2841          2842          2843          2844          2845          2846          2847          2848
          2849          2850          2851          2852          2853          2854          2855          2856
          2857          2858          2859          2860          2861          2862          2863          2864
          2865          2866          2867          2868          2869          2870          2871          2872
          2873          2874          2875          2876          2877          2878          2879          2880
          2881          2882          2883          2884          2885          2886          2887          2888
          2889          2890          2891          2892          2893          2894          2895          2896
          2897          2898          2899          2900          2901          2902          2903          2904
          2905          2906          2907          2908          2909          2910          2911          2912
          2913          2914          2915          2916          2917          2918          2919          2920
          2921          2922          2923          2924          2925          2926          2927          2928
          2929          2930          2931          2932          2933          2934          2935          2936
          2937          2938          2939          2940          2941          2942          2943          2944
          2945          2946          2947          2948          2949          2950          2951          2952
          2953          2954          2955          2956          2957          2958          2959          2960
          2961          2962          2963          2964          2965          2966          2967          2968
          2969          2970          2971          2972          2973          2974          2975          2976
          2977          2978          2979          2980          2981          2982          2983          2984
          2985          2986          2987          2988          2989          2990          2991          2992
          2993          2994          2995          2996          2997          2998          2999          3000
          3001          3002          3003          3004          3005          3006          3007          3008
          3009          3010          3011          3012          3013          3014          3015          3016
          3017          3018          3019          3020          3021          3022          3023          3024
          3025          3026          3027          3028          3029          3030          3031          3032
          3033          3034          3035          3036          3037          3038          3039          3040
          3041          3042          3043          3044          3045          3046          3047          3048
          3049          3050          3051          3052          3053          3054          3055          3056
          3057          3058          3059          3060          3061          3062          3063          3064
          3065          3066          3067          3068          3069          3070          3071          3072
          3073          3074          3075          3076          3077          3078          3079          3080
          3081          3082          3083          3084          3085          3086          3087          3088
          3089          3090          3091          3092          3093          3094          3095          3096
          3097          3098          3099          3100          3101          3102          3103          3104
          3105          3106          3107          3108          3109          3110          3111          3112
          3113          3114          3115          3116          3117          3118          3119          3120
          3121          3122          3123          3124          3125          3126          3127          3128
          3129          3130          3131          3132          3133          3134          3135          3136
          3137          3138          3139          3140          3141          3142          3143          3144
          3145          3146          3147          3148          3149          3150          3151          3152
          3153          3154          3155          3156          3157          3158          3159          3160
          3161          3162          3163          3164          3165          3166          3167          3168
          3169          3170          3171          3172          3173          3174          3175          3176
          3177          3178          3179          3180          3181          3182          3183          3184
          3185          3186          3187          3188          3189          3190          3191          3192
          3193          3194          3195          3196          3197          3198          3199          3200
          3201          3202          3203          3204          3205          3206          3207          3208
          3209          3210          3211          3212          3213          3214          3215          3216
          3217          3218          3219          3220          3221          3222          3223          3224
          3225          3226          3227          3228          3229          3230          3231          3232
          3233          3234          3235          3236          3237          3238          3239          3240
          3241          3242          3243          3244          3245          3246          3247          3248
          3249          3250          3251          3252          3253          3254          3255          3256
          3257          3258          3259          3260          3261          3262          3263          3264
          3265          3266          3267          3268          3269          3270          3271          3272
          3273          3274          3275          3276          3277          3278          3279          3280
          3281          3282          3283          3284          3285          3286          3287          3288
          3289          3290          3291          3292          3293          3294          3295          3296
          3297          3298          3299          3300          3301          3302          3303          3304
          3305          3306          3307          3308          3309          3310          3311          3312
          3313          3314          3315          3316          3317          3318          3319          3320
          3321          3322          3323          3324          3325          3326          3327          3328
          3329          3330          3331          3332          3333          3334          3335          3336
          3337          3338          3339          3340          3341          3342          3343          3344
          3345          3346          3347          3348          3349          3350          3351          3352
          3353          3354          3355          3356          3357          3358          3359          3360
          3361          3362          3363          3364          3365          3366          3367          3368
          3369          3370          3371          3372          3373          3374          3375          3376
          3377          3378          3379          3380          3381          3382          3383          3384
          3385          3386          3387          3388          3389          3390          3391          3392
          3393          3394          3395          3396          3397          3398          3399          3400
          3401          3402          3403          3404          3405          3406          3407          3408
          3409          3410          3411          3412          3413          3414          3415          3416
          3417          3418          3419          3420          3421          3422          3423          3424
          3425          3426          3427          3428          3429          3430          3431          3432
          3433          3434          3435          3436          3437          3438          3439          3440
          3441          3442          3443          3444          3445          3446          3447          3448
          3449          3450          3451          3452          3453          3454          3455          3456
          3457          3458          3459          3460          3461          3462          3463          3464
          3465          3466          3467          3468          3469          3470          3471          3472
          3473          3474          3475          3476          3477          3478          3479          3480
          3481          3482          3483          3484          3485          3486          3487          3488
          3489          3490          3491          3492          3493          3494          3495          3496
          3497          3498          3499          3500          3501          3502          3503          3504
          3505          3506          3507          3508          3509          3510          3511          3512
          3513          3514          3515          3516          3517          3518          3519          3520
          3521          3522          3523          3524          3525          3526          3527          3528
          3529          3530          3531          3532          3533          3534          3535          3536
          3537          3538          3539          3540          3541          3542          3543          3544
          3545          3546          3547          3548          3549          3550          3551          3552
          3553          3554          3555          3556          3557          3558          3559          3560
          3561          3562          3563          3564          3565          3566          3567          3568
          3569          3570          3571          3572          3573          3574          3575          3576
          3577          3578          3579          3580          3581          3582          3583          3584
          3585          3586          3587          3588          3589          3590          3591          3592
          3593          3594          3595          3596          3597          3598          3599          3600
          3601          3602          3603          3604          3605          3606          3607          3608
          3609          3610          3611          3612          3613          3614          3615          3616
          3617          3618          3619          3620          3621          3622          3623          3624
          3625          3626          3627          3628          3629          3630          3631          3632
          3633          3634          3635          3636          3637          3638          3639          3640
          3641          3642          3643          3644          3645          3646          3647          3648
          3649          3650          3651          3652          3653          3654          3655          3656
          3657          3658          3659          3660          3661          3662          3663          3664
          3665          3666          3667          3668          3669          3670          3671          3672
          3673          3674          3675          3676          3677          3678          3679          3680
          3681          3682          3683          3684          3685          3686          3687          3688
          3689          3690          3691          3692          3693          3694          3695          3696
          3697          3698          3699          3700          3701          3702          3703          3704
          3705          3706          3707          3708          3709          3710          3711          3712
          3713          3714          3715          3716          3717          3718          3719          3720
          3721          3722          3723          3724          3725          3726          3727          3728
          3729          3730          3731          3732          3733          3734          3735          3736
          3737          3738          3739          3740          3741          3742          3743          3744
          3745          3746          3747          3748          3749          3750          3751          3752
          3753          3754          3755          3756          3757          3758          3759          3760
          3761          3762          3763          3764          3765          3766          3767          3768
          3769          3770          3771          3772          3773          3774          3775          3776
          3777          3778          3779          3780          3781          3782          3783          3784
          3785          3786          3787          3788          3789          3790          3791          3792
          3793          3794          3795          3796          3797          3798          3799          3800
          3801          3802          3803          3804          3805          3806          3807          3808
          3809          3810          3811          3812          3813          3814          3815          3816
          3817          3818          3819          3820          3821          3822          3823          3824
          3825          3826          3827          3828          3829          3830          3831          3832
          3833          3834          3835          3836          3837          3838          3839          3840
          3841          3842          3843          3844          3845          3846          3847          3848
          3849          3850          3851          3852          3853          3854          3855          3856
          3857          3858          3859          3860          3861          3862          3863          3864
          3865          3866          3867          3868          3869          3870          3871          3872
          3873          3874          3875          3876          3877          3878          3879          3880
          3881          3882          3883          3884          3885          3886          3887          3888
          3889          3890          3891          3892          3893          3894          3895          3896
          3897          3898          3899          3900          3901          3902          3903          3904
          3905          3906          3907          3908          3909          3910          3911          3912
          3913          3914          3915          3916          3917          3918          3919          3920
          3921          3922          3923          3924          3925          3926          3927          3928
          3929          3930          3931          3932          3933          3934          3935          3936
          3937          3938          3939          3940          3941          3942          3943          3944
          3945          3946          3947          3948          3949          3950          3951          3952
          3953          3954          3955          3956          3957          3958          3959          3960
          3961          3962          3963          3964          3965          3966          3967          3968
          3969          3970          3971          3972          3973          3974          3975          3976
          3977          3978          3979          3980          3981          3982          3983          3984
          3985          3986          3987          3988          3989          3990          3991          3992
          3993          3994          3995          3996          3997          3998          3999          4000
          4001          4002          4003          4004          4005          4006          4007          4008
          4009          4010          4011          4012          4013          4014          4015          4016
          4017          4018          4019          4020          4021          4022          4023          4024
          4025          4026          4027          4028          4029          4030          4031          4032
          4033          4034          4035          4036          4037          4038          4039          4040
          4041          4042          4043          4044          4045          4046          4047          4048
          4049          4050          4051          4052          4053          4054          4055          4056
          4057          4058          4059          4060          4061          4062          4063          4064
          4065          4066          4067          4068          4069          4070          4071          4072
          4073          4074          4075          4076          4077          4078          4079          4080
          4081          4082          4083          4084          4085          4086          4087          4088
          4089          4090          4091          4092          4093          4094          4095          4096
          4097          4098          4099          4100          4101          4102          4103          4104
          4105          4106          4107          4108          4109          4110          4111          4112
          4113          4114          4115          4116          4117          4118          4119          4120
          4121          4122          4123          4124          4125          4126          4127          4128
          4129          4130          4131          4132          4133          4134          4135          4136
          4137          4138          4139          4140          4141          4142          4143          4144
          4145          4146          4147          4148          4149          4150          4151          4152
          4153          4154          4155          4156          4157          4158          4159          4160
          4161          4162          4163          4164          4165          4166          4167          4168
          4169          4170          4171          4172          4173          4174          4175          4176
          4177          4178          4179          4180          4181          4182          4183          4184
          4185          4186          4187          4188          4189          4190          4191          4192
          4193          4194          4195          4196          4197          4198          4199          4200
          4201          4202          4203          4204          4205          4206          4207          4208
          4209          4210          4211          4212          4213          4214          4215          4216
          4217          4218          4219          4220          4221          4222          4223          4224
          4225          4226          4227          4228          4229          4230          4231          4232
          4233          4234          4235          4236          4237          4238          4239          4240
          4241          4242          4243          4244          4245          4246          4247          4248
          4249          4250          4251          4252          4253          4254          4255          4256
          4257          4258          4259          4260          4261          4262          4263          4264
          4265          4266          4267          4268          4269          4270          4271          4272
          4273          4274          4275          4276          4277          4278          4279          4280
          4281          4282          4283          4284          4285          4286          4287          4288
          4289          4290          4291          4292          4293          4294          4295          4296
          4297          4298          4299          4300          4301          4302          4303          4304
          4305          4306          4307          4308          4309          4310          4311          4312
          4313          4314          4315          4316          4317          4318          4319          4320
          4321          4322          4323          4324          4325          4326          4327          4328
          4329          4330          4331          4332          4333          4334          4335          4336
          4337          4338          4339          4340          4341          4342          4343          4344
          4345          4346          4347          4348          4349          4350          4351          4352
          4353          4354          4355          4356          4357          4358          4359          4360
          4361          4362          4363          4364          4365          4366          4367          4368
          4369          4370          4371          4372          4373          4374          4375          4376
          4377          4378          4379          4380          4381          4382          4383          4384
          4385          4386          4387          4388          4389          4390          4391          4392
          4393          4394          4395          4396          4397          4398          4399          4400
          4401          4402          4403          4404          4405          4406          4407          4408
          4409          4410          4411          4412          4413          4414          4415          4416
          4417          4418          4419          4420          4421          4422          4423          4424
          4425          4426          4427          4428          4429          4430          4431          4432
          4433          4434          4435          4436          4437          4438          4439          4440
          4441          4442          4443          4444          4445          4446          4447          4448
          4449          4450          4451          4452          4453          4454          4455          4456
          4457          4458          4459          4460          4461          4462          4463          4464
          4465          4466          4467          4468          4469          4470          4471          4472
          4473          4474          4475          4476          4477          4478          4479          4480
          4481          4482          4483          4484          4485          4486          4487          4488
          4489          4490          4491          4492          4493          4494          4495          4496
          4497          4498          4499          4500          4501          4502          4503          4504
          4505          4506          4507          4508          4509          4510          4511          4512
          4513          4514          4515          4516          4517          4518          4519          4520
          4521          4522          4523          4524          4525          4526          4527          4528
          4529          4530          4531          4532          4533          4534          4535          4536
          4537          4538          4539          4540          4541          4542          4543          4544
          4545          4546          4547          4548          4549          4550          4551          4552
          4553          4554          4555          4556          4557          4558          4559          4560
          4561          4562          4563          4564          4565          4566          4567          4568
          4569          4570          4571          4572          4573          4574          4575          4576
          4577          4578          4579          4580          4581          4582          4583          4584
          4585          4586          4587          4588          4589          4590          4591          4592
          4593          4594          4595          4596          4597          4598          4599          4600
          4601          4602          4603          4604          4605          4606          4607          4608
          4609          4610          4611          4612          4613          4614          4615          4616
          4617          4618          4619          4620          4621          4622          4623          4624
          4625          4626          4627          4628          4629          4630          4631          4632
          4633          4634          4635          4636          4637          4638          4639          4640
          4641          4642          4643          4644          4645          4646          4647          4648
          4649          4650          4651          4652          4653          4654          4655          4656
          4657          4658          4659          4660          4661          4662          4663          4664
          4665          4666          4667          4668          4669          4670          4671          4672
          4673          4674          4675          4676          4677          4678          4679          4680
          4681          4682          4683          4684          4685          4686          4687          4688
          4689          4690          4691          4692          4693          4694          4695          4696
          4697          4698          4699          4700          4701          4702          4703          4704
          4705          4706          4707          4708          4709          4710          4711          4712
          4713          4714          4715          4716          4717          4718          4719          4720
          4721          4722          4723          4724          4725          4726          4727          4728
          4729          4730          4731          4732          4733          4734          4735          4736
          4737          4738          4739          4740          4741          4742          4743          4744
          4745          4746          4747          4748          4749          4750          4751          4752
          4753          4754          4755          4756          4757          4758          4759          4760
          4761          4762          4763          4764          4765          4766          4767          4768
          4769          4770          4771          4772          4773          4774          4775          4776
          4777          4778          4779          4780          4781          4782          4783          4784
          4785          4786          4787          4788          4789          4790          4791          4792
          4793          4794          4795          4796          4797          4798          4799          4800
          4801          4802          4803          4804          4805          4806          4807          4808
          4809          4810          4811          4812          4813          4814          4815          4816
          4817          4818          4819          4820          4821          4822          4823          4824
          4825          4826          4827          4828          4829          4830          4831          4832
          4833          4834          4835          4836          4837          4838          4839          4840
          4841          4842          4843          4844          4845          4846          4847          4848
          4849          4850          4851          4852          4853          4854          4855          4856
          4857          4858          4859          4860          4861          4862          4863          4864
          4865          4866          4867          4868          4869          4870          4871          4872
          4873          4874          4875          4876          4877          4878          4879          4880
          4881          4882          4883          4884          4885          4886          4887          4888
          4889          4890          4891          4892          4893          4894          4895          4896
          4897          4898          4899          4900          4901          4902          4903          4904
          4905          4906          4907          4908          4909          4910          4911          4912
          4913          4914          4915          4916          4917          4918          4919          4920
          4921          4922          4923          4924          4925          4926          4927          4928
          4929          4930          4931          4932          4933          4934          4935          4936
          4937          4938          4939          4940          4941          4942          4943          4944
          4945          4946          4947          4948          4949          4950          4951          4952
          4953          4954          4955          4956          4957          4958          4959          4960
          4961          4962          4963          4964          4965          4966          4967          4968
          4969          4970          4971          4972          4973          4974          4975          4976
          4977          4978          4979          4980          4981          4982          4983          4984
          4985          4986          4987          4988          4989          4990          4991          4992
          4993          4994          4995          4996          4997          4998          4999          5000
          5001          5002          5003          5004          5005          5006          5007          5008
          5009          5010          5011          5012          5013          5014          5015          5016
          5017          5018          5019          5020          5021          5022          5023          5024
          5025          5026          5027          5028          5029          5030          5031          5032
          5033          5034          5035          5036          5037          5038          5039          5040
          5041          5042          5043          5044          5045          5046          5047          5048
          5049          5050          5051          5052          5053          5054          5055          5056
          5057          5058          5059          5060          5061          5062          5063          5064
          5065          5066          5067          5068          5069          5070          5071          5072
          5073          5074          5075          5076          5077          5078          5079          5080
          5081          5082          5083          5084          5085          5086          5087          5088
          5089          5090          5091          5092          5093          5094          5095          5096
          5097          5098          5099          5100          5101          5102          5103          5104
          5105          5106          5107          5108          5109          5110          5111          5112
          5113          5114          5115          5116          5117          5118          5119          5120
          5121          5122          5123          5124          5125          5126          5127          5128
          5129          5130          5131          5132          5133          5134          5135          5136
          5137          5138          5139          5140          5141          5142          5143          5144
          5145          5146          5147          5148          5149          5150          5151          5152
          5153          5154          5155          5156          5157          5158          5159          5160
          5161          5162          5163          5164          5165          5166          5167          5168
          5169          5170          5171          5172          5173          5174          5175          5176
          5177          5178          5179          5180          5181          5182          5183          5184
          5185          5186          5187          5188          5189          5190          5191          5192
          5193          5194          5195          5196          5197          5198          5199          5200
          5201          5202          5203          5204          5205          5206          5207          5208
          5209          5210          5211          5212          5213          5214          5215          5216
          5217          5218          5219          5220          5221          5222          5223          5224
          5225          5226          5227          5228          5229          5230          5231          5232
          5233          5234          5235          5236          5237          5238          5239          5240
          5241          5242          5243          5244          5245          5246          5247          5248
          5249          5250          5251          5252          5253          5254          5255          5256
          5257          5258          5259          5260          5261          5262          5263          5264
          5265          5266          5267          5268          5269          5270          5271          5272
          5273          5274          5275          5276          5277          5278          5279          5280
          5281          5282          5283          5284          5285          5286          5287          5288
          5289          5290          5291          5292          5293          5294          5295          5296
          5297          5298          5299          5300          5301          5302          5303          5304
          5305          5306          5307          5308          5309          5310          5311          5312
          5313          5314          5315          5316          5317          5318          5319          5320
          5321          5322          5323          5324          5325          5326          5327          5328
          5329          5330          5331          5332          5333          5334          5335          5336
          5337          5338          5339          5340          5341          5342          5343          5344
          5345          5346          5347          5348          5349          5350          5351          5352
          5353          5354          5355          5356          5357          5358          5359          5360
          5361          5362          5363          5364          5365          5366          5367          5368
          5369          5370          5371          5372          5373          5374          5375          5376
          5377          5378          5379          5380          5381          5382          5383          5384
          5385          5386          5387          5388          5389          5390          5391          5392
          5393          5394          5395          5396          5397          5398          5399          5400
          5401          5402          5403          5404          5405          5406          5407          5408
          5409          5410          5411          5412          5413          5414          5415          5416
          5417          5418          5419          5420          5421          5422          5423          5424
          5425          5426          5427          5428          5429          5430          5431          5432
          5433          5434          5435          5436          5437          5438          5439          5440
          5441          5442          5443          5444          5445          5446          5447          5448
          5449          5450          5451          5452          5453          5454          5455          5456
          5457          5458          5459          5460          5461          5462          5463          5464
          5465          5466          5467          5468          5469          5470          5471          5472
          5473          5474          5475          5476          5477          5478          5479          5480
          5481          5482          5483          5484          5485          5486          5487          5488
          5489          5490          5491          5492          5493          5494          5495          5496
          5497          5498          5499          5500          5501          5502          5503          5504
          5505          5506          5507          5508          5509          5510          5511          5512
          5513          5514          5515          5516          5517          5518          5519          5520
          5521          5522          5523          5524          5525          5526          5527          5528
          5529          5530          5531          5532          5533          5534          5535          5536
          5537          5538          5539          5540          5541          5542          5543          5544
          5545          5546          5547          5548          5549          5550          5551          5552
          5553          5554          5555          5556          5557          5558          5559          5560
          5561          5562          5563          5564          5565          5566          5567          5568
          5569          5570          5571          5572          5573          5574          5575          5576
          5577          5578          5579          5580          5581          5582          5583          5584
          5585          5586          5587          5588          5589          5590          5591          5592
          5593          5594          5595          5596          5597          5598          5599          5600
          5601          5602          5603          5604          5605          5606          5607          5608
          5609          5610          5611          5612          5613          5614          5615          5616
          5617          5618          5619          5620          5621          5622          5623          5624
          5625          5626          5627          5628          5629          5630          5631          5632
          5633          5634          5635          5636          5637          5638          5639          5640
          5641          5642          5643          5644          5645          5646          5647          5648
          5649          5650          5651          5652          5653          5654          5655          5656
          5657          5658          5659          5660          5661          5662          5663          5664
          5665          5666          5667          5668          5669          5670          5671          5672
          5673          5674          5675          5676          5677          5678          5679          5680
          5681          5682          5683          5684          5685          5686          5687          5688
          5689          5690          5691          5692          5693          5694          5695          5696
          5697          5698          5699          5700          5701          5702          5703          5704
          5705          5706          5707          5708          5709          5710          5711          5712
          5713          5714          5715          5716          5717          5718          5719          5720
          5721          5722          5723          5724          5725          5726          5727          5728
          5729          5730          5731          5732          5733          5734          5735          5736
          5737          5738          5739          5740          5741          5742          5743          5744
          5745          5746          5747          5748          5749          5750          5751          5752
          5753          5754          5755          5756          5757          5758          5759          5760
          5761          5762          5763          5764          5765          5766          5767          5768
          5769          5770          5771          5772          5773          5774          5775          5776
          5777          5778          5779          5780          5781          5782          5783          5784
          5785          5786          5787          5788          5789          5790          5791          5792
          5793          5794          5795          5796          5797          5798          5799          5800
          5801          5802          5803          5804          5805          5806          5807          5808
          5809          5810          5811          5812          5813          5814          5815          5816
          5817          5818          5819          5820          5821          5822          5823          5824
          5825          5826          5827          5828          5829          5830          5831          5832
          5833          5834          5835          5836          5837          5838          5839          5840
          5841          5842          5843          5844          5845          5846          5847          5848
          5849          5850          5851          5852          5853          5854          5855          5856
          5857          5858          5859          5860          5861          5862          5863          5864
          5865          5866          5867          5868          5869          5870          5871          5872
          5873          5874          5875          5876          5877          5878          5879          5880
          5881          5882          5883          5884          5885          5886          5887          5888
          5889          5890          5891          5892          5893          5894          5895          5896
          5897          5898          5899          5900          5901          5902          5903          5904
          5905          5906          5907          5908          5909          5910          5911          5912
          5913          5914          5915          5916          5917          5918          5919          5920
          5921          5922          5923          5924          5925          5926          5927          5928
          5929          5930          5931          5932          5933          5934          5935          5936
          5937          5938          5939          5940          5941          5942          5943          5944
          5945          5946          5947          5948          5949          5950          5951          5952
          5953          5954          5955          5956          5957          5958          5959          5960
          5961          5962          5963          5964          5965          5966          5967          5968
          5969          5970          5971          5972          5973          5974          5975          5976
          5977          5978          5979          5980          5981          5982          5983          5984
          5985          5986          5987          5988          5989          5990          5991          5992
          5993          5994          5995          5996          5997          5998          5999          6000
          6001          6002          6003          6004          6005          6006          6007          6008
          6009          6010          6011          6012          6013          6014          6015          6016
          6017          6018          6019          6020          6021          6022          6023          6024
          6025          6026          6027          6028          6029          6030          6031          6032
          6033          6034          6035          6036          6037          6038          6039          6040
          6041          6042          6043          6044          6045          6046          6047          6048
          6049          6050          6051          6052          6053          6054          6055          6056
          6057          6058          6059          6060          6061          6062          6063          6064
          6065          6066          6067          6068          6069          6070          6071          6072
          6073          6074          6075          6076          6077          6078          6079          6080
          6081          6082          6083          6084          6085          6086          6087          6088
          6089          6090          6091          6092          6093          6094          6095          6096
          6097          6098          6099          6100          6101          6102          6103          6104
          6105          6106          6107          6108          6109          6110          6111          6112
          6113          6114          6115          6116          6117          6118          6119          6120
          6121          6122          6123          6124          6125          6126          6127          6128
          6129          6130          6131          6132          6133          6134          6135          6136
          6137          6138          6139          6140          6141          6142          6143          6144
          6145          6146          6147          6148          6149          6150          6151          6152
          6153          6154          6155          6156          6157          6158          6159          6160
          6161          6162          6163          6164          6165          6166          6167          6168
          6169          6170          6171          6172          6173          6174          6175          6176
          6177          6178          6179          6180          6181          6182          6183          6184
          6185          6186          6187          6188          6189          6190          6191          6192
          6193          6194          6195          6196          6197          6198          6199          6200
          6201          6202          6203          6204          6205          6206          6207          6208
          6209          6210          6211          6212          6213          6214          6215          6216
          6217          6218          6219          6220          6221          6222          6223          6224
          6225          6226          6227          6228          6229          6230          6231          6232
          6233          6234          6235          6236          6237          6238          6239          6240
          6241          6242          6243          6244          6245          6246          6247          6248
          6249          6250          6251          6252          6253          6254          6255          6256
          6257          6258          6259          6260          6261          6262          6263          6264
          6265          6266          6267          6268          6269          6270          6271          6272
          6273          6274          6275          6276          6277          6278          6279          6280
          6281          6282          6283          6284          6285          6286          6287          6288
          6289          6290          6291          6292          6293          6294          6295          6296
          6297          6298          6299          6300          6301          6302          6303          6304
          6305          6306          6307          6308          6309          6310          6311          6312
          6313          6314          6315          6316          6317          6318          6319          6320
          6321          6322          6323          6324          6325          6326          6327          6328
          6329          6330          6331          6332          6333          6334          6335          6336
          6337          6338          6339          6340          6341          6342          6343          6344
          6345          6346          6347          6348          6349          6350          6351          6352
          6353          6354          6355          6356          6357          6358          6359          6360
          6361          6362          6363          6364          6365          6366          6367          6368
          6369          6370          6371          6372          6373          6374          6375          6376
          6377          6378          6379          6380          6381          6382          6383          6384
          6385          6386          6387          6388          6389          6390          6391          6392
          6393          6394          6395          6396          6397          6398          6399          6400
          6401          6402          6403          6404          6405          6406          6407          6408
          6409          6410          6411          6412          6413          6414          6415          6416
          6417          6418          6419          6420          6421          6422          6423          6424
          6425          6426          6427          6428          6429          6430          6431          6432
          6433          6434          6435          6436          6437          6438          6439          6440
          6441          6442          6443          6444          6445          6446          6447          6448
          6449          6450          6451          6452          6453          6454          6455          6456
          6457          6458          6459          6460          6461          6462          6463          6464
          6465          6466          6467          6468          6469          6470          6471          6472
          6473          6474          6475          6476          6477          6478          6479          6480
          6481          6482          6483          6484          6485          6486          6487          6488
          6489          6490          6491          6492          6493          6494          6495          6496
          6497          6498          6499          6500          6501          6502          6503          6504
          6505          6506          6507          6508          6509          6510          6511          6512
          6513          6514          6515          6516          6517          6518          6519          6520
          6521          6522          6523          6524          6525          6526          6527          6528
          6529          6530          6531          6532          6533          6534          6535          6536
          6537          6538          6539          6540          6541          6542          6543          6544
          6545          6546          6547          6548          6549          6550          6551          6552
          6553          6554          6555          6556          6557          6558          6559          6560
          6561          6562          6563          6564          6565          6566          6567          6568
          6569          6570          6571          6572          6573          6574          6575          6576
          6577          6578          6579          6580          6581          6582          6583          6584
          6585          6586          6587          6588          6589          6590          6591          6592
          6593          6594          6595          6596          6597          6598          6599          6600
          6601          6602          6603          6604          6605          6606          6607          6608
          6609          6610          6611          6612          6613          6614          6615          6616
          6617          6618          6619          6620          6621          6622          6623          6624
          6625          6626          6627          6628          6629          6630          6631          6632
          6633          6634          6635          6636          6637          6638          6639          6640
          6641          6642          6643          6644          6645          6646          6647          6648
          6649          6650          6651          6652          6653          6654          6655          6656
          6657          6658          6659          6660          6661          6662          6663          6664
          6665          6666          6667          6668          6669          6670          6671          6672
          6673          6674          6675          6676          6677          6678          6679          6680
          6681          6682          6683          6684          6685          6686          6687          6688
          6689          6690          6691          6692          6693          6694          6695          6696
          6697          6698          6699          6700          6701          6702          6703          6704
          6705          6706          6707          6708          6709          6710          6711          6712
          6713          6714          6715          6716          6717          6718          6719          6720
          6721          6722          6723          6724          6725          6726          6727          6728
          6729          6730          6731          6732          6733          6734          6735          6736
          6737          6738          6739          6740          6741          6742          6743          6744
          6745          6746          6747          6748          6749          6750          6751          6752
          6753          6754          6755          6756          6757          6758          6759          6760
          6761          6762          6763          6764          6765          6766          6767          6768
          6769          6770          6771          6772          6773          6774          6775          6776
          6777          6778          6779          6780          6781          6782          6783          6784
          6785          6786          6787          6788          6789          6790          6791          6792
          6793          6794          6795          6796          6797          6798          6799          6800
          6801          6802          6803          6804          6805          6806          6807          6808
          6809          6810          6811          6812          6813          6814          6815          6816
          6817          6818          6819          6820          6821          6822          6823          6824
          6825          6826          6827          6828          6829          6830          6831          6832
          6833          6834          6835          6836          6837          6838          6839          6840
          6841          6842          6843          6844          6845          6846          6847          6848
          6849          6850          6851          6852          6853          6854          6855          6856
          6857          6858          6859          6860          6861          6862          6863          6864
          6865          6866          6867          6868          6869          6870          6871          6872
          6873          6874          6875          6876          6877          6878          6879          6880
          6881          6882          6883          6884          6885          6886          6887          6888
          6889          6890          6891          6892          6893          6894          6895          6896
          6897          6898          6899          6900          6901          6902          6903          6904
          6905          6906          6907          6908          6909          6910          6911          6912
          6913          6914          6915          6916          6917          6918          6919          6920
          6921          6922          6923          6924          6925          6926          6927          6928
          6929          6930          6931          6932          6933          6934          6935          6936
          6937          6938          6939          6940          6941          6942          6943          6944
          6945          6946          6947          6948          6949          6950          6951          6952
          6953          6954          6955          6956          6957          6958          6959          6960
          6961          6962          6963          6964          6965          6966          6967          6968
          6969          6970          6971          6972          6973          6974          6975          6976
          6977          6978          6979          6980          6981          6982          6983          6984
          6985          6986          6987          6988          6989          6990          6991          6992
          6993          6994          6995          6996          6997          6998          6999          7000
          7001          7002          7003          7004          7005          7006          7007          7008
          7009          7010          7011          7012          7013          7014          7015          7016
          7017          7018          7019          7020          7021          7022          7023          7024
          7025          7026          7027          7028          7029          7030          7031          7032
          7033          7034          7035          7036          7037          7038          7039          7040
          7041          7042          7043          7044          7045          7046          7047          7048
          7049          7050          7051          7052          7053          7054          7055          7056
          7057          7058          7059          7060          7061          7062          7063          7064
          7065          7066          7067          7068          7069          7070          7071          7072
          7073          7074          7075          7076          7077          7078          7079          7080
          7081          7082          7083          7084          7085          7086          7087          7088
          7089          7090          7091          7092          7093          7094          7095          7096
          7097          7098          7099          7100          7101          7102          7103          7104
          7105          7106          7107          7108          7109          7110          7111          7112
          7113          7114          7115          7116          7117          7118          7119          7120
          7121          7122          7123          7124          7125          7126          7127          7128
          7129          7130          7131          7132          7133          7134          7135          7136
          7137          7138          7139          7140          7141          7142          7143          7144
          7145          7146          7147          7148          7149          7150          7151          7152
          7153          7154          7155          7156          7157          7158          7159          7160
          7161          7162          7163          7164          7165          7166          7167          7168
          7169          7170          7171          7172          7173          7174          7175          7176
          7177          7178          7179          7180          7181          7182          7183          7184
          7185          7186          7187          7188          7189          7190          7191          7192
          7193          7194          7195          7196          7197          7198          7199          7200
          7201          7202          7203          7204          7205          7206          7207          7208
          7209          7210          7211          7212          7213          7214          7215          7216
          7217          7218          7219          7220          7221          7222          7223          7224
          7225          7226          7227          7228          7229          7230          7231          7232
          7233          7234          7235          7236          7237          7238          7239          7240
          7241          7242          7243          7244          7245          7246          7247          7248
          7249          7250          7251          7252          7253          7254          7255          7256
          7257          7258          7259          7260          7261          7262          7263          7264
          7265          7266          7267          7268          7269          7270          7271          7272
          7273          7274          7275          7276          7277          7278          7279          7280
          7281          7282          7283          7284          7285          7286          7287          7288
          7289          7290          7291          7292          7293          7294          7295          7296
          7297          7298          7299          7300          7301          7302          7303          7304
          7305          7306          7307          7308          7309          7310          7311          7312
          7313          7314          7315          7316          7317          7318          7319          7320
          7321          7322          7323          7324          7325          7326          7327          7328
          7329          7330          7331          7332          7333          7334          7335          7336
          7337          7338          7339          7340          7341          7342          7343          7344
          7345          7346          7347          7348          7349          7350          7351          7352
          7353          7354          7355          7356          7357          7358          7359          7360
          7361          7362          7363          7364          7365          7366          7367          7368
          7369          7370          7371          7372          7373          7374          7375          7376
          7377          7378          7379          7380          7381          7382          7383          7384
          7385          7386          7387          7388          7389          7390          7391          7392
          7393          7394          7395          7396          7397          7398          7399          7400
          7401          7402          7403          7404          7405          7406          7407          7408
          7409          7410          7411          7412          7413          7414          7415          7416
          7417          7418          7419          7420          7421          7422          7423          7424
          7425          7426          7427          7428          7429          7430          7431          7432
          7433          7434          7435          7436          7437          7438          7439          7440
          7441          7442          7443          7444          7445          7446          7447          7448
          7449          7450          7451          7452          7453          7454          7455          7456
          7457          7458          7459          7460          7461          7462          7463          7464
          7465          7466          7467          7468          7469          7470          7471          7472
          7473          7474          7475          7476          7477          7478          7479          7480
          7481          7482          7483          7484          7485          7486          7487          7488
          7489          7490          7491          7492          7493          7494          7495          7496
          7497          7498          7499          7500          7501          7502          7503          7504
          7505          7506          7507          7508          7509          7510          7511          7512
          7513          7514          7515          7516          7517          7518          7519          7520
          7521          7522          7523          7524          7525          7526          7527          7528
          7529          7530          7531          7532          7533          7534          7535          7536
          7537          7538          7539          7540          7541          7542          7543          7544
          7545          7546          7547          7548          7549          7550          7551          7552
          7553          7554          7555          7556          7557          7558          7559          7560
          7561          7562          7563          7564          7565          7566          7567          7568
          7569          7570          7571          7572          7573          7574          7575          7576
          7577          7578          7579          7580          7581          7582          7583          7584
          7585          7586          7587          7588          7589          7590          7591          7592
          7593          7594          7595          7596          7597          7598          7599          7600
          7601          7602          7603          7604          7605          7606          7607          7608
          7609          7610          7611          7612          7613          7614          7615          7616
          7617          7618          7619          7620          7621          7622          7623          7624
          7625          7626          7627          7628          7629          7630          7631          7632
          7633          7634          7635          7636          7637          7638          7639          7640
          7641          7642          7643          7644          7645          7646          7647          7648
          7649          7650          7651          7652          7653          7654          7655          7656
          7657          7658          7659          7660          7661          7662          7663          7664
          7665          7666          7667          7668          7669          7670          7671          7672
          7673          7674          7675          7676          7677          7678          7679          7680
          7681          7682          7683          7684          7685          7686          7687          7688
          7689          7690          7691          7692          7693          7694          7695          7696
          7697          7698          7699          7700          7701          7702          7703          7704
          7705          7706          7707          7708          7709          7710          7711          7712
          7713          7714          7715          7716          7717          7718          7719          7720
          7721          7722          7723          7724          7725          7726          7727          7728
          7729          7730          7731          7732          7733          7734          7735          7736
          7737          7738          7739          7740          7741          7742          7743          7744
          7745          7746          7747          7748          7749          7750          7751          7752
          7753          7754          7755          7756          7757          7758          7759          7760
          7761          7762          7763          7764          7765          7766          7767          7768
          7769          7770          7771          7772          7773          7774          7775          7776
          7777          7778          7779          7780          7781          7782          7783          7784
          7785          7786          7787          7788          7789          7790          7791          7792
          7793          7794          7795          7796          7797          7798          7799          7800
          7801          7802          7803          7804          7805          7806          7807          7808
          7809          7810          7811          7812          7813          7814          7815          7816
          7817          7818          7819          7820          7821          7822          7823          7824
          7825          7826          7827          7828          7829          7830          7831          7832
          7833          7834          7835          7836          7837          7838          7839          7840
          7841          7842          7843          7844          7845          7846          7847          7848
          7849          7850          7851          7852          7853          7854          7855          7856
          7857          7858          7859          7860          7861          7862          7863          7864
          7865          7866          7867          7868          7869          7870          7871          7872
          7873          7874          7875          7876          7877          7878          7879          7880
          7881          7882          7883          7884          7885          7886          7887          7888
          7889          7890          7891          7892          7893          7894          7895          7896
          7897          7898          7899          7900          7901          7902          7903          7904
          7905          7906          7907          7908          7909          7910          7911          7912
          7913          7914          7915          7916          7917          7918          7919          7920
          7921          7922          7923          7924          7925          7926          7927          7928
          7929          7930          7931          7932          7933          7934          7935          7936
          7937          7938          7939          7940          7941          7942          7943          7944
          7945          7946          7947          7948          7949          7950          7951          7952
          7953          7954          7955          7956          7957          7958          7959          7960
          7961          7962          7963          7964          7965          7966          7967          7968
          7969          7970          7971          7972          7973          7974          7975          7976
          7977          7978          7979          7980          7981          7982          7983          7984
          7985          7986          7987          7988          7989          7990          7991          7992
          7993          7994          7995          7996          7997          7998          7999          8000
          8001          8002          8003          8004          8005          8006          8007          8008
          8009          8010          8011          8012          8013          8014          8015          8016
          8017          8018          8019          8020          8021          8022          8023          8024
          8025          8026          8027          8028          8029          8030          8031          8032
          8033          8034          8035          8036          8037          8038          8039          8040
          8041          8042          8043          8044          8045          8046          8047          8048
          8049          8050          8051          8052          8053          8054          8055          8056
          8057          8058          8059          8060          8061          8062          8063          8064
          8065          8066          8067          8068          8069          8070          8071          8072
          8073          8074          8075          8076          8077          8078          8079          8080
          8081          8082          8083          8084          8085          8086          8087          8088
          8089          8090          8091          8092          8093          8094          8095          8096
          8097          8098          8099          8100          8101          8102          8103          8104
          8105          8106          8107          8108          8109          8110          8111          8112
          8113          8114          8115          8116          8117          8118          8119          8120
          8121          8122          8123          8124          8125          8126          8127          8128
          8129          8130          8131          8132          8133          8134          8135          8136
          8137          8138          8139          8140          8141          8142          8143          8144
          8145          8146          8147          8148          8149          8150          8151          8152
          8153          8154          8155          8156          8157          8158          8159          8160
          8161          8162          8163          8164          8165          8166          8167          8168
          8169          8170          8171          8172          8173          8174          8175          8176
          8177          8178          8179          8180          8181          8182          8183          8184
          8185          8186          8187          8188          8189          8190          8191          8192
          8193          8194          8195          8196          8197          8198          8199          8200
          8201          8202          8203          8204          8205          8206          8207          8208
          8209          8210          8211          8212          8213          8214          8215          8216
          8217          8218          8219          8220          8221          8222          8223          8224
          8225          8226          8227          8228          8229          8230          8231          8232
          8233          8234          8235          8236          8237          8238          8239          8240
          8241          8242          8243          8244          8245          8246          8247          8248
          8249          8250          8251          8252          8253          8254          8255          8256
          8257          8258          8259          8260          8261          8262          8263          8264
          8265          8266          8267          8268          8269          8270          8271          8272
          8273          8274          8275          8276          8277          8278          8279          8280
          8281          8282          8283          8284          8285          8286          8287          8288
          8289          8290          8291          8292          8293          8294          8295          8296
          8297          8298          8299          8300          8301          8302          8303          8304
          8305          8306          8307          8308          8309          8310          8311          8312
          8313          8314          8315          8316          8317          8318          8319          8320
          8321          8322          8323          8324          8325          8326          8327          8328
          8329          8330          8331          8332          8333          8334          8335          8336
          8337          8338          8339          8340          8341          8342          8343          8344
          8345          8346          8347          8348          8349          8350          8351          8352
          8353          8354          8355          8356          8357          8358          8359          8360
          8361          8362          8363          8364          8365          8366          8367          8368
          8369          8370          8371          8372          8373          8374          8375          8376
          8377          8378          8379          8380          8381          8382          8383          8384
          8385          8386          8387          8388          8389          8390          8391          8392
          8393          8394          8395          8396          8397          8398          8399          8400
          8401          8402          8403          8404          8405          8406          8407          8408
          8409          8410          8411          8412          8413          8414          8415          8416
          8417          8418          8419          8420          8421          8422          8423          8424
          8425          8426          8427          8428          8429          8430          8431          8432
          8433          8434          8435          8436          8437          8438          8439          8440
          8441          8442          8443          8444          8445          8446          8447          8448
          8449          8450          8451          8452          8453          8454          8455          8456
          8457          8458          8459          8460          8461          8462          8463          8464
          8465          8466          8467          8468          8469          8470          8471          8472
          8473          8474          8475          8476          8477          8478          8479          8480
          8481          8482          8483          8484          8485          8486          8487          8488
          8489          8490          8491          8492          8493          8494          8495          8496
          8497          8498          8499          8500          8501          8502          8503          8504
          8505          8506          8507          8508          8509          8510          8511          8512
          8513          8514          8515          8516          8517          8518          8519          8520
          8521          8522          8523          8524          8525          8526          8527          8528
          8529          8530          8531          8532          8533          8534          8535          8536
          8537          8538          8539          8540          8541          8542          8543          8544
          8545          8546          8547          8548          8549          8550          8551          8552
          8553          8554          8555          8556          8557          8558          8559          8560
          8561          8562          8563          8564          8565          8566          8567          8568
          8569          8570          8571          8572          8573          8574          8575          8576
          8577          8578          8579          8580          8581          8582          8583          8584
          8585          8586          8587          8588          8589          8590          8591          8592
          8593          8594          8595          8596          8597          8598          8599          8600
          8601          8602          8603          8604          8605          8606          8607          8608
          8609          8610          8611          8612          8613          8614          8615          8616
          8617          8618          8619          8620          8621          8622          8623          8624
          8625          8626          8627          8628          8629          8630          8631          8632
          8633          8634          8635          8636          8637          8638          8639          8640
          8641          8642          8643          8644          8645          8646          8647          8648
          8649          8650          8651          8652          8653          8654          8655          8656
          8657          8658          8659          8660          8661          8662          8663          8664
          8665          8666          8667          8668          8669          8670          8671          8672
          8673          8674          8675          8676          8677          8678          8679          8680
          8681          8682          8683          8684          8685          8686          8687          8688
          8689          8690          8691          8692          8693          8694          8695          8696
          8697          8698          8699          8700          8701          8702          8703          8704
          8705          8706          8707          8708          8709          8710          8711          8712
          8713          8714          8715          8716          8717          8718          8719          8720
          8721          8722          8723          8724          8725          8726          8727          8728
          8729          8730          8731          8732          8733          8734          8735          8736
          8737          8738          8739          8740          8741          8742          8743          8744
          8745          8746          8747          8748          8749          8750          8751          8752
          8753          8754          8755          8756          8757          8758          8759          8760
          8761          8762          8763          8764          8765          8766          8767          8768
          8769          8770          8771          8772          8773          8774          8775          8776
          8777          8778          8779          8780          8781          8782          8783          8784
          8785          8786          8787          8788          8789          8790          8791          8792
          8793          8794          8795          8796          8797          8798          8799          8800
          8801          8802          8803          8804          8805          8806          8807          8808
          8809          8810          8811          8812          8813          8814          8815          8816
          8817          8818          8819          8820          8821          8822          8823          8824
          8825          8826          8827          8828          8829          8830          8831          8832
          8833          8834          8835          8836          8837          8838          8839          8840
          8841          8842          8843          8844          8845          8846          8847          8848
          8849          8850          8851          8852          8853          8854          8855          8856
          8857          8858          8859          8860          8861          8862          8863          8864
          8865          8866          8867          8868          8869          8870          8871          8872
          8873          8874          8875          8876          8877          8878          8879          8880
          8881          8882          8883          8884          8885          8886          8887          8888
          8889          8890          8891          8892          8893          8894          8895          8896
          8897          8898          8899          8900          8901          8902          8903          8904
          8905          8906          8907          8908          8909          8910          8911          8912
          8913          8914          8915          8916          8917          8918          8919          8920
          8921          8922          8923          8924          8925          8926          8927          8928
          8929          8930          8931          8932          8933          8934          8935          8936
          8937          8938          8939          8940          8941          8942          8943          8944
          8945          8946          8947          8948          8949          8950          8951          8952
          8953          8954          8955          8956          8957          8958          8959          8960
          8961          8962          8963          8964          8965          8966          8967          8968
          8969          8970          8971          8972          8973          8974          8975          8976
          8977          8978          8979          8980          8981          8982          8983          8984
          8985          8986          8987          8988          8989          8990          8991          8992
          8993          8994          8995          8996          8997          8998          8999          9000
          9001          9002          9003          9004          9005          9006          9007          9008
          9009          9010          9011          9012          9013          9014          9015          9016
          9017          9018          9019          9020          9021          9022          9023          9024
          9025          9026          9027          9028          9029          9030          9031          9032
          9033          9034          9035          9036          9037          9038          9039          9040
          9041          9042          9043          9044          9045          9046          9047          9048
          9049          9050          9051          9052          9053          9054          9055          9056
          9057          9058          9059          9060          9061          9062          9063          9064
          9065          9066          9067          9068          9069          9070          9071          9072
          9073          9074          9075          9076          9077          9078          9079          9080
          9081          9082          9083          9084          9085          9086          9087          9088
          9089          9090          9091          9092          9093          9094          9095          9096
          9097          9098          9099          9100          9101          9102          9103          9104
          9105          9106          9107          9108          9109          9110          9111          9112
          9113          9114          9115          9116          9117          9118          9119          9120
          9121          9122          9123          9124          9125          9126          9127          9128
          9129          9130          9131          9132          9133          9134          9135          9136
          9137          9138          9139          9140          9141          9142          9143          9144
          9145          9146          9147          9148          9149          9150          9151          9152
          9153          9154          9155          9156          9157          9158          9159          9160
          9161          9162          9163          9164          9165          9166          9167          9168
          9169          9170          9171          9172          9173          9174          9175          9176
          9177          9178          9179          9180          9181          9182          9183          9184
          9185          9186          9187          9188          9189          9190          9191          9192
          9193          9194          9195          9196          9197          9198          9199          9200
          9201          9202          9203          9204          9205          9206          9207          9208
          9209          9210          9211          9212          9213          9214          9215          9216
          9217          9218          9219          9220          9221          9222          9223          9224
          9225          9226          9227          9228          9229          9230          9231          9232
          9233          9234          9235          9236          9237          9238          9239          9240
          9241          9242          9243          9244          9245          9246          9247          9248
          9249          9250          9251          9252          9253          9254          9255          9256
          9257          9258          9259          9260          9261          9262          9263          9264
          9265          9266          9267          9268          9269          9270          9271          9272
          9273          9274          9275          9276          9277          9278          9279          9280
          9281          9282          9283          9284          9285          9286          9287          9288
          9289          9290          9291          9292          9293          9294          9295          9296
          9297          9298          9299          9300          9301          9302          9303          9304
          9305          9306          9307          9308          9309          9310          9311          9312
          9313          9314          9315          9316          9317          9318          9319          9320
          9321          9322          9323          9324          9325          9326          9327          9328
          9329          9330          9331          9332          9333          9334          9335          9336
          9337          9338          9339          9340          9341          9342          9343          9344
          9345          9346          9347          9348          9349          9350          9351          9352
          9353          9354          9355          9356          9357          9358          9359          9360
          9361          9362          9363          9364          9365          9366          9367          9368
          9369          9370          9371          9372          9373          9374          9375          9376
          9377          9378          9379          9380          9381          9382          9383          9384
          9385          9386          9387          9388          9389          9390          9391          9392
          9393          9394          9395          9396          9397          9398          9399          9400
          9401          9402          9403          9404          9405          9406          9407          9408
          9409          9410          9411          9412          9413          9414          9415          9416
          9417          9418          9419          9420          9421          9422          9423          9424
          9425          9426          9427          9428          9429          9430          9431          9432
          9433          9434          9435          9436          9437          9438          9439          9440
          9441          9442          9443          9444          9445          9446          9447          9448
          9449          9450          9451          9452          9453          9454          9455          9456
          9457          9458          9459          9460          9461          9462          9463          9464
          9465          9466          9467          9468          9469          9470          9471          9472
          9473          9474          9475          9476          9477          9478          9479          9480
          9481          9482          9483          9484          9485          9486          9487          9488
          9489          9490          9491          9492          9493          9494          9495          9496
          9497          9498          9499          9500          9501          9502          9503          9504
          9505          9506          9507          9508          9509          9510          9511          9512
          9513          9514          9515          9516          9517          9518          9519          9520
          9521          9522          9523          9524          9525          9526          9527          9528
          9529          9530          9531          9532          9533          9534          9535          9536
          9537          9538          9539          9540          9541          9542          9543          9544
          9545          9546          9547          9548          9549          9550          9551          9552
          9553          9554          9555          9556          9557          9558          9559          9560
          9561          9562          9563          9564          9565          9566          9567          9568
          9569          9570          9571          9572          9573          9574          9575          9576
          9577          9578          9579          9580          9581          9582          9583          9584
          9585          9586          9587          9588          9589          9590          9591          9592
          9593          9594          9595          9596          9597          9598          9599          9600
          9601          9602          9603          9604          9605          9606          9607          9608
          9609          9610          9611          9612          9613          9614          9615          9616
          9617          9618          9619          9620          9621          9622          9623          9624
          9625          9626          9627          9628          9629          9630          9631          9632
          9633          9634          9635          9636          9637          9638          9639          9640
          9641          9642          9643          9644          9645          9646          9647          9648
          9649          9650          9651          9652          9653          9654          9655          9656
          9657          9658          9659          9660          9661          9662          9663          9664
          9665          9666          9667          9668          9669          9670          9671          9672
          9673          9674          9675          9676          9677          9678          9679          9680
          9681          9682          9683          9684          9685          9686          9687          9688
          9689          9690          9691          9692          9693          9694          9695          9696
          9697          9698          9699          9700          9701          9702          9703          9704
          9705          9706          9707          9708          9709          9710          9711          9712
          9713          9714          9715          9716          9717          9718          9719          9720
          9721          9722          9723          9724          9725          9726          9727          9728
          9729          9730          9731          9732          9733          9734          9735          9736
          9737          9738          9739          9740          9741          9742          9743          9744
          9745          9746          9747          9748          9749          9750          9751          9752
          9753          9754          9755          9756          9757          9758          9759          9760
          9761          9762          9763          9764          9765          9766          9767          9768
          9769          9770          9771          9772          9773          9774          9775          9776
          9777          9778          9779          9780          9781          9782          9783          9784
          9785          9786          9787          9788          9789          9790          9791          9792
          9793          9794          9795          9796          9797          9798          9799          9800
          9801          9802          9803          9804          9805          9806          9807          9808
          9809          9810          9811          9812          9813          9814          9815          9816
          9817          9818          9819          9820          9821          9822          9823          9824
          9825          9826          9827          9828          9829          9830          9831          9832
          9833          9834          9835          9836          9837          9838          9839          9840
          9841          9842          9843          9844          9845          9846          9847          9848
          9849          9850          9851          9852          9853          9854          9855          9856
          9857          9858          9859          9860          9861          9862          9863          9864
          9865          9866          9867          9868          9869          9870          9871          9872
          9873          9874          9875          9876          9877          9878          9879          9880
          9881          9882          9883          9884          9885          9886          9887          9888
          9889          9890          9891          9892          9893          9894          9895          9896
          9897          9898          9899          9900          9901          9902          9903          9904
          9905          9906          9907          9908          9909          9910          9911          9912
          9913          9914          9915          9916          9917          9918          9919          9920
          9921          9922          9923          9924          9925          9926          9927          9928
          9929          9930          9931          9932          9933          9934          9935          9936
          9937          9938          9939          9940          9941          9942          9943          9944
          9945          9946          9947          9948          9949          9950          9951          9952
          9953          9954          9955          9956          9957          9958          9959          9960
          9961          9962          9963          9964          9965          9966          9967          9968
          9969          9970          9971          9972          9973          9974          9975          9976
          9977          9978          9979          9980          9981          9982          9983          9984
          9985          9986          9987          9988          9989          9990          9991          9992
          9993          9994          9995          9996          9997          9998          9999         10000
         10001         10002         10003         10004         10005         10006         10007         10008
         10009         10010         10011         10012         10013         10014         10015         10016
         10017         10018         10019         10020         10021         10022         10023         10024
         10025         10026         10027         10028         10029         10030         10031         10032
         10033         10034         10035         10036         10037         10038         10039         10040
         10041         10042         10043         10044         10045         10046         10047         10048
         10049         10050         10051         10052         10053         10054         10055         10056
         10057         10058         10059         10060         10061         10062         10063         10064
         10065         10066         10067         10068         10069         10070         10071         10072
         10073         10074         10075         10076         10077         10078         10079         10080
         10081         10082         10083         10084         10085         10086         10087         10088
         10089         10090         10091         10092         10093         10094         10095         10096
         10097         10098         10099         10100         10101         10102         10103         10104
         10105         10106         10107         10108         10109         10110         10111         10112
         10113         10114         10115         10116         10117         10118         10119         10120
         10121         10122         10123         10124         10125         10126         10127         10128
         10129         10130         10131         10132         10133         10134         10135         10136
         10137         10138         10139         10140         10141         10142         10143         10144
         10145         10146         10147         10148         10149         10150         10151         10152
         10153         10154         10155         10156         10157         10158         10159         10160
         10161         10162         10163         10164         10165         10166         10167         10168
         10169         10170         10171         10172         10173         10174         10175         10176
         10177         10178         10179         10180         10181         10182         10183         10184
         10185         10186         10187         10188         10189         10190         10191         10192
         10193         10194         10195         10196         10197         10198         10199         10200
         10201         10202         10203         10204         10205         10206         10207         10208
         10209         10210         10211         10212         10213         10214         10215         10216
         10217         10218         10219         10220         10221         10222         10223         10224
         10225         10226         10227         10228         10229         10230         10231         10232
         10233         10234         10235         10236         10237         10238         10239         10240
         10241         10242         10243         10244         10245         10246         10247         10248
         10249         10250         10251         10252         10253         10254         10255         10256
         10257         10258         10259         10260         10261         10262         10263         10264
         10265         10266         10267         10268         10269         10270         10271         10272
         10273         10274         10275         10276         10277         10278         10279         10280
         10281         10282         10283         10284         10285         10286         10287         10288
         10289         10290         10291         10292         10293         10294         10295         10296
         10297         10298         10299         10300         10301         10302         10303         10304
         10305         10306         10307         10308         10309         10310         10311         10312
         10313         10314         10315         10316         10317         10318         10319         10320
         10321         10322         10323         10324         10325         10326         10327         10328
         10329         10330         10331         10332         10333         10334         10335         10336
         10337         10338         10339         10340         10341         10342         10343         10344
         10345         10346         10347         10348         10349         10350         10351         10352
         10353         10354         10355         10356         10357         10358         10359         10360
         10361         10362         10363         10364         10365         10366         10367         10368
         10369         10370         10371         10372         10373         10374         10375         10376
         10377         10378         10379         10380         10381         10382         10383         10384
         10385         10386         10387         10388         10389         10390         10391         10392
         10393         10394         10395         10396         10397         10398         10399         10400
         10401         10402         10403         10404         10405         10406         10407         10408
         10409         10410         10411         10412         10413         10414         10415         10416
         10417         10418         10419         10420         10421         10422         10423         10424
         10425         10426         10427         10428         10429         10430         10431         10432
         10433         10434         10435         10436         10437         10438         10439         10440
         10441         10442         10443         10444         10445         10446         10447         10448
         10449         10450         10451         10452         10453         10454         10455         10456
         10457         10458         10459         10460         10461         10462         10463         10464
         10465         10466         10467         10468         10469         10470         10471         10472
         10473         10474         10475         10476         10477         10478         10479         10480
         10481         10482         10483         10484         10485         10486         10487         10488
         10489         10490         10491         10492         10493         10494         10495         10496
         10497         10498         10499         10500         10501         10502         10503         10504
         10505         10506         10507         10508         10509         10510         10511         10512
         10513         10514         10515         10516         10517         10518         10519         10520
         10521         10522         10523         10524         10525         10526         10527         10528
         10529         10530         10531         10532         10533         10534         10535         10536
         10537         10538         10539         10540         10541         10542         10543         10544
         10545         10546         10547         10548         10549         10550         10551         10552
         10553         10554         10555         10556         10557         10558         10559         10560
         10561         10562         10563         10564         10565         10566         10567         10568
         10569         10570         10571         10572         10573         10574         10575         10576
         10577         10578         10579         10580         10581         10582         10583         10584
         10585         10586         10587         10588         10589         10590         10591         10592
         10593         10594         10595         10596         10597         10598         10599         10600
         10601         10602         10603         10604         10605         10606         10607         10608
         10609         10610         10611         10612         10613         10614         10615         10616
         10617         10618         10619         10620         10621         10622         10623         10624
         10625         10626         10627         10628         10629         10630         10631         10632
         10633         10634         10635         10636         10637         10638         10639         10640
         10641         10642         10643         10644         10645         10646         10647         10648
         10649         10650         10651         10652         10653         10654         10655         10656
         10657         10658         10659         10660         10661         10662         10663         10664
         10665         10666         10667         10668         10669         10670         10671         10672
         10673         10674         10675         10676         10677         10678         10679         10680
         10681         10682         10683         10684         10685         10686         10687         10688
         10689         10690         10691         10692         10693         10694         10695         10696
         10697         10698         10699         10700         10701         10702         10703         10704
         10705         10706         10707         10708         10709         10710         10711         10712
         10713         10714         10715         10716         10717         10718         10719         10720
         10721         10722         10723         10724         10725         10726         10727         10728
         10729         10730         10731         10732         10733         10734         10735         10736
         10737         10738         10739         10740         10741         10742         10743         10744
         10745         10746         10747         10748         10749         10750         10751         10752
         10753         10754         10755         10756         10757         10758         10759         10760
         10761         10762         10763         10764         10765         10766         10767         10768
         10769         10770         10771         10772         10773         10774         10775         10776
         10777         10778         10779         10780         10781         10782         10783         10784
         10785         10786         10787         10788         10789         10790         10791         10792
         10793         10794         10795         10796         10797         10798         10799         10800
         10801         10802         10803         10804         10805         10806         10807         10808
         10809         10810         10811         10812         10813         10814         10815         10816
         10817         10818         10819         10820         10821         10822         10823         10824
         10825         10826         10827         10828         10829         10830         10831         10832
         10833         10834         10835         10836         10837         10838         10839         10840
         10841         10842         10843         10844         10845         10846         10847         10848
         10849         10850         10851         10852         10853         10854         10855         10856
         10857         10858         10859         10860         10861         10862         10863         10864
         10865         10866         10867         10868         10869         10870         10871         10872
         10873         10874         10875         10876         10877         10878         10879         10880
         10881         10882         10883         10884         10885         10886         10887         10888
         10889         10890         10891         10892         10893         10894         10895         10896
         10897         10898         10899         10900         10901         10902         10903         10904
         10905         10906         10907         10908         10909         10910         10911         10912
         10913         10914         10915         10916         10917         10918         10919         10920
         10921         10922         10923         10924         10925         10926         10927         10928
         10929         10930         10931         10932         10933         10934         10935         10936
         10937         10938         10939         10940         10941         10942         10943         10944
         10945         10946         10947         10948         10949         10950         10951         10952
         10953         10954         10955         10956         10957         10958         10959         10960
         10961         10962         10963         10964         10965         10966         10967         10968
         10969         10970         10971         10972         10973         10974         10975         10976
         10977         10978         10979         10980         10981         10982         10983         10984
         10985         10986         10987         10988         10989         10990         10991         10992
         10993         10994         10995         10996         10997         10998         10999         11000
         11001         11002         11003         11004         11005         11006         11007         11008
         11009         11010         11011         11012         11013         11014         11015         11016
         11017         11018         11019         11020         11021         11022         11023         11024
         11025         11026         11027         11028         11029         11030         11031         11032
         11033         11034         11035         11036         11037         11038         11039         11040
         11041         11042         11043         11044         11045         11046         11047         11048
         11049         11050         11051         11052         11053         11054         11055         11056
         11057         11058         11059         11060         11061         11062         11063         11064
         11065         11066         11067         11068         11069         11070         11071         11072
         11073         11074         11075         11076         11077         11078         11079         11080
         11081         11082         11083         11084         11085         11086         11087         11088
         11089         11090         11091         11092         11093         11094         11095         11096
         11097         11098         11099         11100         11101         11102         11103         11104
         11105         11106         11107         11108         11109         11110         11111         11112
         11113         11114         11115         11116         11117         11118         11119         11120
         11121         11122         11123         11124         11125         11126         11127         11128
         11129         11130         11131         11132         11133         11134         11135         11136
         11137         11138         11139         11140         11141         11142         11143         11144
         11145         11146         11147         11148         11149         11150         11151         11152
         11153         11154         11155         11156         11157         11158         11159         11160
         11161         11162         11163         11164         11165         11166         11167         11168
         11169         11170         11171         11172         11173         11174         11175         11176
         11177         11178         11179         11180         11181         11182         11183         11184
         11185         11186         11187         11188         11189         11190         11191         11192
         11193         11194         11195         11196         11197         11198         11199         11200
         11201         11202         11203         11204         11205         11206         11207         11208
         11209         11210         11211         11212         11213         11214         11215         11216
         11217         11218         11219         11220         11221         11222         11223         11224
         11225         11226         11227         11228         11229         11230         11231         11232
         11233         11234         11235         11236         11237         11238         11239         11240
         11241         11242         11243         11244         11245         11246         11247         11248
         11249         11250         11251         11252         11253         11254         11255         11256
         11257         11258         11259         11260         11261         11262         11263         11264
         11265         11266         11267         11268         11269         11270         11271         11272
         11273         11274         11275         11276         11277         11278         11279         11280
         11281         11282         11283         11284         11285         11286         11287         11288
         11289         11290         11291         11292         11293         11294         11295         11296
         11297         11298         11299         11300         11301         11302         11303         11304
         11305         11306         11307         11308         11309         11310         11311         11312
         11313         11314         11315         11316         11317         11318         11319         11320
         11321         11322         11323         11324         11325         11326         11327         11328
         11329         11330         11331         11332         11333         11334         11335         11336
         11337         11338         11339         11340         11341         11342         11343         11344
         11345         11346         11347         11348         11349         11350         11351         11352
         11353         11354         11355         11356         11357         11358         11359         11360
         11361         11362         11363         11364         11365         11366         11367         11368
         11369         11370         11371         11372         11373         11374         11375         11376
         11377         11378         11379         11380         11381         11382         11383         11384
         11385         11386         11387         11388         11389         11390         11391         11392
         11393         11394         11395         11396         11397         11398         11399         11400
         11401         11402         11403         11404         11405         11406         11407         11408
         11409         11410         11411         11412         11413         11414         11415         11416
         11417         11418         11419         11420         11421         11422         11423         11424
         11425         11426         11427         11428         11429         11430         11431         11432
         11433         11434         11435         11436         11437         11438         11439         11440
         11441         11442         11443         11444         11445         11446         11447         11448
         11449         11450         11451         11452         11453         11454         11455         11456
         11457         11458         11459         11460         11461         11462         11463         11464
         11465         11466         11467         11468         11469         11470         11471         11472
         11473         11474         11475         11476         11477         11478         11479         11480
         11481         11482         11483         11484         11485         11486         11487         11488
         11489         11490         11491         11492         11493         11494         11495         11496
         11497         11498         11499         11500         11501         11502         11503         11504
         11505         11506         11507         11508         11509         11510         11511         11512
         11513         11514         11515         11516         11517         11518         11519         11520
         11521         11522         11523         11524         11525         11526         11527         11528
         11529         11530         11531         11532         11533         11534         11535         11536
         11537         11538         11539         11540         11541         11542         11543         11544
         11545         11546         11547         11548         11549         11550         11551         11552
         11553         11554         11555         11556         11557         11558         11559         11560
         11561         11562         11563         11564         11565         11566         11567         11568
         11569         11570         11571         11572         11573         11574         11575         11576
         11577         11578         11579         11580         11581         11582         11583         11584
         11585         11586         11587         11588         11589         11590         11591         11592
         11593         11594         11595         11596         11597         11598         11599         11600
         11601         11602         11603         11604         11605         11606         11607         11608
         11609         11610         11611         11612         11613         11614         11615         11616
         11617         11618         11619         11620         11621         11622         11623         11624
         11625         11626         11627         11628         11629         11630         11631         11632
         11633         11634         11635         11636         11637         11638         11639         11640
         11641         11642         11643         11644         11645         11646         11647         11648
         11649         11650         11651         11652         11653         11654         11655         11656
         11657         11658         11659         11660         11661         11662         11663         11664
         11665         11666         11667         11668         11669         11670         11671         11672
         11673         11674         11675         11676         11677         11678         11679         11680
         11681         11682         11683         11684         11685         11686         11687         11688
         11689         11690         11691         11692         11693         11694         11695         11696
         11697         11698         11699         11700         11701         11702         11703         11704
         11705         11706         11707         11708         11709         11710         11711         11712
         11713         11714         11715         11716         11717         11718         11719         11720
         11721         11722         11723         11724         11725         11726         11727         11728
         11729         11730         11731         11732         11733         11734         11735         11736
         11737         11738         11739         11740         11741         11742         11743         11744
         11745         11746         11747         11748         11749         11750         11751         11752
         11753         11754         11755         11756         11757         11758         11759         11760
         11761         11762         11763         11764         11765         11766         11767         11768
         11769         11770         11771         11772         11773         11774         11775         11776
         11777         11778         11779         11780         11781         11782         11783         11784
         11785         11786         11787         11788         11789         11790         11791         11792
         11793         11794         11795         11796         11797         11798         11799         11800
         11801         11802         11803         11804         11805         11806         11807         11808
         11809         11810         11811         11812         11813         11814         11815         11816
         11817         11818         11819         11820         11821         11822         11823         11824
         11825         11826         11827         11828         11829         11830         11831         11832
         11833         11834         11835         11836         11837         11838         11839         11840
         11841         11842         11843         11844         11845         11846         11847         11848
         11849         11850         11851         11852         11853         11854         11855         11856
         11857         11858         11859         11860         11861         11862         11863         11864
         11865         11866         11867         11868         11869         11870         11871         11872
         11873         11874         11875         11876         11877         11878         11879         11880
         11881         11882         11883         11884         11885         11886         11887         11888
         11889         11890         11891         11892         11893         11894         11895         11896
         11897         11898         11899         11900         11901         11902         11903         11904
         11905         11906         11907         11908         11909         11910         11911         11912
         11913         11914         11915         11916         11917         11918         11919         11920
         11921         11922         11923         11924         11925         11926         11927         11928
         11929         11930         11931         11932         11933         11934         11935         11936
         11937         11938         11939         11940         11941         11942         11943         11944
         11945         11946         11947         11948         11949         11950         11951         11952
         11953         11954         11955         11956         11957         11958         11959         11960
         11961         11962         11963         11964         11965         11966         11967         11968
         11969         11970         11971         11972         11973         11974         11975         11976
         11977         11978         11979         11980         11981         11982         11983         11984
         11985         11986         11987         11988         11989         11990         11991         11992
         11993         11994         11995         11996         11997         11998         11999         12000
         12001         12002         12003         12004         12005         12006         12007         12008
         12009         12010         12011         12012         12013         12014         12015         12016
         12017         12018         12019         12020         12021         12022         12023         12024
         12025         12026         12027         12028         12029         12030         12031         12032
         12033         12034         12035         12036         12037         12038         12039         12040
         12041         12042         12043         12044         12045         12046         12047         12048
         12049         12050         12051         12052         12053         12054         12055         12056
         12057         12058         12059         12060         12061         12062         12063         12064
         12065         12066         12067         12068         12069         12070         12071         12072
         12073         12074         12075         12076         12077         12078         12079         12080
         12081         12082         12083         12084         12085         12086         12087         12088
         12089         12090         12091         12092         12093         12094         12095         12096
         12097         12098         12099         12100         12101         12102         12103         12104
         12105         12106         12107         12108         12109         12110         12111         12112
         12113         12114         12115         12116         12117         12118         12119         12120
         12121         12122         12123         12124         12125         12126         12127         12128
         12129         12130         12131         12132         12133         12134         12135         12136
         12137         12138         12139         12140         12141         12142         12143         12144
         12145         12146         12147         12148         12149         12150         12151         12152
         12153         12154         12155         12156         12157         12158         12159         12160
         12161         12162         12163         12164         12165         12166         12167         12168
         12169         12170         12171         12172         12173         12174         12175         12176
         12177         12178         12179         12180         12181         12182         12183         12184
         12185         12186         12187         12188         12189         12190         12191         12192
         12193         12194         12195         12196         12197         12198         12199         12200
         12201         12202         12203         12204         12205         12206         12207         12208
         12209         12210         12211         12212         12213         12214         12215         12216
         12217         12218         12219         12220         12221         12222         12223         12224
         12225         12226         12227         12228         12229         12230         12231         12232
         12233         12234         12235         12236         12237         12238         12239         12240
         12241         12242         12243         12244         12245         12246         12247         12248
         12249         12250         12251         12252         12253         12254         12255         12256
         12257         12258         12259         12260         12261         12262         12263         12264
         12265         12266         12267         12268         12269         12270         12271         12272
         12273         12274         12275         12276         12277         12278         12279         12280
         12281         12282         12283         12284         12285         12286         12287         12288
         12289         12290         12291         12292         12293         12294         12295         12296
         12297         12298         12299         12300         12301         12302         12303         12304
         12305         12306         12307         12308         12309         12310         12311         12312
         12313         12314         12315         12316         12317         12318         12319         12320
         12321         12322         12323         12324         12325         12326         12327         12328
         12329         12330         12331         12332         12333         12334         12335         12336
         12337         12338         12339         12340         12341         12342         12343         12344
         12345         12346         12347         12348         12349         12350         12351         12352
         12353         12354         12355         12356         12357         12358         12359         12360
         12361         12362         12363         12364         12365         12366         12367         12368
         12369         12370         12371         12372         12373         12374         12375         12376
         12377         12378         12379         12380         12381         12382         12383         12384
         12385         12386         12387         12388         12389         12390         12391         12392
         12393         12394         12395         12396         12397         12398         12399         12400
         12401         12402         12403         12404         12405         12406         12407         12408
         12409         12410         12411         12412         12413         12414         12415         12416
         12417         12418         12419         12420         12421         12422         12423         12424
         12425         12426         12427         12428         12429         12430         12431         12432
         12433         12434         12435         12436         12437         12438         12439         12440
         12441         12442         12443         12444         12445         12446         12447         12448
         12449         12450         12451         12452         12453         12454         12455         12456
         12457         12458         12459         12460         12461         12462         12463         12464
         12465         12466         12467         12468         12469         12470         12471         12472
         12473         12474         12475         12476         12477         12478         12479         12480
         12481         12482         12483         12484         12485         12486         12487         12488
         12489         12490         12491         12492         12493         12494         12495         12496
         12497         12498         12499         12500         12501         12502         12503         12504
         12505         12506         12507         12508         12509         12510         12511         12512
         12513         12514         12515         12516         12517         12518         12519         12520
         12521         12522         12523         12524         12525         12526         12527         12528
         12529         12530         12531         12532         12533         12534         12535         12536
         12537         12538         12539         12540         12541         12542         12543         12544
         12545         12546         12547         12548         12549         12550         12551         12552
         12553         12554         12555         12556         12557         12558         12559         12560
         12561         12562         12563         12564         12565         12566         12567         12568
         12569         12570         12571         12572         12573         12574         12575         12576
         12577         12578         12579         12580         12581         12582         12583         12584
         12585         12586         12587         12588         12589         12590         12591         12592
         12593         12594         12595         12596         12597         12598         12599         12600
         12601         12602         12603         12604         12605         12606         12607         12608
         12609         12610         12611         12612         12613         12614         12615         12616
         12617         12618         12619         12620         12621         12622         12623         12624
         12625         12626         12627         12628         12629         12630         12631         12632
         12633         12634         12635         12636         12637         12638         12639         12640
         12641         12642         12643         12644         12645         12646         12647         12648
         12649         12650         12651         12652         12653         12654         12655         12656
         12657         12658         12659         12660         12661         12662         12663         12664
         12665         12666         12667         12668         12669         12670         12671         12672
         12673         12674         12675         12676         12677         12678         12679         12680
         12681         12682         12683         12684         12685         12686         12687         12688
         12689         12690         12691         12692         12693         12694         12695         12696
         12697         12698         12699         12700         12701         12702         12703         12704
         12705         12706         12707         12708         12709         12710         12711         12712
         12713         12714         12715         12716         12717         12718         12719         12720
         12721         12722         12723         12724         12725         12726         12727         12728
         12729         12730         12731         12732         12733         12734         12735         12736
         12737         12738         12739         12740         12741         12742         12743         12744
         12745         12746         12747         12748         12749         12750         12751         12752
         12753         12754         12755         12756         12757         12758         12759         12760
         12761         12762         12763         12764         12765         12766         12767         12768
         12769         12770         12771         12772         12773         12774         12775         12776
         12777         12778         12779         12780         12781         12782         12783         12784
         12785         12786         12787         12788         12789         12790         12791         12792
         12793         12794         12795         12796         12797         12798         12799         12800
         12801         12802         12803         12804         12805         12806         12807         12808
         12809         12810         12811         12812         12813         12814         12815         12816
         12817         12818         12819         12820         12821         12822         12823         12824
         12825         12826         12827         12828         12829         12830         12831         12832
         12833         12834         12835         12836         12837         12838         12839         12840
         12841         12842         12843         12844         12845         12846         12847         12848
         12849         12850         12851         12852         12853         12854         12855         12856
         12857         12858         12859         12860         12861         12862         12863         12864
         12865         12866         12867         12868         12869         12870         12871         12872
         12873         12874         12875         12876         12877         12878         12879         12880
         12881         12882         12883         12884         12885         12886         12887         12888
         12889         12890         12891         12892         12893         12894         12895         12896
         12897         12898         12899         12900         12901         12902         12903         12904
         12905         12906         12907         12908         12909         12910         12911         12912
         12913         12914         12915         12916         12917         12918         12919         12920
         12921         12922         12923         12924         12925         12926         12927         12928
         12929         12930         12931         12932         12933         12934         12935         12936
         12937         12938         12939         12940         12941         12942         12943         12944
         12945         12946         12947         12948         12949         12950         12951         12952
         12953         12954         12955         12956         12957         12958         12959         12960
         12961         12962         12963         12964         12965         12966         12967         12968
         12969         12970         12971         12972         12973         12974         12975         12976
         12977         12978         12979         12980         12981         12982         12983         12984
         12985         12986         12987         12988         12989         12990         12991         12992
         12993         12994         12995         12996         12997         12998         12999         13000
         13001         13002         13003         13004         13005         13006         13007         13008
         13009         13010         13011         13012         13013         13014         13015         13016
         13017         13018         13019         13020         13021         13022         13023         13024
         13025         13026         13027         13028         13029         13030         13031         13032
         13033         13034         13035         13036         13037         13038         13039         13040
         13041         13042         13043         13044         13045         13046         13047         13048
         13049         13050         13051         13052         13053         13054         13055         13056
         13057         13058         13059         13060         13061         13062         13063         13064
         13065         13066         13067         13068         13069         13070         13071         13072
         13073         13074         13075         13076         13077         13078         13079         13080
         13081         13082         13083         13084         13085         13086         13087         13088
         13089         13090         13091         13092         13093         13094         13095         13096
         13097         13098         13099         13100         13101         13102         13103         13104
         13105         13106         13107         13108         13109         13110         13111         13112
         13113         13114         13115         13116         13117         13118         13119         13120
         13121         13122         13123         13124         13125         13126         13127         13128
         13129         13130         13131         13132         13133         13134         13135         13136
         13137         13138         13139         13140         13141         13142         13143         13144
         13145         13146         13147         13148         13149         13150         13151         13152
         13153         13154         13155         13156         13157         13158         13159         13160
         13161         13162         13163         13164         13165         13166         13167         13168
         13169         13170         13171         13172         13173         13174         13175         13176
         13177         13178         13179         13180         13181         13182         13183         13184
         13185         13186         13187         13188         13189         13190         13191         13192
         13193         13194         13195         13196         13197         13198         13199         13200
         13201         13202         13203         13204         13205         13206         13207         13208
         13209         13210         13211         13212         13213         13214         13215         13216
         13217         13218         13219         13220         13221         13222         13223         13224
         13225         13226         13227         13228         13229         13230         13231         13232
         13233         13234         13235         13236         13237         13238         13239         13240
         13241         13242         13243         13244         13245         13246         13247         13248
         13249         13250         13251         13252         13253         13254         13255         13256
         13257         13258         13259         13260         13261         13262         13263         13264
         13265         13266         13267         13268         13269         13270         13271         13272
         13273         13274         13275         13276         13277         13278         13279         13280
         13281         13282         13283         13284         13285         13286         13287         13288
         13289         13290         13291         13292         13293         13294         13295         13296
         13297         13298         13299         13300         13301         13302         13303         13304
         13305         13306         13307         13308         13309         13310         13311         13312
         13313         13314         13315         13316         13317         13318         13319         13320
         13321         13322         13323         13324         13325         13326         13327         13328
         13329         13330         13331         13332         13333         13334         13335         13336
         13337         13338         13339         13340         13341         13342         13343         13344
         13345         13346         13347         13348         13349         13350         13351         13352
         13353         13354         13355         13356         13357         13358         13359         13360
         13361         13362         13363         13364         13365         13366         13367         13368
         13369         13370         13371         13372         13373         13374         13375         13376
         13377         13378         13379         13380         13381         13382         13383         13384
         13385         13386         13387         13388         13389         13390         13391         13392
         13393         13394         13395         13396         13397         13398         13399         13400
         13401         13402         13403         13404         13405         13406         13407         13408
         13409         13410         13411         13412         13413         13414         13415         13416
         13417         13418         13419         13420         13421         13422         13423         13424
         13425         13426         13427         13428         13429         13430         13431         13432
         13433         13434         13435         13436         13437         13438         13439         13440
         13441         13442         13443         13444         13445         13446         13447         13448
         13449         13450         13451         13452         13453         13454         13455         13456
         13457         13458         13459         13460         13461         13462         13463         13464
         13465         13466         13467         13468         13469         13470         13471         13472
         13473         13474         13475         13476         13477         13478         13479         13480
         13481         13482         13483         13484         13485         13486         13487         13488
         13489         13490         13491         13492         13493         13494         13495         13496
         13497         13498         13499         13500         13501         13502         13503         13504
         13505         13506         13507         13508         13509         13510         13511         13512
         13513         13514         13515         13516         13517         13518         13519         13520
         13521         13522         13523         13524         13525         13526         13527         13528
         13529         13530         13531         13532         13533         13534         13535         13536
         13537         13538         13539         13540         13541         13542         13543         13544
         13545         13546         13547         13548         13549         13550         13551         13552
         13553         13554         13555         13556         13557         13558         13559         13560
         13561         13562         13563         13564         13565         13566         13567         13568
         13569         13570         13571         13572         13573         13574         13575         13576
         13577         13578         13579         13580         13581         13582         13583         13584
         13585         13586         13587         13588         13589         13590         13591         13592
         13593         13594         13595         13596         13597         13598         13599         13600
         13601         13602         13603         13604         13605         13606         13607         13608
         13609         13610         13611         13612         13613         13614         13615         13616
         13617         13618         13619         13620         13621         13622         13623         13624
         13625         13626         13627         13628         13629         13630         13631         13632
         13633         13634         13635         13636         13637         13638         13639         13640
         13641         13642         13643         13644         13645         13646         13647         13648
         13649         13650         13651         13652         13653         13654         13655         13656
         13657         13658         13659         13660         13661         13662         13663         13664
         13665         13666         13667         13668         13669         13670         13671         13672
         13673         13674         13675         13676         13677         13678         13679         13680
         13681         13682         13683         13684         13685         13686         13687         13688
         13689         13690         13691         13692         13693         13694         13695         13696
         13697         13698         13699         13700         13701         13702         13703         13704
         13705         13706         13707         13708         13709         13710         13711         13712
         13713         13714         13715         13716         13717         13718         13719         13720
         13721         13722         13723         13724         13725         13726         13727         13728
         13729         13730         13731         13732         13733         13734         13735         13736
         13737         13738         13739         13740         13741         13742         13743         13744
         13745         13746         13747         13748         13749         13750         13751         13752
         13753         13754         13755         13756         13757         13758         13759         13760
         13761         13762         13763         13764         13765         13766         13767         13768
         13769         13770         13771         13772         13773         13774         13775         13776
         13777         13778         13779         13780         13781         13782         13783         13784
         13785         13786         13787         13788         13789         13790         13791         13792
         13793         13794         13795         13796         13797         13798         13799         13800
         13801         13802         13803         13804         13805         13806         13807         13808
         13809         13810         13811         13812         13813         13814         13815         13816
         13817         13818         13819         13820         13821         13822         13823         13824
         13825         13826         13827         13828         13829         13830         13831         13832
         13833         13834         13835         13836         13837         13838         13839         13840
         13841         13842         13843         13844         13845         13846         13847         13848
         13849         13850         13851         13852         13853         13854         13855         13856
         13857         13858         13859         13860         13861         13862         13863         13864
         13865         13866         13867         13868         13869         13870         13871         13872
         13873         13874         13875         13876         13877         13878         13879         13880
         13881         13882         13883         13884         13885         13886         13887         13888
         13889         13890         13891         13892         13893         13894         13895         13896
         13897         13898         13899         13900         13901         13902         13903         13904
         13905         13906         13907         13908         13909         13910         13911         13912
         13913         13914         13915         13916         13917         13918         13919         13920
         13921         13922         13923         13924         13925         13926         13927         13928
         13929         13930         13931         13932         13933         13934         13935         13936
         13937         13938         13939         13940         13941         13942         13943         13944
         13945         13946         13947         13948         13949         13950         13951         13952
         13953         13954         13955         13956         13957         13958         13959         13960
         13961         13962         13963         13964         13965         13966         13967         13968
         13969         13970         13971         13972         13973         13974         13975         13976
         13977         13978         13979         13980         13981         13982         13983         13984
         13985         13986         13987         13988         13989         13990         13991         13992
         13993         13994         13995         13996         13997         13998         13999         14000
         14001         14002         14003         14004         14005         14006         14007         14008
         14009         14010         14011         14012         14013         14014         14015         14016
         14017         14018         14019         14020         14021         14022         14023         14024
         14025         14026         14027         14028         14029         14030         14031         14032
         14033         14034         14035         14036         14037         14038         14039         14040
         14041         14042         14043         14044         14045         14046         14047         14048
         14049         14050         14051         14052         14053         14054         14055         14056
         14057         14058         14059         14060         14061         14062         14063         14064
         14065         14066         14067         14068         14069         14070         14071         14072
         14073         14074         14075         14076         14077         14078         14079         14080
ZONE T = "Bridge", N = 5632,E = 704 ,F = FEPOINT , ET = BRICK, C = RED
   6.91909e+59   5.08684e+58   2.75266e+62  -2.75052e+67             0             0   2.75052e+67  -2.75052e+67             0             0            -0             0             0
   6.91909e+59   5.08684e+58   2.75266e+62  -2.75052e+67             0             0   2.75052e+67  -2.75052e+67             0             0             0             0             0
   6.91909e+59   5.08684e+58   2.75266e+62   2.75052e+67             0             0   2.75052e+67   2.75052e+67             0             0             0             0            -0
   6.91909e+59   5.08684e+58   2.75266e+62   2.75052e+67             0             0   2.75052e+67   2.75052e+67             0             0            -0             0            -0
   8.02634e+59   1.47745e+59   2.54582e+62   2.75052e+67             0             0   2.75052e+67   2.75052e+67             0             0            -0             0             0
   8.02634e+59   1.47745e+59   2.54582e+62   2.75052e+67             0             0   2.75052e+67   2.75052e+67             0             0             0             0             0
   8.02634e+59   1.47745e+59   2.54582e+62  -2.75052e+67             0             0   2.75052e+67  -2.75052e+67             0             0             0             0            -0
   8.02634e+59   1.47745e+59   2.54582e+62  -2.75052e+67             0             0   2.75052e+67  -2.75052e+67             0             0            -0             0            -0
   8.02634e+59   1.47745e+59   2.54582e+62  -2.75051e+67             0             0   2.75051e+67  -2.75051e+67             0             0            -0             0             0
   8.02634e+59   1.47745e+59   2.54582e+62  -2.75051e+67             0             0   2.75051e+67  -2.75051e+67             0             0             0             0             0
   8.02634e+59   1.47745e+59   2.54582e+62   2.75051e+67             0             0   2.75051e+67   2.75051e+67             0             0             0             0            -0
   8.02634e+59   1.47745e+59   2.54582e+62   2.75051e+67             0             0   2.75051e+67   2.75051e+67             0             0            -0             0            -0
    9.1336e+59   2.44621e+59   2.33898e+62   2.75051e+67             0             0   2.75051e+67   2.75051e+67             0             0            -0             0             0
    9.1336e+59   2.44621e+59   2.33898e+62   2.75051e+67             0             0   2.75051e+67   2.75051e+67             0             0             0             0             0
    9.1336e+59   2.44621e+59   2.33898e+62  -2.75051e+67             0             0   2.75051e+67  -2.75051e+67             0             0             0             0            -0
    9.1336e+59   2.44621e+59   2.33898e+62  -2.75051e+67             0             0   2.75051e+67  -2.75051e+67             0             0            -0             0            -0
    9.1336e+59   2.44621e+59   2.33898e+62  -2.75052e+67             0             0   2.75052e+67  -2.75052e+67             0             0            -0             0             0
    9.1336e+59   2.44621e+59   2.33898e+62  -2.75052e+67             0             0   2.75052e+67  -2.75052e+67             0             0             0             0             0
    9.1336e+59   2.44621e+59   2.33898e+62   2.75052e+67             0             0   2.75052e+67   2.75052e+67             0             0             0             0            -0
    9.1336e+59   2.44621e+59   2.33898e+62   2.75052e+67             0             0   2.75052e+67   2.75052e+67             0             0            -0             0            -0
   1.02409e+60   3.41498e+59   2.13214e+62   2.75052e+67             0             0   2.75052e+67   2.75052e+67             0             0            -0             0             0
   1.02409e+60   3.41498e+59   2.13214e+62   2.75052e+67             0             0   2.75052e+67   2.75052e+67             0             0             0             0             0
   1.02409e+60   3.41498e+59   2.13214e+62  -2.75052e+67             0             0   2.75052e+67  -2.75052e+67             0             0             0             0            -0
   1.02409e+60   3.41498e+59   2.13214e+62  -2.75052e+67             0             0   2.75052e+67  -2.75052e+67             0             0            -0             0            -0
   1.02409e+60   3.41498e+59   2.13214e+62  -2.75051e+67             0             0   2.75051e+67  -2.75051e+67             0             0            -0             0             0
   1.02409e+60   3.41498e+59   2.13214e+62  -2.75051e+67             0             0   2.75051e+67  -2.75051e+67             0             0             0             0             0
   1.02409e+60   3.41498e+59   2.13214e+62   2.75051e+67             0             0   2.75051e+67   2.75051e+67             0             0             0             0            -0
   1.02409e+60   3.41498e+59   2.13214e+62   2.75051e+67             0             0   2.75051e+67   2.75051e+67             0             0            -0             0            -0
   1.13481e+60   4.38374e+59    1.9253e+62   2.75051e+67             0             0   2.75051e+67   2.75051e+67             0             0            -0             0             0
   1.13481e+60   4.38374e+59    1.9253e+62   2.75051e+67             0             0   2.75051e+67   2.75051e+67             0             0             0             0             0
   1.13481e+60   4.38374e+59    1.9253e+62  -2.75051e+67             0             0   2.75051e+67  -2.75051e+67             0             0             0             0            -0
   1.13481e+60   4.38374e+59    1.9253e+62  -2.75051e+67             0             0   2.75051e+67  -2.75051e+67             0             0            -0             0            -0
   1.13481e+60   4.38374e+59    1.9253e+62  -2.75052e+67             0             0   2.75052e+67  -2.75052e+67             0             0            -0             0             0
   1.13481e+60   4.38374e+59    1.9253e+62  -2.75052e+67             0             0   2.75052e+67  -2.75052e+67             0             0             0             0             0
   1.13481e+60   4.38374e+59    1.9253e+62   2.75052e+67             0             0   2.75052e+67   2.75052e+67             0             0             0             0            -0
   1.13481e+60   4.38374e+59    1.9253e+62   2.75052e+67             0             0   2.75052e+67   2.75052e+67             0             0            -0             0            -0
   1.24554e+60   5.35251e+59   1.71846e+62   2.75052e+67             0             0   2.75052e+67   2.75052e+67             0             0            -0             0             0
   1.24554e+60   5.35251e+59   1.71846e+62   2.75052e+67             0             0   2.75052e+67   2.75052e+67             0             0             0             0             0
   1.24554e+60   5.35251e+59   1.71846e+62  -2.75052e+67             0             0   2.75052e+67  -2.75052e+67             0             0             0             0            -0
   1.24554e+60   5.35251e+59   1.71846e+62  -2.75052e+67             0             0   2.75052e+67  -2.75052e+67             0             0            -0             0            -0
   1.24554e+60   5.35251e+59   1.71846e+62  -2.75051e+67             0             0   2.75051e+67  -2.75051e+67             0             0            -0             0             0
   1.24554e+60   5.35251e+59   1.71846e+62  -2.75051e+67             0             0   2.75051e+67  -2.75051e+67             0             0             0             0             0
   1.24554e+60   5.35251e+59   1.71846e+62   2.75051e+67             0             0   2.75051e+67   2.75051e+67             0             0             0             0            -0
   1.24554e+60   5.35251e+59   1.71846e+62   2.75051e+67             0             0   2.75051e+67   2.75051e+67             0             0            -0             0            -0
   1.35626e+60   6.32126e+59   1.51163e+62   2.75051e+67             0             0   2.75051e+67   2.75051e+67             0             0            -0             0             0
   1.35626e+60   6.32126e+59   1.51163e+62   2.75051e+67             0             0   2.75051e+67   2.75051e+67             0             0             0             0             0
   1.35626e+60   6.32126e+59   1.51163e+62  -2.75051e+67             0             0   2.75051e+67  -2.75051e+67             0             0             0             0            -0
   1.35626e+60   6.32126e+59   1.51163e+62  -2.75051e+67             0             0   2.75051e+67  -2.75051e+67             0             0            -0             0            -0
   1.35626e+60   6.32126e+59   1.51163e+62  -2.75052e+67             0             0   2.75052e+67  -2.75052e+67             0             0            -0             0             0
   1.35626e+60   6.32126e+59   1.51163e+62  -2.75052e+67             0             0   2.75052e+67  -2.75052e+67             0             0             0             0             0
   1.35626e+60   6.32126e+59   1.51163e+62   2.75052e+67             0             0   2.75052e+67   2.75052e+67             0             0             0             0            -0
   1.35626e+60   6.32126e+59   1.51163e+62   2.75052e+67             0             0   2.75052e+67   2.75052e+67             0             0            -0             0            -0
   1.46699e+60   7.29003e+59   1.30479e+62   2.75052e+67             0             0   2.75052e+67   2.75052e+67             0             0            -0             0             0
   1.46699e+60   7.29003e+59   1.30479e+62   2.75052e+67             0             0   2.75052e+67   2.75052e+67             0             0             0             0             0
   1.46699e+60   7.29003e+59   1.30479e+62  -2.75052e+67             0             0   2.75052e+67  -2.75052e+67             0             0             0             0            -0
   1.46699e+60   7.29003e+59   1.30479e+62  -2.75052e+67             0             0   2.75052e+67  -2.75052e+67             0             0            -0             0            -0
   1.46699e+60   7.29003e+59   1.30479e+62  -2.75051e+67             0             0   2.75051e+67  -2.75051e+67             0             0            -0             0             0
   1.46699e+60   7.29003e+59   1.30479e+62  -2.75051e+67             0             0   2.75051e+67  -2.75051e+67             0             0             0             0             0
   1.46699e+60   7.29003e+59   1.30479e+62   2.75051e+67             0             0   2.75051e+67   2.75051e+67             0             0             0             0            -0
   1.46699e+60   7.29003e+59   1.30479e+62   2.75051e+67             0             0   2.75051e+67   2.75051e+67             0             0            -0             0            -0
   1.57771e+60   8.25879e+59   1.09795e+62   2.75051e+67             0             0   2.75051e+67   2.75051e+67             0             0            -0             0             0
   1.57771e+60   8.25879e+59   1.09795e+62   2.75051e+67             0             0   2.75051e+67   2.75051e+67             0             0             0             0             0
   1.57771e+60   8.25879e+59   1.09795e+62  -2.75051e+67             0             0   2.75051e+67  -2.75051e+67             0             0             0             0            -0
   1.57771e+60   8.25879e+59   1.09795e+62  -2.75051e+67             0             0   2.75051e+67  -2.75051e+67             0             0            -0             0            -0
   1.57771e+60   8.25879e+59   1.09795e+62  -2.75052e+67             0             0   2.75052e+67  -2.75052e+67             0             0            -0             0             0
   1.57771e+60   8.25879e+59   1.09795e+62  -2.75052e+67             0             0   2.75052e+67  -2.75052e+67             0             0             0             0             0
   1.57771e+60   8.25879e+59   1.09795e+62   2.75052e+67             0             0   2.75052e+67   2.75052e+67             0             0             0             0            -0
   1.57771e+60   8.25879e+59   1.09795e+62   2.75052e+67             0             0   2.75052e+67   2.75052e+67             0             0            -0             0            -0
   1.68844e+60   9.22756e+59    8.9111e+61   2.75052e+67             0             0   2.75052e+67   2.75052e+67             0             0            -0             0             0
   1.68844e+60   9.22756e+59    8.9111e+61   2.75052e+67             0             0   2.75052e+67   2.75052e+67             0             0             0             0             0
   1.68844e+60   9.22756e+59    8.9111e+61  -2.75052e+67             0             0   2.75052e+67  -2.75052e+67             0             0             0             0            -0
   1.68844e+60   9.22756e+59    8.9111e+61  -2.75052e+67             0             0   2.75052e+67  -2.75052e+67             0             0            -0             0            -0
   1.68844e+60   9.22756e+59    8.9111e+61  -2.75051e+67             0             0   2.75051e+67  -2.75051e+67             0             0            -0             0             0
   1.68844e+60   9.22756e+59    8.9111e+61  -2.75051e+67             0             0   2.75051e+67  -2.75051e+67             0             0             0             0             0
   1.68844e+60   9.22756e+59    8.9111e+61   2.75051e+67             0             0   2.75051e+67   2.75051e+67             0             0             0             0            -0
   1.68844e+60   9.22756e+59    8.9111e+61   2.75051e+67             0             0   2.75051e+67   2.75051e+67             0             0            -0             0            -0
   1.79916e+60   1.01963e+60   6.84273e+61   2.75051e+67             0             0   2.75051e+67   2.75051e+67             0             0            -0             0             0
   1.79916e+60   1.01963e+60   6.84273e+61   2.75051e+67             0             0   2.75051e+67   2.75051e+67             0             0             0             0             0
   1.79916e+60   1.01963e+60   6.84273e+61  -2.75051e+67             0             0   2.75051e+67  -2.75051e+67             0             0             0             0            -0
   1.79916e+60   1.01963e+60   6.84273e+61  -2.75051e+67             0             0   2.75051e+67  -2.75051e+67             0             0            -0             0            -0
   1.79916e+60   1.01963e+60   6.84273e+61  -2.75052e+67             0             0   2.75052e+67  -2.75052e+67             0             0            -0             0             0
   1.79916e+60   1.01963e+60   6.84273e+61  -2.75052e+67             0             0   2.75052e+67  -2.75052e+67             0             0             0             0             0
   1.79916e+60   1.01963e+60   6.84273e+61   2.75052e+67             0             0   2.75052e+67   2.75052e+67             0             0             0             0            -0
   1.79916e+60   1.01963e+60   6.84273e+61   2.75052e+67             0             0   2.75052e+67   2.75052e+67             0             0            -0             0            -0
   1.90989e+60   1.11651e+60   4.77434e+61   2.75052e+67             0             0   2.75052e+67   2.75052e+67             0             0            -0             0             0
   1.90989e+60   1.11651e+60   4.77434e+61   2.75052e+67             0             0   2.75052e+67   2.75052e+67             0             0             0             0             0
   1.90989e+60   1.11651e+60   4.77434e+61  -2.75052e+67             0             0   2.75052e+67  -2.75052e+67             0             0             0             0            -0
   1.90989e+60   1.11651e+60   4.77434e+61  -2.75052e+67             0             0   2.75052e+67  -2.75052e+67             0             0            -0             0            -0
   1.90989e+60   1.11651e+60   4.77434e+61  -2.75051e+67             0             0   2.75051e+67  -2.75051e+67             0             0            -0             0             0
   1.90989e+60   1.11651e+60   4.77434e+61  -2.75051e+67             0             0   2.75051e+67  -2.75051e+67             0             0             0             0             0
   1.90989e+60   1.11651e+60   4.77434e+61   2.75051e+67             0             0   2.75051e+67   2.75051e+67             0             0             0             0            -0
   1.90989e+60   1.11651e+60   4.77434e+61   2.75051e+67             0             0   2.75051e+67   2.75051e+67             0             0            -0             0            -0
   2.02061e+60   1.21338e+60   2.70596e+61   2.75051e+67             0             0   2.75051e+67   2.75051e+67             0             0            -0             0             0
   2.02061e+60   1.21338e+60   2.70596e+61   2.75051e+67             0             0   2.75051e+67   2.75051e+67             0             0             0             0             0
   2.02061e+60   1.21338e+60   2.70596e+61  -2.75051e+67             0             0   2.75051e+67  -2.75051e+67             0             0             0             0            -0
   2.02061e+60   1.21338e+60   2.70596e+61  -2.75051e+67             0             0   2.75051e+67  -2.75051e+67             0             0            -0             0            -0
   2.02061e+60   1.21338e+60   2.70596e+61  -2.75052e+67             0             0   2.75052e+67  -2.75052e+67             0             0            -0             0             0
   2.02061e+60   1.21338e+60   2.70596e+61  -2.75052e+67             0             0   2.75052e+67  -2.75052e+67             0             0             0             0             0
   2.02061e+60   1.21338e+60   2.70596e+61   2.75052e+67             0             0   2.75052e+67   2.75052e+67             0             0             0             0            -0
   2.02061e+60   1.21338e+60   2.70596e+61   2.75052e+67             0             0   2.75052e+67   2.75052e+67             0             0            -0             0            -0
   2.13134e+60   1.31026e+60   6.37566e+60   2.75052e+67             0             0   2.75052e+67   2.75052e+67             0             0            -0             0             0
   2.13134e+60   1.31026e+60   6.37566e+60   2.75052e+67             0             0   2.75052e+67   2.75052e+67             0             0             0             0             0
   2.13134e+60   1.31026e+60   6.37566e+60  -2.75052e+67             0             0   2.75052e+67  -2.75052e+67             0             0             0             0            -0
   2.13134e+60   1.31026e+60   6.37566e+60  -2.75052e+67             0             0   2.75052e+67  -2.75052e+67             0             0            -0             0            -0
  -6.57526e+61  -8.26542e+59   2.79276e+62   6.07562e+68             0             0   6.07562e+68   6.07562e+68             0             0            -0             0             0
  -6.57526e+61  -8.26542e+59   2.79276e+62   6.07562e+68             0             0   6.07562e+68   6.07562e+68             0             0             0             0             0
  -6.57526e+61  -8.26542e+59   2.79276e+62  -6.07562e+68             0             0   6.07562e+68  -6.07562e+68             0             0             0             0            -0
  -6.57526e+61  -8.26542e+59   2.79276e+62  -6.07562e+68             0             0   6.07562e+68  -6.07562e+68             0             0            -0             0            -0
  -6.12271e+61  -6.84089e+59   2.61083e+62  -6.07562e+68             0             0   6.07562e+68  -6.07562e+68             0             0            -0             0             0
  -6.12271e+61  -6.84089e+59   2.61083e+62  -6.07562e+68             0             0   6.07562e+68  -6.07562e+68             0             0             0             0             0
  -6.12271e+61  -6.84089e+59   2.61083e+62   6.07562e+68             0             0   6.07562e+68   6.07562e+68             0             0             0             0            -0
  -6.12271e+61  -6.84089e+59   2.61083e+62   6.07562e+68             0             0   6.07562e+68   6.07562e+68             0             0            -0             0            -0
  -6.12271e+61  -6.84089e+59   2.61083e+62   6.07571e+68             0             0   6.07571e+68   6.07571e+68             0             0            -0             0             0
  -6.12271e+61  -6.84089e+59   2.61083e+62   6.07571e+68             0             0   6.07571e+68   6.07571e+68             0             0             0             0             0
  -6.12271e+61  -6.84089e+59   2.61083e+62  -6.07571e+68             0             0   6.07571e+68  -6.07571e+68             0             0             0             0            -0
  -6.12271e+61  -6.84089e+59   2.61083e+62  -6.07571e+68             0             0   6.07571e+68  -6.07571e+68             0             0            -0             0            -0
  -5.67014e+61  -5.41635e+59   2.42889e+62  -6.07571e+68             0             0   6.07571e+68  -6.07571e+68             0             0            -0             0             0
  -5.67014e+61  -5.41635e+59   2.42889e+62  -6.07571e+68             0             0   6.07571e+68  -6.07571e+68             0             0             0             0             0
  -5.67014e+61  -5.41635e+59   2.42889e+62   6.07571e+68             0             0   6.07571e+68   6.07571e+68             0             0             0             0            -0
  -5.67014e+61  -5.41635e+59   2.42889e+62   6.07571e+68             0             0   6.07571e+68   6.07571e+68             0             0            -0             0            -0
  -5.67014e+61  -5.41635e+59   2.42889e+62   6.07562e+68             0             0   6.07562e+68   6.07562e+68             0             0            -0             0             0
  -5.67014e+61  -5.41635e+59   2.42889e+62   6.07562e+68             0             0   6.07562e+68   6.07562e+68             0             0             0             0             0
  -5.67014e+61  -5.41635e+59   2.42889e+62  -6.07562e+68             0             0   6.07562e+68  -6.07562e+68             0             0             0             0            -0
  -5.67014e+61  -5.41635e+59   2.42889e+62  -6.07562e+68             0             0   6.07562e+68  -6.07562e+68             0             0            -0             0            -0
  -5.21758e+61  -3.99182e+59   2.24696e+62  -6.07562e+68             0             0   6.07562e+68  -6.07562e+68             0             0            -0             0             0
  -5.21758e+61  -3.99182e+59   2.24696e+62  -6.07562e+68             0             0   6.07562e+68  -6.07562e+68             0             0             0             0             0
  -5.21758e+61  -3.99182e+59   2.24696e+62   6.07562e+68             0             0   6.07562e+68   6.07562e+68             0             0             0             0            -0
  -5.21758e+61  -3.99182e+59   2.24696e+62   6.07562e+68             0             0   6.07562e+68   6.07562e+68             0             0            -0             0            -0
  -5.21758e+61  -3.99182e+59   2.24696e+62   6.07562e+68             0             0   6.07562e+68   6.07562e+68             0             0            -0             0             0
  -5.21758e+61  -3.99182e+59   2.24696e+62   6.07562e+68             0             0   6.07562e+68   6.07562e+68             0             0             0             0             0
  -5.21758e+61  -3.99182e+59   2.24696e+62  -6.07562e+68             0             0   6.07562e+68  -6.07562e+68             0             0             0             0            -0
  -5.21758e+61  -3.99182e+59   2.24696e+62  -6.07562e+68             0             0   6.07562e+68  -6.07562e+68             0             0            -0             0            -0
  -4.76503e+61  -2.56728e+59   2.06503e+62  -6.07562e+68             0             0   6.07562e+68  -6.07562e+68             0             0            -0             0             0
  -4.76503e+61  -2.56728e+59   2.06503e+62  -6.07562e+68             0             0   6.07562e+68  -6.07562e+68             0             0             0             0             0
  -4.76503e+61  -2.56728e+59   2.06503e+62   6.07562e+68             0             0   6.07562e+68   6.07562e+68             0             0             0             0            -0
  -4.76503e+61  -2.56728e+59   2.06503e+62   6.07562e+68             0             0   6.07562e+68   6.07562e+68             0             0            -0             0            -0
  -4.76503e+61  -2.56728e+59   2.06503e+62   6.07571e+68             0             0   6.07571e+68   6.07571e+68             0             0            -0             0             0
  -4.76503e+61  -2.56728e+59   2.06503e+62   6.07571e+68             0             0   6.07571e+68   6.07571e+68             0             0             0             0             0
  -4.76503e+61  -2.56728e+59   2.06503e+62  -6.07571e+68             0             0   6.07571e+68  -6.07571e+68             0             0             0             0            -0
  -4.76503e+61  -2.56728e+59   2.06503e+62  -6.07571e+68             0             0   6.07571e+68  -6.07571e+68             0             0            -0             0            -0
  -4.31246e+61  -1.14274e+59   1.88309e+62  -6.07571e+68             0             0   6.07571e+68  -6.07571e+68             0             0            -0             0             0
  -4.31246e+61  -1.14274e+59   1.88309e+62  -6.07571e+68             0             0   6.07571e+68  -6.07571e+68             0             0             0             0             0
  -4.31246e+61  -1.14274e+59   1.88309e+62   6.07571e+68             0             0   6.07571e+68   6.07571e+68             0             0             0             0            -0
  -4.31246e+61  -1.14274e+59   1.88309e+62   6.07571e+68             0             0   6.07571e+68   6.07571e+68             0             0            -0             0            -0
  -4.31246e+61  -1.14274e+59   1.88309e+62   6.07562e+68             0             0   6.07562e+68   6.07562e+68             0             0            -0             0             0
  -4.31246e+61  -1.14274e+59   1.88309e+62   6.07562e+68             0             0   6.07562e+68   6.07562e+68             0             0             0             0             0
  -4.31246e+61  -1.14274e+59   1.88309e+62  -6.07562e+68             0             0   6.07562e+68  -6.07562e+68             0             0             0             0            -0
  -4.31246e+61  -1.14274e+59   1.88309e+62  -6.07562e+68             0             0   6.07562e+68  -6.07562e+68             0             0            -0             0            -0
   -3.8599e+61   2.81792e+58   1.70116e+62  -6.07562e+68             0             0   6.07562e+68  -6.07562e+68             0             0            -0             0             0
   -3.8599e+61   2.81792e+58   1.70116e+62  -6.07562e+68             0             0   6.07562e+68  -6.07562e+68             0             0             0             0             0
   -3.8599e+61   2.81792e+58   1.70116e+62   6.07562e+68             0             0   6.07562e+68   6.07562e+68             0             0             0             0            -0
   -3.8599e+61   2.81792e+58   1.70116e+62   6.07562e+68             0             0   6.07562e+68   6.07562e+68             0             0            -0             0            -0
   -3.8599e+61   2.81792e+58   1.70116e+62   6.07562e+68             0             0   6.07562e+68   6.07562e+68             0             0            -0             0             0
   -3.8599e+61   2.81792e+58   1.70116e+62   6.07562e+68             0             0   6.07562e+68   6.07562e+68             0             0             0             0             0
   -3.8599e+61   2.81792e+58   1.70116e+62  -6.07562e+68             0             0   6.07562e+68  -6.07562e+68             0             0             0             0            -0
   -3.8599e+61   2.81792e+58   1.70116e+62  -6.07562e+68             0             0   6.07562e+68  -6.07562e+68             0             0            -0             0            -0
  -3.40735e+61   1.70632e+59   1.51923e+62  -6.07562e+68             0             0   6.07562e+68  -6.07562e+68             0             0            -0             0             0
  -3.40735e+61   1.70632e+59   1.51923e+62  -6.07562e+68             0             0   6.07562e+68  -6.07562e+68             0             0             0             0             0
  -3.40735e+61   1.70632e+59   1.51923e+62   6.07562e+68             0             0   6.07562e+68   6.07562e+68             0             0             0             0            -0
  -3.40735e+61   1.70632e+59   1.51923e+62   6.07562e+68             0             0   6.07562e+68   6.07562e+68             0             0            -0             0            -0
  -3.40735e+61   1.70632e+59   1.51923e+62   6.07571e+68             0             0   6.07571e+68   6.07571e+68             0             0            -0             0             0
  -3.40735e+61   1.70632e+59   1.51923e+62   6.07571e+68             0             0   6.07571e+68   6.07571e+68             0             0             0             0             0
  -3.40735e+61   1.70632e+59   1.51923e+62  -6.07571e+68             0             0   6.07571e+68  -6.07571e+68             0             0             0             0            -0
  -3.40735e+61   1.70632e+59   1.51923e+62  -6.07571e+68             0             0   6.07571e+68  -6.07571e+68             0             0            -0             0            -0
  -2.95478e+61   3.13087e+59   1.33729e+62  -6.07571e+68             0             0   6.07571e+68  -6.07571e+68             0             0            -0             0             0
  -2.95478e+61   3.13087e+59   1.33729e+62  -6.07571e+68             0             0   6.07571e+68  -6.07571e+68             0             0             0             0             0
  -2.95478e+61   3.13087e+59   1.33729e+62   6.07571e+68             0             0   6.07571e+68   6.07571e+68             0             0             0             0            -0
  -2.95478e+61   3.13087e+59   1.33729e+62   6.07571e+68             0             0   6.07571e+68   6.07571e+68             0             0            -0             0            -0
  -2.95478e+61   3.13087e+59   1.33729e+62   6.07562e+68             0             0   6.07562e+68   6.07562e+68             0             0            -0             0             0
  -2.95478e+61   3.13087e+59   1.33729e+62   6.07562e+68             0             0   6.07562e+68   6.07562e+68             0             0             0             0             0
  -2.95478e+61   3.13087e+59   1.33729e+62  -6.07562e+68             0             0   6.07562e+68  -6.07562e+68             0             0             0             0            -0
  -2.95478e+61   3.13087e+59   1.33729e+62  -6.07562e+68             0             0   6.07562e+68  -6.07562e+68             0             0            -0             0            -0
  -2.50222e+61    4.5554e+59   1.15536e+62  -6.07562e+68             0             0   6.07562e+68  -6.07562e+68             0             0            -0             0             0
  -2.50222e+61    4.5554e+59   1.15536e+62  -6.07562e+68             0             0   6.07562e+68  -6.07562e+68             0             0             0             0             0
  -2.50222e+61    4.5554e+59   1.15536e+62   6.07562e+68             0             0   6.07562e+68   6.07562e+68             0             0             0             0            -0
  -2.50222e+61    4.5554e+59   1.15536e+62   6.07562e+68             0             0   6.07562e+68   6.07562e+68             0             0            -0             0            -0
  -2.50222e+61    4.5554e+59   1.15536e+62   6.07562e+68             0             0   6.07562e+68   6.07562e+68             0             0            -0             0             0
  -2.50222e+61    4.5554e+59   1.15536e+62   6.07562e+68             0             0   6.07562e+68   6.07562e+68             0             0             0             0             0
  -2.50222e+61    4.5554e+59   1.15536e+62  -6.07562e+68             0             0   6.07562e+68  -6.07562e+68             0             0             0             0            -0
  -2.50222e+61    4.5554e+59   1.15536e+62  -6.07562e+68             0             0   6.07562e+68  -6.07562e+68             0             0            -0             0            -0
  -2.04967e+61   5.97993e+59   9.73425e+61  -6.07562e+68             0             0   6.07562e+68  -6.07562e+68             0             0            -0             0             0
  -2.04967e+61   5.97993e+59   9.73425e+61  -6.07562e+68             0             0   6.07562e+68  -6.07562e+68             0             0             0             0             0
  -2.04967e+61   5.97993e+59   9.73425e+61   6.07562e+68             0             0   6.07562e+68   6.07562e+68             0             0             0             0            -0
  -2.04967e+61   5.97993e+59   9.73425e+61   6.07562e+68             0             0   6.07562e+68   6.07562e+68             0             0            -0             0            -0
  -2.04967e+61   5.97993e+59   9.73425e+61   6.07571e+68             0             0   6.07571e+68   6.07571e+68             0             0            -0             0             0
  -2.04967e+61   5.97993e+59   9.73425e+61   6.07571e+68             0             0   6.07571e+68   6.07571e+68             0             0             0             0             0
  -2.04967e+61   5.97993e+59   9.73425e+61  -6.07571e+68             0             0   6.07571e+68  -6.07571e+68             0             0             0             0            -0
  -2.04967e+61   5.97993e+59   9.73425e+61  -6.07571e+68             0             0   6.07571e+68  -6.07571e+68             0             0            -0             0            -0
   -1.5971e+61   7.40448e+59    7.9149e+61  -6.07571e+68             0             0   6.07571e+68  -6.07571e+68             0             0            -0             0             0
   -1.5971e+61   7.40448e+59    7.9149e+61  -6.07571e+68             0             0   6.07571e+68  -6.07571e+68             0             0             0             0             0
   -1.5971e+61   7.40448e+59    7.9149e+61   6.07571e+68             0             0   6.07571e+68   6.07571e+68             0             0             0             0            -0
   -1.5971e+61   7.40448e+59    7.9149e+61   6.07571e+68             0             0   6.07571e+68   6.07571e+68             0             0            -0             0            -0
   -1.5971e+61   7.40448e+59    7.9149e+61   6.07562e+68             0             0   6.07562e+68   6.07562e+68             0             0            -0             0             0
   -1.5971e+61   7.40448e+59    7.9149e+61   6.07562e+68             0             0   6.07562e+68   6.07562e+68             0             0             0             0             0
   -1.5971e+61   7.40448e+59    7.9149e+61  -6.07562e+68             0             0   6.07562e+68  -6.07562e+68             0             0             0             0            -0
   -1.5971e+61   7.40448e+59    7.9149e+61  -6.07562e+68             0             0   6.07562e+68  -6.07562e+68             0             0            -0             0            -0
  -1.14455e+61   8.82901e+59   6.09557e+61  -6.07562e+68             0             0   6.07562e+68  -6.07562e+68             0             0            -0             0             0
  -1.14455e+61   8.82901e+59   6.09557e+61  -6.07562e+68             0             0   6.07562e+68  -6.07562e+68             0             0             0             0             0
  -1.14455e+61   8.82901e+59   6.09557e+61   6.07562e+68             0             0   6.07562e+68   6.07562e+68             0             0             0             0            -0
  -1.14455e+61   8.82901e+59   6.09557e+61   6.07562e+68             0             0   6.07562e+68   6.07562e+68             0             0            -0             0            -0
  -1.14455e+61   8.82901e+59   6.09557e+61   6.07562e+68             0             0   6.07562e+68   6.07562e+68             0             0            -0             0             0
  -1.14455e+61   8.82901e+59   6.09557e+61   6.07562e+68             0             0   6.07562e+68   6.07562e+68             0             0             0             0             0
  -1.14455e+61   8.82901e+59   6.09557e+61  -6.07562e+68             0             0   6.07562e+68  -6.07562e+68             0             0             0             0            -0
  -1.14455e+61   8.82901e+59   6.09557e+61  -6.07562e+68             0             0   6.07562e+68  -6.07562e+68             0             0            -0             0            -0
  -6.91989e+60   1.02535e+60   4.27625e+61  -6.07562e+68             0             0   6.07562e+68  -6.07562e+68             0             0            -0             0             0
  -6.91989e+60   1.02535e+60   4.27625e+61  -6.07562e+68             0             0   6.07562e+68  -6.07562e+68             0             0             0             0             0
  -6.91989e+60   1.02535e+60   4.27625e+61   6.07562e+68             0             0   6.07562e+68   6.07562e+68             0             0             0             0            -0
  -6.91989e+60   1.02535e+60   4.27625e+61   6.07562e+68             0             0   6.07562e+68   6.07562e+68             0             0            -0             0            -0
  -6.91989e+60   1.02535e+60   4.27625e+61   6.07571e+68             0             0   6.07571e+68   6.07571e+68             0             0            -0             0             0
  -6.91989e+60   1.02535e+60   4.27625e+61   6.07571e+68             0             0   6.07571e+68   6.07571e+68             0             0             0             0             0
  -6.91989e+60   1.02535e+60   4.27625e+61  -6.07571e+68             0             0   6.07571e+68  -6.07571e+68             0             0             0             0            -0
  -6.91989e+60   1.02535e+60   4.27625e+61  -6.07571e+68             0             0   6.07571e+68  -6.07571e+68             0             0            -0             0            -0
  -2.39422e+60   1.16781e+60   2.45689e+61  -6.07571e+68             0             0   6.07571e+68  -6.07571e+68             0             0            -0             0             0
  -2.39422e+60   1.16781e+60   2.45689e+61  -6.07571e+68             0             0   6.07571e+68  -6.07571e+68             0             0             0             0             0
  -2.39422e+60   1.16781e+60   2.45689e+61   6.07571e+68             0             0   6.07571e+68   6.07571e+68             0             0             0             0            -0
  -2.39422e+60   1.16781e+60   2.45689e+61   6.07571e+68             0             0   6.07571e+68   6.07571e+68             0             0            -0             0            -0
  -2.39422e+60   1.16781e+60   2.45689e+61   6.07562e+68             0             0   6.07562e+68   6.07562e+68             0             0            -0             0             0
  -2.39422e+60   1.16781e+60   2.45689e+61   6.07562e+68             0             0   6.07562e+68   6.07562e+68             0             0             0             0             0
  -2.39422e+60   1.16781e+60   2.45689e+61  -6.07562e+68             0             0   6.07562e+68  -6.07562e+68             0             0             0             0            -0
  -2.39422e+60   1.16781e+60   2.45689e+61  -6.07562e+68             0             0   6.07562e+68  -6.07562e+68             0             0            -0             0            -0
   2.13134e+60   1.31026e+60   6.37566e+60  -6.07562e+68             0             0   6.07562e+68  -6.07562e+68             0             0            -0             0             0
   2.13134e+60   1.31026e+60   6.37566e+60  -6.07562e+68             0             0   6.07562e+68  -6.07562e+68             0             0             0             0             0
   2.13134e+60   1.31026e+60   6.37566e+60   6.07562e+68             0             0   6.07562e+68   6.07562e+68             0             0             0             0            -0
   2.13134e+60   1.31026e+60   6.37566e+60   6.07562e+68             0             0   6.07562e+68   6.07562e+68             0             0            -0             0            -0
   1.00852e+61    3.2978e+59   4.72279e+62    7.4441e+68             0             0    7.4441e+68    7.4441e+68             0             0            -0             0             0
   1.00852e+61    3.2978e+59   4.72279e+62    7.4441e+68             0             0    7.4441e+68    7.4441e+68             0             0             0             0             0
   1.00852e+61    3.2978e+59   4.72279e+62   -7.4441e+68             0             0    7.4441e+68   -7.4441e+68             0             0             0             0            -0
   1.00852e+61    3.2978e+59   4.72279e+62   -7.4441e+68             0             0    7.4441e+68   -7.4441e+68             0             0            -0             0            -0
   5.02937e+60   2.52693e+59   4.59412e+62   -7.4441e+68             0             0    7.4441e+68   -7.4441e+68             0             0            -0             0             0
   5.02937e+60   2.52693e+59   4.59412e+62   -7.4441e+68             0             0    7.4441e+68   -7.4441e+68             0             0             0             0             0
   5.02937e+60   2.52693e+59   4.59412e+62    7.4441e+68             0             0    7.4441e+68    7.4441e+68             0             0             0             0            -0
   5.02937e+60   2.52693e+59   4.59412e+62    7.4441e+68             0             0    7.4441e+68    7.4441e+68             0             0            -0             0            -0
   5.02937e+60   2.52693e+59   4.59412e+62   7.44413e+68             0             0   7.44413e+68   7.44413e+68             0             0            -0             0             0
   5.02937e+60   2.52693e+59   4.59412e+62   7.44413e+68             0             0   7.44413e+68   7.44413e+68             0             0             0             0             0
   5.02937e+60   2.52693e+59   4.59412e+62  -7.44413e+68             0             0   7.44413e+68  -7.44413e+68             0             0             0             0            -0
   5.02937e+60   2.52693e+59   4.59412e+62  -7.44413e+68             0             0   7.44413e+68  -7.44413e+68             0             0            -0             0            -0
   -2.6532e+58   1.75604e+59   4.46545e+62  -7.44413e+68             0             0   7.44413e+68  -7.44413e+68             0             0            -0             0             0
   -2.6532e+58   1.75604e+59   4.46545e+62  -7.44413e+68             0             0   7.44413e+68  -7.44413e+68             0             0             0             0             0
   -2.6532e+58   1.75604e+59   4.46545e+62   7.44413e+68             0             0   7.44413e+68   7.44413e+68             0             0             0             0            -0
   -2.6532e+58   1.75604e+59   4.46545e+62   7.44413e+68             0             0   7.44413e+68   7.44413e+68             0             0            -0             0            -0
   -2.6532e+58   1.75604e+59   4.46545e+62    7.4441e+68             0             0    7.4441e+68    7.4441e+68             0             0            -0             0             0
   -2.6532e+58   1.75604e+59   4.46545e+62    7.4441e+68             0             0    7.4441e+68    7.4441e+68             0             0             0             0             0
   -2.6532e+58   1.75604e+59   4.46545e+62   -7.4441e+68             0             0    7.4441e+68   -7.4441e+68             0             0             0             0            -0
   -2.6532e+58   1.75604e+59   4.46545e+62   -7.4441e+68             0             0    7.4441e+68   -7.4441e+68             0             0            -0             0            -0
  -5.08236e+60   9.85159e+58   4.33678e+62   -7.4441e+68             0             0    7.4441e+68   -7.4441e+68             0             0            -0             0             0
  -5.08236e+60   9.85159e+58   4.33678e+62   -7.4441e+68             0             0    7.4441e+68   -7.4441e+68             0             0             0             0             0
  -5.08236e+60   9.85159e+58   4.33678e+62    7.4441e+68             0             0    7.4441e+68    7.4441e+68             0             0             0             0            -0
  -5.08236e+60   9.85159e+58   4.33678e+62    7.4441e+68             0             0    7.4441e+68    7.4441e+68             0             0            -0             0            -0
  -5.08236e+60   9.85159e+58   4.33678e+62    7.4441e+68             0             0    7.4441e+68    7.4441e+68             0             0            -0             0             0
  -5.08236e+60   9.85159e+58   4.33678e+62    7.4441e+68             0             0    7.4441e+68    7.4441e+68             0             0             0             0             0
  -5.08236e+60   9.85159e+58   4.33678e+62   -7.4441e+68             0             0    7.4441e+68   -7.4441e+68             0             0             0             0            -0
  -5.08236e+60   9.85159e+58   4.33678e+62   -7.4441e+68             0             0    7.4441e+68   -7.4441e+68             0             0            -0             0            -0
  -1.01382e+61    2.1428e+58   4.20811e+62   -7.4441e+68             0             0    7.4441e+68   -7.4441e+68             0             0            -0             0             0
  -1.01382e+61    2.1428e+58   4.20811e+62   -7.4441e+68             0             0    7.4441e+68   -7.4441e+68             0             0             0             0             0
  -1.01382e+61    2.1428e+58   4.20811e+62    7.4441e+68             0             0    7.4441e+68    7.4441e+68             0             0             0             0            -0
  -1.01382e+61    2.1428e+58   4.20811e+62    7.4441e+68             0             0    7.4441e+68    7.4441e+68             0             0            -0             0            -0
  -1.01382e+61    2.1428e+58   4.20811e+62   7.44413e+68             0             0   7.44413e+68   7.44413e+68             0             0            -0             0             0
  -1.01382e+61    2.1428e+58   4.20811e+62   7.44413e+68             0             0   7.44413e+68   7.44413e+68             0             0             0             0             0
  -1.01382e+61    2.1428e+58   4.20811e+62  -7.44413e+68             0             0   7.44413e+68  -7.44413e+68             0             0             0             0            -0
  -1.01382e+61    2.1428e+58   4.20811e+62  -7.44413e+68             0             0   7.44413e+68  -7.44413e+68             0             0            -0             0            -0
  -1.51941e+61  -5.56608e+58   4.07944e+62  -7.44413e+68             0             0   7.44413e+68  -7.44413e+68             0             0            -0             0             0
  -1.51941e+61  -5.56608e+58   4.07944e+62  -7.44413e+68             0             0   7.44413e+68  -7.44413e+68             0             0             0             0             0
  -1.51941e+61  -5.56608e+58   4.07944e+62   7.44413e+68             0             0   7.44413e+68   7.44413e+68             0             0             0             0            -0
  -1.51941e+61  -5.56608e+58   4.07944e+62   7.44413e+68             0             0   7.44413e+68   7.44413e+68             0             0            -0             0            -0
  -1.51941e+61  -5.56608e+58   4.07944e+62    7.4441e+68             0             0    7.4441e+68    7.4441e+68             0             0            -0             0             0
  -1.51941e+61  -5.56608e+58   4.07944e+62    7.4441e+68             0             0    7.4441e+68    7.4441e+68             0             0             0             0             0
  -1.51941e+61  -5.56608e+58   4.07944e+62   -7.4441e+68             0             0    7.4441e+68   -7.4441e+68             0             0             0             0            -0
  -1.51941e+61  -5.56608e+58   4.07944e+62   -7.4441e+68             0             0    7.4441e+68   -7.4441e+68             0             0            -0             0            -0
  -2.02499e+61  -1.32749e+59   3.95078e+62   -7.4441e+68             0             0    7.4441e+68   -7.4441e+68             0             0            -0             0             0
  -2.02499e+61  -1.32749e+59   3.95078e+62   -7.4441e+68             0             0    7.4441e+68   -7.4441e+68             0             0             0             0             0
  -2.02499e+61  -1.32749e+59   3.95078e+62    7.4441e+68             0             0    7.4441e+68    7.4441e+68             0             0             0             0            -0
  -2.02499e+61  -1.32749e+59   3.95078e+62    7.4441e+68             0             0    7.4441e+68    7.4441e+68             0             0            -0             0            -0
  -2.02499e+61  -1.32749e+59   3.95078e+62    7.4441e+68             0             0    7.4441e+68    7.4441e+68             0             0            -0             0             0
  -2.02499e+61  -1.32749e+59   3.95078e+62    7.4441e+68             0             0    7.4441e+68    7.4441e+68             0             0             0             0             0
  -2.02499e+61  -1.32749e+59   3.95078e+62   -7.4441e+68             0             0    7.4441e+68   -7.4441e+68             0             0             0             0            -0
  -2.02499e+61  -1.32749e+59   3.95078e+62   -7.4441e+68             0             0    7.4441e+68   -7.4441e+68             0             0            -0             0            -0
  -2.53058e+61  -2.09837e+59   3.82211e+62   -7.4441e+68             0             0    7.4441e+68   -7.4441e+68             0             0            -0             0             0
  -2.53058e+61  -2.09837e+59   3.82211e+62   -7.4441e+68             0             0    7.4441e+68   -7.4441e+68             0             0             0             0             0
  -2.53058e+61  -2.09837e+59   3.82211e+62    7.4441e+68             0             0    7.4441e+68    7.4441e+68             0             0             0             0            -0
  -2.53058e+61  -2.09837e+59   3.82211e+62    7.4441e+68             0             0    7.4441e+68    7.4441e+68             0             0            -0             0            -0
  -2.53058e+61  -2.09837e+59   3.82211e+62   7.44413e+68             0             0   7.44413e+68   7.44413e+68             0             0            -0             0             0
  -2.53058e+61  -2.09837e+59   3.82211e+62   7.44413e+68             0             0   7.44413e+68   7.44413e+68             0             0             0             0             0
  -2.53058e+61  -2.09837e+59   3.82211e+62  -7.44413e+68             0             0   7.44413e+68  -7.44413e+68             0             0             0             0            -0
  -2.53058e+61  -2.09837e+59   3.82211e+62  -7.44413e+68             0             0   7.44413e+68  -7.44413e+68             0             0            -0             0            -0
  -3.03617e+61  -2.86925e+59   3.69344e+62  -7.44413e+68             0             0   7.44413e+68  -7.44413e+68             0             0            -0             0             0
  -3.03617e+61  -2.86925e+59   3.69344e+62  -7.44413e+68             0             0   7.44413e+68  -7.44413e+68             0             0             0             0             0
  -3.03617e+61  -2.86925e+59   3.69344e+62   7.44413e+68             0             0   7.44413e+68   7.44413e+68             0             0             0             0            -0
  -3.03617e+61  -2.86925e+59   3.69344e+62   7.44413e+68             0             0   7.44413e+68   7.44413e+68             0             0            -0             0            -0
  -3.03617e+61  -2.86925e+59   3.69344e+62    7.4441e+68             0             0    7.4441e+68    7.4441e+68             0             0            -0             0             0
  -3.03617e+61  -2.86925e+59   3.69344e+62    7.4441e+68             0             0    7.4441e+68    7.4441e+68             0             0             0             0             0
  -3.03617e+61  -2.86925e+59   3.69344e+62   -7.4441e+68             0             0    7.4441e+68   -7.4441e+68             0             0             0             0            -0
  -3.03617e+61  -2.86925e+59   3.69344e+62   -7.4441e+68             0             0    7.4441e+68   -7.4441e+68             0             0            -0             0            -0
  -3.54175e+61  -3.64013e+59   3.56477e+62   -7.4441e+68             0             0    7.4441e+68   -7.4441e+68             0             0            -0             0             0
  -3.54175e+61  -3.64013e+59   3.56477e+62   -7.4441e+68             0             0    7.4441e+68   -7.4441e+68             0             0             0             0             0
  -3.54175e+61  -3.64013e+59   3.56477e+62    7.4441e+68             0             0    7.4441e+68    7.4441e+68             0             0             0             0            -0
  -3.54175e+61  -3.64013e+59   3.56477e+62    7.4441e+68             0             0    7.4441e+68    7.4441e+68             0             0            -0             0            -0
  -3.54175e+61  -3.64013e+59   3.56477e+62    7.4441e+68             0             0    7.4441e+68    7.4441e+68             0             0            -0             0             0
  -3.54175e+61  -3.64013e+59   3.56477e+62    7.4441e+68             0             0    7.4441e+68    7.4441e+68             0             0             0             0             0
  -3.54175e+61  -3.64013e+59   3.56477e+62   -7.4441e+68             0             0    7.4441e+68   -7.4441e+68             0             0             0             0            -0
  -3.54175e+61  -3.64013e+59   3.56477e+62   -7.4441e+68             0             0    7.4441e+68   -7.4441e+68             0             0            -0             0            -0
  -4.04733e+61  -4.41101e+59    3.4361e+62   -7.4441e+68             0             0    7.4441e+68   -7.4441e+68             0             0            -0             0             0
  -4.04733e+61  -4.41101e+59    3.4361e+62   -7.4441e+68             0             0    7.4441e+68   -7.4441e+68             0             0             0             0             0
  -4.04733e+61  -4.41101e+59    3.4361e+62    7.4441e+68             0             0    7.4441e+68    7.4441e+68             0             0             0             0            -0
  -4.04733e+61  -4.41101e+59    3.4361e+62    7.4441e+68             0             0    7.4441e+68    7.4441e+68             0             0            -0             0            -0
  -4.04733e+61  -4.41101e+59    3.4361e+62   7.44413e+68             0             0   7.44413e+68   7.44413e+68             0             0            -0             0             0
  -4.04733e+61  -4.41101e+59    3.4361e+62   7.44413e+68             0             0   7.44413e+68   7.44413e+68             0             0             0             0             0
  -4.04733e+61  -4.41101e+59    3.4361e+62  -7.44413e+68             0             0   7.44413e+68  -7.44413e+68             0             0             0             0            -0
  -4.04733e+61  -4.41101e+59    3.4361e+62  -7.44413e+68             0             0   7.44413e+68  -7.44413e+68             0             0            -0             0            -0
  -4.55292e+61   -5.1819e+59   3.30743e+62  -7.44413e+68             0             0   7.44413e+68  -7.44413e+68             0             0            -0             0             0
  -4.55292e+61   -5.1819e+59   3.30743e+62  -7.44413e+68             0             0   7.44413e+68  -7.44413e+68             0             0             0             0             0
  -4.55292e+61   -5.1819e+59   3.30743e+62   7.44413e+68             0             0   7.44413e+68   7.44413e+68             0             0             0             0            -0
  -4.55292e+61   -5.1819e+59   3.30743e+62   7.44413e+68             0             0   7.44413e+68   7.44413e+68             0             0            -0             0            -0
  -4.55292e+61   -5.1819e+59   3.30743e+62    7.4441e+68             0             0    7.4441e+68    7.4441e+68             0             0            -0             0             0
  -4.55292e+61   -5.1819e+59   3.30743e+62    7.4441e+68             0             0    7.4441e+68    7.4441e+68             0             0             0             0             0
  -4.55292e+61   -5.1819e+59   3.30743e+62   -7.4441e+68             0             0    7.4441e+68   -7.4441e+68             0             0             0             0            -0
  -4.55292e+61   -5.1819e+59   3.30743e+62   -7.4441e+68             0             0    7.4441e+68   -7.4441e+68             0             0            -0             0            -0
  -5.05851e+61  -5.95278e+59   3.17877e+62   -7.4441e+68             0             0    7.4441e+68   -7.4441e+68             0             0            -0             0             0
  -5.05851e+61  -5.95278e+59   3.17877e+62   -7.4441e+68             0             0    7.4441e+68   -7.4441e+68             0             0             0             0             0
  -5.05851e+61  -5.95278e+59   3.17877e+62    7.4441e+68             0             0    7.4441e+68    7.4441e+68             0             0             0             0            -0
  -5.05851e+61  -5.95278e+59   3.17877e+62    7.4441e+68             0             0    7.4441e+68    7.4441e+68             0             0            -0             0            -0
  -5.05851e+61  -5.95278e+59   3.17877e+62    7.4441e+68             0             0    7.4441e+68    7.4441e+68             0             0            -0             0             0
  -5.05851e+61  -5.95278e+59   3.17877e+62    7.4441e+68             0             0    7.4441e+68    7.4441e+68             0             0             0             0             0
  -5.05851e+61  -5.95278e+59   3.17877e+62   -7.4441e+68             0             0    7.4441e+68   -7.4441e+68             0             0             0             0            -0
  -5.05851e+61  -5.95278e+59   3.17877e+62   -7.4441e+68             0             0    7.4441e+68   -7.4441e+68             0             0            -0             0            -0
  -5.56409e+61  -6.72366e+59    3.0501e+62   -7.4441e+68             0             0    7.4441e+68   -7.4441e+68             0             0            -0             0             0
  -5.56409e+61  -6.72366e+59    3.0501e+62   -7.4441e+68             0             0    7.4441e+68   -7.4441e+68             0             0             0             0             0
  -5.56409e+61  -6.72366e+59    3.0501e+62    7.4441e+68             0             0    7.4441e+68    7.4441e+68             0             0             0             0            -0
  -5.56409e+61  -6.72366e+59    3.0501e+62    7.4441e+68             0             0    7.4441e+68    7.4441e+68             0             0            -0             0            -0
  -5.56409e+61  -6.72366e+59    3.0501e+62   7.44413e+68             0             0   7.44413e+68   7.44413e+68             0             0            -0             0             0
  -5.56409e+61  -6.72366e+59    3.0501e+62   7.44413e+68             0             0   7.44413e+68   7.44413e+68             0             0             0             0             0
  -5.56409e+61  -6.72366e+59    3.0501e+62  -7.44413e+68             0             0   7.44413e+68  -7.44413e+68             0             0             0             0            -0
  -5.56409e+61  -6.72366e+59    3.0501e+62  -7.44413e+68             0             0   7.44413e+68  -7.44413e+68             0             0            -0             0            -0
  -6.06968e+61  -7.49454e+59   2.92143e+62  -7.44413e+68             0             0   7.44413e+68  -7.44413e+68             0             0            -0             0             0
  -6.06968e+61  -7.49454e+59   2.92143e+62  -7.44413e+68             0             0   7.44413e+68  -7.44413e+68             0             0             0             0             0
  -6.06968e+61  -7.49454e+59   2.92143e+62   7.44413e+68             0             0   7.44413e+68   7.44413e+68             0             0             0             0            -0
  -6.06968e+61  -7.49454e+59   2.92143e+62   7.44413e+68             0             0   7.44413e+68   7.44413e+68             0             0            -0             0            -0
  -6.06968e+61  -7.49454e+59   2.92143e+62    7.4441e+68             0             0    7.4441e+68    7.4441e+68             0             0            -0             0             0
  -6.06968e+61  -7.49454e+59   2.92143e+62    7.4441e+68             0             0    7.4441e+68    7.4441e+68             0             0             0             0             0
  -6.06968e+61  -7.49454e+59   2.92143e+62   -7.4441e+68             0             0    7.4441e+68   -7.4441e+68             0             0             0             0            -0
  -6.06968e+61  -7.49454e+59   2.92143e+62   -7.4441e+68             0             0    7.4441e+68   -7.4441e+68             0             0            -0             0            -0
  -6.57526e+61  -8.26542e+59   2.79276e+62   -7.4441e+68             0             0    7.4441e+68   -7.4441e+68             0             0            -0             0             0
  -6.57526e+61  -8.26542e+59   2.79276e+62   -7.4441e+68             0             0    7.4441e+68   -7.4441e+68             0             0             0             0             0
  -6.57526e+61  -8.26542e+59   2.79276e+62    7.4441e+68             0             0    7.4441e+68    7.4441e+68             0             0             0             0            -0
  -6.57526e+61  -8.26542e+59   2.79276e+62    7.4441e+68             0             0    7.4441e+68    7.4441e+68             0             0            -0             0            -0
   1.00852e+61    3.2978e+59   4.72279e+62   1.79262e+69             0             0   1.79262e+69   1.79262e+69             0             0            -0             0             0
   1.00852e+61    3.2978e+59   4.72279e+62   1.79262e+69             0             0   1.79262e+69   1.79262e+69             0             0             0             0             0
   1.00852e+61    3.2978e+59   4.72279e+62  -1.79262e+69             0             0   1.79262e+69  -1.79262e+69             0             0             0             0            -0
   1.00852e+61    3.2978e+59   4.72279e+62  -1.79262e+69             0             0   1.79262e+69  -1.79262e+69             0             0            -0             0            -0
   4.03721e+60   3.75689e+59   4.73954e+62  -1.79262e+69             0             0   1.79262e+69  -1.79262e+69             0             0            -0             0             0
   4.03721e+60   3.75689e+59   4.73954e+62  -1.79262e+69             0             0   1.79262e+69  -1.79262e+69             0             0             0             0             0
   4.03721e+60   3.75689e+59   4.73954e+62   1.79262e+69             0             0   1.79262e+69   1.79262e+69             0             0             0             0            -0
   4.03721e+60   3.75689e+59   4.73954e+62   1.79262e+69             0             0   1.79262e+69   1.79262e+69             0             0            -0             0            -0
   4.03721e+60   3.75689e+59   4.73954e+62   1.79262e+69             0             0   1.79262e+69   1.79262e+69             0             0            -0             0             0
   4.03721e+60   3.75689e+59   4.73954e+62   1.79262e+69             0             0   1.79262e+69   1.79262e+69             0             0             0             0             0
   4.03721e+60   3.75689e+59   4.73954e+62  -1.79262e+69             0             0   1.79262e+69  -1.79262e+69             0             0             0             0            -0
   4.03721e+60   3.75689e+59   4.73954e+62  -1.79262e+69             0             0   1.79262e+69  -1.79262e+69             0             0            -0             0            -0
  -2.01077e+60   4.21599e+59    4.7563e+62  -1.79262e+69             0             0   1.79262e+69  -1.79262e+69             0             0            -0             0             0
  -2.01077e+60   4.21599e+59    4.7563e+62  -1.79262e+69             0             0   1.79262e+69  -1.79262e+69             0             0             0             0             0
  -2.01077e+60   4.21599e+59    4.7563e+62   1.79262e+69             0             0   1.79262e+69   1.79262e+69             0             0             0             0            -0
  -2.01077e+60   4.21599e+59    4.7563e+62   1.79262e+69             0             0   1.79262e+69   1.79262e+69             0             0            -0             0            -0
  -2.01077e+60   4.21599e+59    4.7563e+62   1.79262e+69             0             0   1.79262e+69   1.79262e+69             0             0            -0             0             0
  -2.01077e+60   4.21599e+59    4.7563e+62   1.79262e+69             0             0   1.79262e+69   1.79262e+69             0             0             0             0             0
  -2.01077e+60   4.21599e+59    4.7563e+62  -1.79262e+69             0             0   1.79262e+69  -1.79262e+69             0             0             0             0            -0
  -2.01077e+60   4.21599e+59    4.7563e+62  -1.79262e+69             0             0   1.79262e+69  -1.79262e+69             0             0            -0             0            -0
  -8.05876e+60   4.67508e+59   4.77306e+62  -1.79262e+69             0             0   1.79262e+69  -1.79262e+69             0             0            -0             0             0
  -8.05876e+60   4.67508e+59   4.77306e+62  -1.79262e+69             0             0   1.79262e+69  -1.79262e+69             0             0             0             0             0
  -8.05876e+60   4.67508e+59   4.77306e+62   1.79262e+69             0             0   1.79262e+69   1.79262e+69             0             0             0             0            -0
  -8.05876e+60   4.67508e+59   4.77306e+62   1.79262e+69             0             0   1.79262e+69   1.79262e+69             0             0            -0             0            -0
  -8.05876e+60   4.67508e+59   4.77306e+62   1.79262e+69             0             0   1.79262e+69   1.79262e+69             0             0            -0             0             0
  -8.05876e+60   4.67508e+59   4.77306e+62   1.79262e+69             0             0   1.79262e+69   1.79262e+69             0             0             0             0             0
  -8.05876e+60   4.67508e+59   4.77306e+62  -1.79262e+69             0             0   1.79262e+69  -1.79262e+69             0             0             0             0            -0
  -8.05876e+60   4.67508e+59   4.77306e+62  -1.79262e+69             0             0   1.79262e+69  -1.79262e+69             0             0            -0             0            -0
  -1.41067e+61   5.13417e+59   4.78981e+62  -1.79262e+69             0             0   1.79262e+69  -1.79262e+69             0             0            -0             0             0
  -1.41067e+61   5.13417e+59   4.78981e+62  -1.79262e+69             0             0   1.79262e+69  -1.79262e+69             0             0             0             0             0
  -1.41067e+61   5.13417e+59   4.78981e+62   1.79262e+69             0             0   1.79262e+69   1.79262e+69             0             0             0             0            -0
  -1.41067e+61   5.13417e+59   4.78981e+62   1.79262e+69             0             0   1.79262e+69   1.79262e+69             0             0            -0             0            -0
  -1.41067e+61   5.13417e+59   4.78981e+62   1.79262e+69             0             0   1.79262e+69   1.79262e+69             0             0            -0             0             0
  -1.41067e+61   5.13417e+59   4.78981e+62   1.79262e+69             0             0   1.79262e+69   1.79262e+69             0             0             0             0             0
  -1.41067e+61   5.13417e+59   4.78981e+62  -1.79262e+69             0             0   1.79262e+69  -1.79262e+69             0             0             0             0            -0
  -1.41067e+61   5.13417e+59   4.78981e+62  -1.79262e+69             0             0   1.79262e+69  -1.79262e+69             0             0            -0             0            -0
  -2.01547e+61   5.59326e+59   4.80657e+62  -1.79262e+69             0             0   1.79262e+69  -1.79262e+69             0             0            -0             0             0
  -2.01547e+61   5.59326e+59   4.80657e+62  -1.79262e+69             0             0   1.79262e+69  -1.79262e+69             0             0             0             0             0
  -2.01547e+61   5.59326e+59   4.80657e+62   1.79262e+69             0             0   1.79262e+69   1.79262e+69             0             0             0             0            -0
  -2.01547e+61   5.59326e+59   4.80657e+62   1.79262e+69             0             0   1.79262e+69   1.79262e+69             0             0            -0             0            -0
  -2.01547e+61   5.59326e+59   4.80657e+62   1.79262e+69             0             0   1.79262e+69   1.79262e+69             0             0            -0             0             0
  -2.01547e+61   5.59326e+59   4.80657e+62   1.79262e+69             0             0   1.79262e+69   1.79262e+69             0             0             0             0             0
  -2.01547e+61   5.59326e+59   4.80657e+62  -1.79262e+69             0             0   1.79262e+69  -1.79262e+69             0             0             0             0            -0
  -2.01547e+61   5.59326e+59   4.80657e+62  -1.79262e+69             0             0   1.79262e+69  -1.79262e+69             0             0            -0             0            -0
  -2.62027e+61   6.05235e+59   4.82332e+62  -1.79262e+69             0             0   1.79262e+69  -1.79262e+69             0             0            -0             0             0
  -2.62027e+61   6.05235e+59   4.82332e+62  -1.79262e+69             0             0   1.79262e+69  -1.79262e+69             0             0             0             0             0
  -2.62027e+61   6.05235e+59   4.82332e+62   1.79262e+69             0             0   1.79262e+69   1.79262e+69             0             0             0             0            -0
  -2.62027e+61   6.05235e+59   4.82332e+62   1.79262e+69             0             0   1.79262e+69   1.79262e+69             0             0            -0             0            -0
  -2.62027e+61   6.05235e+59   4.82332e+62   1.79262e+69             0             0   1.79262e+69   1.79262e+69             0             0            -0             0             0
  -2.62027e+61   6.05235e+59   4.82332e+62   1.79262e+69             0             0   1.79262e+69   1.79262e+69             0             0             0             0             0
  -2.62027e+61   6.05235e+59   4.82332e+62  -1.79262e+69             0             0   1.79262e+69  -1.79262e+69             0             0             0             0            -0
  -2.62027e+61   6.05235e+59   4.82332e+62  -1.79262e+69             0             0   1.79262e+69  -1.79262e+69             0             0            -0             0            -0
  -3.22507e+61   6.51144e+59   4.84008e+62  -1.79262e+69             0             0   1.79262e+69  -1.79262e+69             0             0            -0             0             0
  -3.22507e+61   6.51144e+59   4.84008e+62  -1.79262e+69             0             0   1.79262e+69  -1.79262e+69             0             0             0             0             0
  -3.22507e+61   6.51144e+59   4.84008e+62   1.79262e+69             0             0   1.79262e+69   1.79262e+69             0             0             0             0            -0
  -3.22507e+61   6.51144e+59   4.84008e+62   1.79262e+69             0             0   1.79262e+69   1.79262e+69             0             0            -0             0            -0
  -3.22507e+61   6.51144e+59   4.84008e+62   1.79262e+69             0             0   1.79262e+69   1.79262e+69             0             0            -0             0             0
  -3.22507e+61   6.51144e+59   4.84008e+62   1.79262e+69             0             0   1.79262e+69   1.79262e+69             0             0             0             0             0
  -3.22507e+61   6.51144e+59   4.84008e+62  -1.79262e+69             0             0   1.79262e+69  -1.79262e+69             0             0             0             0            -0
  -3.22507e+61   6.51144e+59   4.84008e+62  -1.79262e+69             0             0   1.79262e+69  -1.79262e+69             0             0            -0             0            -0
  -3.82987e+61   6.97053e+59   4.85683e+62  -1.79262e+69             0             0   1.79262e+69  -1.79262e+69             0             0            -0             0             0
  -3.82987e+61   6.97053e+59   4.85683e+62  -1.79262e+69             0             0   1.79262e+69  -1.79262e+69             0             0             0             0             0
  -3.82987e+61   6.97053e+59   4.85683e+62   1.79262e+69             0             0   1.79262e+69   1.79262e+69             0             0             0             0            -0
  -3.82987e+61   6.97053e+59   4.85683e+62   1.79262e+69             0             0   1.79262e+69   1.79262e+69             0             0            -0             0            -0
  -6.57526e+61  -8.26542e+59   2.79276e+62   2.44784e+69             0             0   2.44784e+69   2.44784e+69             0             0            -0             0             0
  -6.57526e+61  -8.26542e+59   2.79276e+62   2.44784e+69             0             0   2.44784e+69   2.44784e+69             0             0             0             0             0
  -6.57526e+61  -8.26542e+59   2.79276e+62  -2.44784e+69             0             0   2.44784e+69  -2.44784e+69             0             0             0             0            -0
  -6.57526e+61  -8.26542e+59   2.79276e+62  -2.44784e+69             0             0   2.44784e+69  -2.44784e+69             0             0            -0             0            -0
  -5.74471e+61  -7.16866e+59   2.78775e+62  -2.44784e+69             0             0   2.44784e+69  -2.44784e+69             0             0            -0             0             0
  -5.74471e+61  -7.16866e+59   2.78775e+62  -2.44784e+69             0             0   2.44784e+69  -2.44784e+69             0             0             0             0             0
  -5.74471e+61  -7.16866e+59   2.78775e+62   2.44784e+69             0             0   2.44784e+69   2.44784e+69             0             0             0             0            -0
  -5.74471e+61  -7.16866e+59   2.78775e+62   2.44784e+69             0             0   2.44784e+69   2.44784e+69             0             0            -0             0            -0
  -5.74471e+61  -7.16866e+59   2.78775e+62   2.44784e+69             0             0   2.44784e+69   2.44784e+69             0             0            -0             0             0
  -5.74471e+61  -7.16866e+59   2.78775e+62   2.44784e+69             0             0   2.44784e+69   2.44784e+69             0             0             0             0             0
  -5.74471e+61  -7.16866e+59   2.78775e+62  -2.44784e+69             0             0   2.44784e+69  -2.44784e+69             0             0             0             0            -0
  -5.74471e+61  -7.16866e+59   2.78775e+62  -2.44784e+69             0             0   2.44784e+69  -2.44784e+69             0             0            -0             0            -0
  -4.91415e+61   -6.0719e+59   2.78273e+62  -2.44784e+69             0             0   2.44784e+69  -2.44784e+69             0             0            -0             0             0
  -4.91415e+61   -6.0719e+59   2.78273e+62  -2.44784e+69             0             0   2.44784e+69  -2.44784e+69             0             0             0             0             0
  -4.91415e+61   -6.0719e+59   2.78273e+62   2.44784e+69             0             0   2.44784e+69   2.44784e+69             0             0             0             0            -0
  -4.91415e+61   -6.0719e+59   2.78273e+62   2.44784e+69             0             0   2.44784e+69   2.44784e+69             0             0            -0             0            -0
  -4.91415e+61   -6.0719e+59   2.78273e+62   2.44784e+69             0             0   2.44784e+69   2.44784e+69             0             0            -0             0             0
  -4.91415e+61   -6.0719e+59   2.78273e+62   2.44784e+69             0             0   2.44784e+69   2.44784e+69             0             0             0             0             0
  -4.91415e+61   -6.0719e+59   2.78273e+62  -2.44784e+69             0             0   2.44784e+69  -2.44784e+69             0             0             0             0            -0
  -4.91415e+61   -6.0719e+59   2.78273e+62  -2.44784e+69             0             0   2.44784e+69  -2.44784e+69             0             0            -0             0            -0
  -4.08359e+61  -4.97513e+59   2.77772e+62  -2.44784e+69             0             0   2.44784e+69  -2.44784e+69             0             0            -0             0             0
  -4.08359e+61  -4.97513e+59   2.77772e+62  -2.44784e+69             0             0   2.44784e+69  -2.44784e+69             0             0             0             0             0
  -4.08359e+61  -4.97513e+59   2.77772e+62   2.44784e+69             0             0   2.44784e+69   2.44784e+69             0             0             0             0            -0
  -4.08359e+61  -4.97513e+59   2.77772e+62   2.44784e+69             0             0   2.44784e+69   2.44784e+69             0             0            -0             0            -0
  -4.08359e+61  -4.97513e+59   2.77772e+62   2.44784e+69             0             0   2.44784e+69   2.44784e+69             0             0            -0             0             0
  -4.08359e+61  -4.97513e+59   2.77772e+62   2.44784e+69             0             0   2.44784e+69   2.44784e+69             0             0             0             0             0
  -4.08359e+61  -4.97513e+59   2.77772e+62  -2.44784e+69             0             0   2.44784e+69  -2.44784e+69             0             0             0             0            -0
  -4.08359e+61  -4.97513e+59   2.77772e+62  -2.44784e+69             0             0   2.44784e+69  -2.44784e+69             0             0            -0             0            -0
  -3.25304e+61  -3.87837e+59   2.77271e+62  -2.44784e+69             0             0   2.44784e+69  -2.44784e+69             0             0            -0             0             0
  -3.25304e+61  -3.87837e+59   2.77271e+62  -2.44784e+69             0             0   2.44784e+69  -2.44784e+69             0             0             0             0             0
  -3.25304e+61  -3.87837e+59   2.77271e+62   2.44784e+69             0             0   2.44784e+69   2.44784e+69             0             0             0             0            -0
  -3.25304e+61  -3.87837e+59   2.77271e+62   2.44784e+69             0             0   2.44784e+69   2.44784e+69             0             0            -0             0            -0
  -3.25304e+61  -3.87837e+59   2.77271e+62   2.44784e+69             0             0   2.44784e+69   2.44784e+69             0             0            -0             0             0
  -3.25304e+61  -3.87837e+59   2.77271e+62   2.44784e+69             0             0   2.44784e+69   2.44784e+69             0             0             0             0             0
  -3.25304e+61  -3.87837e+59   2.77271e+62  -2.44784e+69             0             0   2.44784e+69  -2.44784e+69             0             0             0             0            -0
  -3.25304e+61  -3.87837e+59   2.77271e+62  -2.44784e+69             0             0   2.44784e+69  -2.44784e+69             0             0            -0             0            -0
  -2.42248e+61  -2.78161e+59    2.7677e+62  -2.44784e+69             0             0   2.44784e+69  -2.44784e+69             0             0            -0             0             0
  -2.42248e+61  -2.78161e+59    2.7677e+62  -2.44784e+69             0             0   2.44784e+69  -2.44784e+69             0             0             0             0             0
  -2.42248e+61  -2.78161e+59    2.7677e+62   2.44784e+69             0             0   2.44784e+69   2.44784e+69             0             0             0             0            -0
  -2.42248e+61  -2.78161e+59    2.7677e+62   2.44784e+69             0             0   2.44784e+69   2.44784e+69             0             0            -0             0            -0
  -2.42248e+61  -2.78161e+59    2.7677e+62   2.44784e+69             0             0   2.44784e+69   2.44784e+69             0             0            -0             0             0
  -2.42248e+61  -2.78161e+59    2.7677e+62   2.44784e+69             0             0   2.44784e+69   2.44784e+69             0             0             0             0             0
  -2.42248e+61  -2.78161e+59    2.7677e+62  -2.44784e+69             0             0   2.44784e+69  -2.44784e+69             0             0             0             0            -0
  -2.42248e+61  -2.78161e+59    2.7677e+62  -2.44784e+69             0             0   2.44784e+69  -2.44784e+69             0             0            -0             0            -0
  -1.59192e+61  -1.68484e+59   2.76268e+62  -2.44784e+69             0             0   2.44784e+69  -2.44784e+69             0             0            -0             0             0
  -1.59192e+61  -1.68484e+59   2.76268e+62  -2.44784e+69             0             0   2.44784e+69  -2.44784e+69             0             0             0             0             0
  -1.59192e+61  -1.68484e+59   2.76268e+62   2.44784e+69             0             0   2.44784e+69   2.44784e+69             0             0             0             0            -0
  -1.59192e+61  -1.68484e+59   2.76268e+62   2.44784e+69             0             0   2.44784e+69   2.44784e+69             0             0            -0             0            -0
  -1.59192e+61  -1.68484e+59   2.76268e+62   2.44784e+69             0             0   2.44784e+69   2.44784e+69             0             0            -0             0             0
  -1.59192e+61  -1.68484e+59   2.76268e+62   2.44784e+69             0             0   2.44784e+69   2.44784e+69             0             0             0             0             0
  -1.59192e+61  -1.68484e+59   2.76268e+62  -2.44784e+69             0             0   2.44784e+69  -2.44784e+69             0             0             0             0            -0
  -1.59192e+61  -1.68484e+59   2.76268e+62  -2.44784e+69             0             0   2.44784e+69  -2.44784e+69             0             0            -0             0            -0
  -7.61366e+60  -5.88079e+58   2.75767e+62  -2.44784e+69             0             0   2.44784e+69  -2.44784e+69             0             0            -0             0             0
  -7.61366e+60  -5.88079e+58   2.75767e+62  -2.44784e+69             0             0   2.44784e+69  -2.44784e+69             0             0             0             0             0
  -7.61366e+60  -5.88079e+58   2.75767e+62   2.44784e+69             0             0   2.44784e+69   2.44784e+69             0             0             0             0            -0
  -7.61366e+60  -5.88079e+58   2.75767e+62   2.44784e+69             0             0   2.44784e+69   2.44784e+69             0             0            -0             0            -0
  -7.61366e+60  -5.88079e+58   2.75767e+62   2.44784e+69             0             0   2.44784e+69   2.44784e+69             0             0            -0             0             0
  -7.61366e+60  -5.88079e+58   2.75767e+62   2.44784e+69             0             0   2.44784e+69   2.44784e+69             0             0             0             0             0
  -7.61366e+60  -5.88079e+58   2.75767e+62  -2.44784e+69             0             0   2.44784e+69  -2.44784e+69             0             0             0             0            -0
  -7.61366e+60  -5.88079e+58   2.75767e+62  -2.44784e+69             0             0   2.44784e+69  -2.44784e+69             0             0            -0             0            -0
   6.91909e+59   5.08684e+58   2.75266e+62  -2.44784e+69             0             0   2.44784e+69  -2.44784e+69             0             0            -0             0             0
   6.91909e+59   5.08684e+58   2.75266e+62  -2.44784e+69             0             0   2.44784e+69  -2.44784e+69             0             0             0             0             0
   6.91909e+59   5.08684e+58   2.75266e+62   2.44784e+69             0             0   2.44784e+69   2.44784e+69             0             0             0             0            -0
   6.91909e+59   5.08684e+58   2.75266e+62   2.44784e+69             0             0   2.44784e+69   2.44784e+69             0             0            -0             0            -0
   -3.1391e+61   6.92246e+59   5.76451e+62   4.02122e+68             0             0   4.02122e+68   4.02122e+68             0             0            -0             0             0
   -3.1391e+61   6.92246e+59   5.76451e+62   4.02122e+68             0             0   4.02122e+68   4.02122e+68             0             0             0             0             0
   -3.1391e+61   6.92246e+59   5.76451e+62  -4.02122e+68             0             0   4.02122e+68  -4.02122e+68             0             0             0             0            -0
   -3.1391e+61   6.92246e+59   5.76451e+62  -4.02122e+68             0             0   4.02122e+68  -4.02122e+68             0             0            -0             0            -0
  -2.86259e+61   6.68081e+59   5.69506e+62  -4.02122e+68             0             0   4.02122e+68  -4.02122e+68             0             0            -0             0             0
  -2.86259e+61   6.68081e+59   5.69506e+62  -4.02122e+68             0             0   4.02122e+68  -4.02122e+68             0             0             0             0             0
  -2.86259e+61   6.68081e+59   5.69506e+62   4.02122e+68             0             0   4.02122e+68   4.02122e+68             0             0             0             0            -0
  -2.86259e+61   6.68081e+59   5.69506e+62   4.02122e+68             0             0   4.02122e+68   4.02122e+68             0             0            -0             0            -0
  -2.86259e+61   6.68081e+59   5.69506e+62   4.02121e+68             0             0   4.02121e+68   4.02121e+68             0             0            -0             0             0
  -2.86259e+61   6.68081e+59   5.69506e+62   4.02121e+68             0             0   4.02121e+68   4.02121e+68             0             0             0             0             0
  -2.86259e+61   6.68081e+59   5.69506e+62  -4.02121e+68             0             0   4.02121e+68  -4.02121e+68             0             0             0             0            -0
  -2.86259e+61   6.68081e+59   5.69506e+62  -4.02121e+68             0             0   4.02121e+68  -4.02121e+68             0             0            -0             0            -0
  -2.58608e+61   6.43917e+59   5.62561e+62  -4.02121e+68             0             0   4.02121e+68  -4.02121e+68             0             0            -0             0             0
  -2.58608e+61   6.43917e+59   5.62561e+62  -4.02121e+68             0             0   4.02121e+68  -4.02121e+68             0             0             0             0             0
  -2.58608e+61   6.43917e+59   5.62561e+62   4.02121e+68             0             0   4.02121e+68   4.02121e+68             0             0             0             0            -0
  -2.58608e+61   6.43917e+59   5.62561e+62   4.02121e+68             0             0   4.02121e+68   4.02121e+68             0             0            -0             0            -0
  -2.58608e+61   6.43917e+59   5.62561e+62   4.02122e+68             0             0   4.02122e+68   4.02122e+68             0             0            -0             0             0
  -2.58608e+61   6.43917e+59   5.62561e+62   4.02122e+68             0             0   4.02122e+68   4.02122e+68             0             0             0             0             0
  -2.58608e+61   6.43917e+59   5.62561e+62  -4.02122e+68             0             0   4.02122e+68  -4.02122e+68             0             0             0             0            -0
  -2.58608e+61   6.43917e+59   5.62561e+62  -4.02122e+68             0             0   4.02122e+68  -4.02122e+68             0             0            -0             0            -0
  -2.30957e+61   6.19753e+59   5.55616e+62  -4.02122e+68             0             0   4.02122e+68  -4.02122e+68             0             0            -0             0             0
  -2.30957e+61   6.19753e+59   5.55616e+62  -4.02122e+68             0             0   4.02122e+68  -4.02122e+68             0             0             0             0             0
  -2.30957e+61   6.19753e+59   5.55616e+62   4.02122e+68             0             0   4.02122e+68   4.02122e+68             0             0             0             0            -0
  -2.30957e+61   6.19753e+59   5.55616e+62   4.02122e+68             0             0   4.02122e+68   4.02122e+68             0             0            -0             0            -0
  -2.30957e+61   6.19753e+59   5.55616e+62   4.02122e+68             0             0   4.02122e+68   4.02122e+68             0             0            -0             0             0
  -2.30957e+61   6.19753e+59   5.55616e+62   4.02122e+68             0             0   4.02122e+68   4.02122e+68             0             0             0             0             0
  -2.30957e+61   6.19753e+59   5.55616e+62  -4.02122e+68             0             0   4.02122e+68  -4.02122e+68             0             0             0             0            -0
  -2.30957e+61   6.19753e+59   5.55616e+62  -4.02122e+68             0             0   4.02122e+68  -4.02122e+68             0             0            -0             0            -0
  -2.03307e+61   5.95588e+59   5.48671e+62  -4.02122e+68             0             0   4.02122e+68  -4.02122e+68             0             0            -0             0             0
  -2.03307e+61   5.95588e+59   5.48671e+62  -4.02122e+68             0             0   4.02122e+68  -4.02122e+68             0             0             0             0             0
  -2.03307e+61   5.95588e+59   5.48671e+62   4.02122e+68             0             0   4.02122e+68   4.02122e+68             0             0             0             0            -0
  -2.03307e+61   5.95588e+59   5.48671e+62   4.02122e+68             0             0   4.02122e+68   4.02122e+68             0             0            -0             0            -0
  -2.03307e+61   5.95588e+59   5.48671e+62   4.02121e+68             0             0   4.02121e+68   4.02121e+68             0             0            -0             0             0
  -2.03307e+61   5.95588e+59   5.48671e+62   4.02121e+68             0             0   4.02121e+68   4.02121e+68             0             0             0             0             0
  -2.03307e+61   5.95588e+59   5.48671e+62  -4.02121e+68             0             0   4.02121e+68  -4.02121e+68             0             0             0             0            -0
  -2.03307e+61   5.95588e+59   5.48671e+62  -4.02121e+68             0             0   4.02121e+68  -4.02121e+68             0             0            -0             0            -0
  -1.75656e+61   5.71424e+59   5.41727e+62  -4.02121e+68             0             0   4.02121e+68  -4.02121e+68             0             0            -0             0             0
  -1.75656e+61   5.71424e+59   5.41727e+62  -4.02121e+68             0             0   4.02121e+68  -4.02121e+68             0             0             0             0             0
  -1.75656e+61   5.71424e+59   5.41727e+62   4.02121e+68             0             0   4.02121e+68   4.02121e+68             0             0             0             0            -0
  -1.75656e+61   5.71424e+59   5.41727e+62   4.02121e+68             0             0   4.02121e+68   4.02121e+68             0             0            -0             0            -0
  -1.75656e+61   5.71424e+59   5.41727e+62   4.02122e+68             0             0   4.02122e+68   4.02122e+68             0             0            -0             0             0
  -1.75656e+61   5.71424e+59   5.41727e+62   4.02122e+68             0             0   4.02122e+68   4.02122e+68             0             0             0             0             0
  -1.75656e+61   5.71424e+59   5.41727e+62  -4.02122e+68             0             0   4.02122e+68  -4.02122e+68             0             0             0             0            -0
  -1.75656e+61   5.71424e+59   5.41727e+62  -4.02122e+68             0             0   4.02122e+68  -4.02122e+68             0             0            -0             0            -0
  -1.48005e+61    5.4726e+59   5.34782e+62  -4.02122e+68             0             0   4.02122e+68  -4.02122e+68             0             0            -0             0             0
  -1.48005e+61    5.4726e+59   5.34782e+62  -4.02122e+68             0             0   4.02122e+68  -4.02122e+68             0             0             0             0             0
  -1.48005e+61    5.4726e+59   5.34782e+62   4.02122e+68             0             0   4.02122e+68   4.02122e+68             0             0             0             0            -0
  -1.48005e+61    5.4726e+59   5.34782e+62   4.02122e+68             0             0   4.02122e+68   4.02122e+68             0             0            -0             0            -0
  -1.48005e+61    5.4726e+59   5.34782e+62   4.02122e+68             0             0   4.02122e+68   4.02122e+68             0             0            -0             0             0
  -1.48005e+61    5.4726e+59   5.34782e+62   4.02122e+68             0             0   4.02122e+68   4.02122e+68             0             0             0             0             0
  -1.48005e+61    5.4726e+59   5.34782e+62  -4.02122e+68             0             0   4.02122e+68  -4.02122e+68             0             0             0             0            -0
  -1.48005e+61    5.4726e+59   5.34782e+62  -4.02122e+68             0             0   4.02122e+68  -4.02122e+68             0             0            -0             0            -0
  -1.20354e+61   5.23095e+59   5.27837e+62  -4.02122e+68             0             0   4.02122e+68  -4.02122e+68             0             0            -0             0             0
  -1.20354e+61   5.23095e+59   5.27837e+62  -4.02122e+68             0             0   4.02122e+68  -4.02122e+68             0             0             0             0             0
  -1.20354e+61   5.23095e+59   5.27837e+62   4.02122e+68             0             0   4.02122e+68   4.02122e+68             0             0             0             0            -0
  -1.20354e+61   5.23095e+59   5.27837e+62   4.02122e+68             0             0   4.02122e+68   4.02122e+68             0             0            -0             0            -0
  -1.20354e+61   5.23095e+59   5.27837e+62   4.02121e+68             0             0   4.02121e+68   4.02121e+68             0             0            -0             0             0
  -1.20354e+61   5.23095e+59   5.27837e+62   4.02121e+68             0             0   4.02121e+68   4.02121e+68             0             0             0             0             0
  -1.20354e+61   5.23095e+59   5.27837e+62  -4.02121e+68             0             0   4.02121e+68  -4.02121e+68             0             0             0             0            -0
  -1.20354e+61   5.23095e+59   5.27837e+62  -4.02121e+68             0             0   4.02121e+68  -4.02121e+68             0             0            -0             0            -0
  -9.27036e+60   4.98931e+59   5.20892e+62  -4.02121e+68             0             0   4.02121e+68  -4.02121e+68             0             0            -0             0             0
  -9.27036e+60   4.98931e+59   5.20892e+62  -4.02121e+68             0             0   4.02121e+68  -4.02121e+68             0             0             0             0             0
  -9.27036e+60   4.98931e+59   5.20892e+62   4.02121e+68             0             0   4.02121e+68   4.02121e+68             0             0             0             0            -0
  -9.27036e+60   4.98931e+59   5.20892e+62   4.02121e+68             0             0   4.02121e+68   4.02121e+68             0             0            -0             0            -0
  -9.27036e+60   4.98931e+59   5.20892e+62   4.02122e+68             0             0   4.02122e+68   4.02122e+68             0             0            -0             0             0
  -9.27036e+60   4.98931e+59   5.20892e+62   4.02122e+68             0             0   4.02122e+68   4.02122e+68             0             0             0             0             0
  -9.27036e+60   4.98931e+59   5.20892e+62  -4.02122e+68             0             0   4.02122e+68  -4.02122e+68             0             0             0             0            -0
  -9.27036e+60   4.98931e+59   5.20892e+62  -4.02122e+68             0             0   4.02122e+68  -4.02122e+68             0             0            -0             0            -0
  -6.50527e+60   4.74767e+59   5.13948e+62  -4.02122e+68             0             0   4.02122e+68  -4.02122e+68             0             0            -0             0             0
  -6.50527e+60   4.74767e+59   5.13948e+62  -4.02122e+68             0             0   4.02122e+68  -4.02122e+68             0             0             0             0             0
  -6.50527e+60   4.74767e+59   5.13948e+62   4.02122e+68             0             0   4.02122e+68   4.02122e+68             0             0             0             0            -0
  -6.50527e+60   4.74767e+59   5.13948e+62   4.02122e+68             0             0   4.02122e+68   4.02122e+68             0             0            -0             0            -0
  -6.50527e+60   4.74767e+59   5.13948e+62   4.02121e+68             0             0   4.02121e+68   4.02121e+68             0             0            -0             0             0
  -6.50527e+60   4.74767e+59   5.13948e+62   4.02121e+68             0             0   4.02121e+68   4.02121e+68             0             0             0             0             0
  -6.50527e+60   4.74767e+59   5.13948e+62  -4.02121e+68             0             0   4.02121e+68  -4.02121e+68             0             0             0             0            -0
  -6.50527e+60   4.74767e+59   5.13948e+62  -4.02121e+68             0             0   4.02121e+68  -4.02121e+68             0             0            -0             0            -0
   -3.7402e+60   4.50602e+59   5.07003e+62  -4.02121e+68             0             0   4.02121e+68  -4.02121e+68             0             0            -0             0             0
   -3.7402e+60   4.50602e+59   5.07003e+62  -4.02121e+68             0             0   4.02121e+68  -4.02121e+68             0             0             0             0             0
   -3.7402e+60   4.50602e+59   5.07003e+62   4.02121e+68             0             0   4.02121e+68   4.02121e+68             0             0             0             0            -0
   -3.7402e+60   4.50602e+59   5.07003e+62   4.02121e+68             0             0   4.02121e+68   4.02121e+68             0             0            -0             0            -0
   -3.7402e+60   4.50602e+59   5.07003e+62   4.02122e+68             0             0   4.02122e+68   4.02122e+68             0             0            -0             0             0
   -3.7402e+60   4.50602e+59   5.07003e+62   4.02122e+68             0             0   4.02122e+68   4.02122e+68             0             0             0             0             0
   -3.7402e+60   4.50602e+59   5.07003e+62  -4.02122e+68             0             0   4.02122e+68  -4.02122e+68             0             0             0             0            -0
   -3.7402e+60   4.50602e+59   5.07003e+62  -4.02122e+68             0             0   4.02122e+68  -4.02122e+68             0             0            -0             0            -0
  -9.75101e+59   4.26438e+59   5.00058e+62  -4.02122e+68             0             0   4.02122e+68  -4.02122e+68             0             0            -0             0             0
  -9.75101e+59   4.26438e+59   5.00058e+62  -4.02122e+68             0             0   4.02122e+68  -4.02122e+68             0             0             0             0             0
  -9.75101e+59   4.26438e+59   5.00058e+62   4.02122e+68             0             0   4.02122e+68   4.02122e+68             0             0             0             0            -0
  -9.75101e+59   4.26438e+59   5.00058e+62   4.02122e+68             0             0   4.02122e+68   4.02122e+68             0             0            -0             0            -0
  -9.75101e+59   4.26438e+59   5.00058e+62   4.02121e+68             0             0   4.02121e+68   4.02121e+68             0             0            -0             0             0
  -9.75101e+59   4.26438e+59   5.00058e+62   4.02121e+68             0             0   4.02121e+68   4.02121e+68             0             0             0             0             0
  -9.75101e+59   4.26438e+59   5.00058e+62  -4.02121e+68             0             0   4.02121e+68  -4.02121e+68             0             0             0             0            -0
  -9.75101e+59   4.26438e+59   5.00058e+62  -4.02121e+68             0             0   4.02121e+68  -4.02121e+68             0             0            -0             0            -0
   1.78997e+60   4.02274e+59   4.93113e+62  -4.02121e+68             0             0   4.02121e+68  -4.02121e+68             0             0            -0             0             0
   1.78997e+60   4.02274e+59   4.93113e+62  -4.02121e+68             0             0   4.02121e+68  -4.02121e+68             0             0             0             0             0
   1.78997e+60   4.02274e+59   4.93113e+62   4.02121e+68             0             0   4.02121e+68   4.02121e+68             0             0             0             0            -0
   1.78997e+60   4.02274e+59   4.93113e+62   4.02121e+68             0             0   4.02121e+68   4.02121e+68             0             0            -0             0            -0
   1.78997e+60   4.02274e+59   4.93113e+62   4.02121e+68             0             0   4.02121e+68   4.02121e+68             0             0            -0             0             0
   1.78997e+60   4.02274e+59   4.93113e+62   4.02121e+68             0             0   4.02121e+68   4.02121e+68             0             0             0             0             0
   1.78997e+60   4.02274e+59   4.93113e+62  -4.02121e+68             0             0   4.02121e+68  -4.02121e+68             0             0             0             0            -0
   1.78997e+60   4.02274e+59   4.93113e+62  -4.02121e+68             0             0   4.02121e+68  -4.02121e+68             0             0            -0             0            -0
   4.55503e+60   3.78109e+59   4.86168e+62  -4.02121e+68             0             0   4.02121e+68  -4.02121e+68             0             0            -0             0             0
   4.55503e+60   3.78109e+59   4.86168e+62  -4.02121e+68             0             0   4.02121e+68  -4.02121e+68             0             0             0             0             0
   4.55503e+60   3.78109e+59   4.86168e+62   4.02121e+68             0             0   4.02121e+68   4.02121e+68             0             0             0             0            -0
   4.55503e+60   3.78109e+59   4.86168e+62   4.02121e+68             0             0   4.02121e+68   4.02121e+68             0             0            -0             0            -0
   4.55503e+60   3.78109e+59   4.86168e+62   4.02122e+68             0             0   4.02122e+68   4.02122e+68             0             0            -0             0             0
   4.55503e+60   3.78109e+59   4.86168e+62   4.02122e+68             0             0   4.02122e+68   4.02122e+68             0             0             0             0             0
   4.55503e+60   3.78109e+59   4.86168e+62  -4.02122e+68             0             0   4.02122e+68  -4.02122e+68             0             0             0             0            -0
   4.55503e+60   3.78109e+59   4.86168e+62  -4.02122e+68             0             0   4.02122e+68  -4.02122e+68             0             0            -0             0            -0
   7.32014e+60   3.53945e+59   4.79224e+62  -4.02122e+68             0             0   4.02122e+68  -4.02122e+68             0             0            -0             0             0
   7.32014e+60   3.53945e+59   4.79224e+62  -4.02122e+68             0             0   4.02122e+68  -4.02122e+68             0             0             0             0             0
   7.32014e+60   3.53945e+59   4.79224e+62   4.02122e+68             0             0   4.02122e+68   4.02122e+68             0             0             0             0            -0
   7.32014e+60   3.53945e+59   4.79224e+62   4.02122e+68             0             0   4.02122e+68   4.02122e+68             0             0            -0             0            -0
   7.32014e+60   3.53945e+59   4.79224e+62   4.02121e+68             0             0   4.02121e+68   4.02121e+68             0             0            -0             0             0
   7.32014e+60   3.53945e+59   4.79224e+62   4.02121e+68             0             0   4.02121e+68   4.02121e+68             0             0             0             0             0
   7.32014e+60   3.53945e+59   4.79224e+62  -4.02121e+68             0             0   4.02121e+68  -4.02121e+68             0             0             0             0            -0
   7.32014e+60   3.53945e+59   4.79224e+62  -4.02121e+68             0             0   4.02121e+68  -4.02121e+68             0             0            -0             0            -0
   1.00852e+61    3.2978e+59   4.72279e+62  -4.02121e+68             0             0   4.02121e+68  -4.02121e+68             0             0            -0             0             0
   1.00852e+61    3.2978e+59   4.72279e+62  -4.02121e+68             0             0   4.02121e+68  -4.02121e+68             0             0             0             0             0
   1.00852e+61    3.2978e+59   4.72279e+62   4.02121e+68             0             0   4.02121e+68   4.02121e+68             0             0             0             0            -0
   1.00852e+61    3.2978e+59   4.72279e+62   4.02121e+68             0             0   4.02121e+68   4.02121e+68             0             0            -0             0            -0
  -1.57221e+60   8.25481e+59   6.24527e+62    2.8674e+68             0             0    2.8674e+68    2.8674e+68             0             0            -0             0             0
  -1.57221e+60   8.25481e+59   6.24527e+62    2.8674e+68             0             0    2.8674e+68    2.8674e+68             0             0             0             0             0
  -1.57221e+60   8.25481e+59   6.24527e+62   -2.8674e+68             0             0    2.8674e+68   -2.8674e+68             0             0             0             0            -0
  -1.57221e+60   8.25481e+59   6.24527e+62   -2.8674e+68             0             0    2.8674e+68   -2.8674e+68             0             0            -0             0            -0
  -3.56013e+60   8.16599e+59   6.21322e+62   -2.8674e+68             0             0    2.8674e+68   -2.8674e+68             0             0            -0             0             0
  -3.56013e+60   8.16599e+59   6.21322e+62   -2.8674e+68             0             0    2.8674e+68   -2.8674e+68             0             0             0             0             0
  -3.56013e+60   8.16599e+59   6.21322e+62    2.8674e+68             0             0    2.8674e+68    2.8674e+68             0             0             0             0            -0
  -3.56013e+60   8.16599e+59   6.21322e+62    2.8674e+68             0             0    2.8674e+68    2.8674e+68             0             0            -0             0            -0
  -3.56013e+60   8.16599e+59   6.21322e+62    2.8674e+68             0             0    2.8674e+68    2.8674e+68             0             0            -0             0             0
  -3.56013e+60   8.16599e+59   6.21322e+62    2.8674e+68             0             0    2.8674e+68    2.8674e+68             0             0             0             0             0
  -3.56013e+60   8.16599e+59   6.21322e+62   -2.8674e+68             0             0    2.8674e+68   -2.8674e+68             0             0             0             0            -0
  -3.56013e+60   8.16599e+59   6.21322e+62   -2.8674e+68             0             0    2.8674e+68   -2.8674e+68             0             0            -0             0            -0
  -5.54805e+60   8.07716e+59   6.18117e+62   -2.8674e+68             0             0    2.8674e+68   -2.8674e+68             0             0            -0             0             0
  -5.54805e+60   8.07716e+59   6.18117e+62   -2.8674e+68             0             0    2.8674e+68   -2.8674e+68             0             0             0             0             0
  -5.54805e+60   8.07716e+59   6.18117e+62    2.8674e+68             0             0    2.8674e+68    2.8674e+68             0             0             0             0            -0
  -5.54805e+60   8.07716e+59   6.18117e+62    2.8674e+68             0             0    2.8674e+68    2.8674e+68             0             0            -0             0            -0
  -5.54805e+60   8.07716e+59   6.18117e+62    2.8674e+68             0             0    2.8674e+68    2.8674e+68             0             0            -0             0             0
  -5.54805e+60   8.07716e+59   6.18117e+62    2.8674e+68             0             0    2.8674e+68    2.8674e+68             0             0             0             0             0
  -5.54805e+60   8.07716e+59   6.18117e+62   -2.8674e+68             0             0    2.8674e+68   -2.8674e+68             0             0             0             0            -0
  -5.54805e+60   8.07716e+59   6.18117e+62   -2.8674e+68             0             0    2.8674e+68   -2.8674e+68             0             0            -0             0            -0
  -7.53597e+60   7.98834e+59   6.14912e+62   -2.8674e+68             0             0    2.8674e+68   -2.8674e+68             0             0            -0             0             0
  -7.53597e+60   7.98834e+59   6.14912e+62   -2.8674e+68             0             0    2.8674e+68   -2.8674e+68             0             0             0             0             0
  -7.53597e+60   7.98834e+59   6.14912e+62    2.8674e+68             0             0    2.8674e+68    2.8674e+68             0             0             0             0            -0
  -7.53597e+60   7.98834e+59   6.14912e+62    2.8674e+68             0             0    2.8674e+68    2.8674e+68             0             0            -0             0            -0
  -7.53597e+60   7.98834e+59   6.14912e+62    2.8674e+68             0             0    2.8674e+68    2.8674e+68             0             0            -0             0             0
  -7.53597e+60   7.98834e+59   6.14912e+62    2.8674e+68             0             0    2.8674e+68    2.8674e+68             0             0             0             0             0
  -7.53597e+60   7.98834e+59   6.14912e+62   -2.8674e+68             0             0    2.8674e+68   -2.8674e+68             0             0             0             0            -0
  -7.53597e+60   7.98834e+59   6.14912e+62   -2.8674e+68             0             0    2.8674e+68   -2.8674e+68             0             0            -0             0            -0
  -9.52388e+60   7.89952e+59   6.11707e+62   -2.8674e+68             0             0    2.8674e+68   -2.8674e+68             0             0            -0             0             0
  -9.52388e+60   7.89952e+59   6.11707e+62   -2.8674e+68             0             0    2.8674e+68   -2.8674e+68             0             0             0             0             0
  -9.52388e+60   7.89952e+59   6.11707e+62    2.8674e+68             0             0    2.8674e+68    2.8674e+68             0             0             0             0            -0
  -9.52388e+60   7.89952e+59   6.11707e+62    2.8674e+68             0             0    2.8674e+68    2.8674e+68             0             0            -0             0            -0
  -9.52388e+60   7.89952e+59   6.11707e+62    2.8674e+68             0             0    2.8674e+68    2.8674e+68             0             0            -0             0             0
  -9.52388e+60   7.89952e+59   6.11707e+62    2.8674e+68             0             0    2.8674e+68    2.8674e+68             0             0             0             0             0
  -9.52388e+60   7.89952e+59   6.11707e+62   -2.8674e+68             0             0    2.8674e+68   -2.8674e+68             0             0             0             0            -0
  -9.52388e+60   7.89952e+59   6.11707e+62   -2.8674e+68             0             0    2.8674e+68   -2.8674e+68             0             0            -0             0            -0
  -1.15118e+61   7.81069e+59   6.08501e+62   -2.8674e+68             0             0    2.8674e+68   -2.8674e+68             0             0            -0             0             0
  -1.15118e+61   7.81069e+59   6.08501e+62   -2.8674e+68             0             0    2.8674e+68   -2.8674e+68             0             0             0             0             0
  -1.15118e+61   7.81069e+59   6.08501e+62    2.8674e+68             0             0    2.8674e+68    2.8674e+68             0             0             0             0            -0
  -1.15118e+61   7.81069e+59   6.08501e+62    2.8674e+68             0             0    2.8674e+68    2.8674e+68             0             0            -0             0            -0
  -1.15118e+61   7.81069e+59   6.08501e+62    2.8674e+68             0             0    2.8674e+68    2.8674e+68             0             0            -0             0             0
  -1.15118e+61   7.81069e+59   6.08501e+62    2.8674e+68             0             0    2.8674e+68    2.8674e+68             0             0             0             0             0
  -1.15118e+61   7.81069e+59   6.08501e+62   -2.8674e+68             0             0    2.8674e+68   -2.8674e+68             0             0             0             0            -0
  -1.15118e+61   7.81069e+59   6.08501e+62   -2.8674e+68             0             0    2.8674e+68   -2.8674e+68             0             0            -0             0            -0
  -1.34997e+61   7.72187e+59   6.05296e+62   -2.8674e+68             0             0    2.8674e+68   -2.8674e+68             0             0            -0             0             0
  -1.34997e+61   7.72187e+59   6.05296e+62   -2.8674e+68             0             0    2.8674e+68   -2.8674e+68             0             0             0             0             0
  -1.34997e+61   7.72187e+59   6.05296e+62    2.8674e+68             0             0    2.8674e+68    2.8674e+68             0             0             0             0            -0
  -1.34997e+61   7.72187e+59   6.05296e+62    2.8674e+68             0             0    2.8674e+68    2.8674e+68             0             0            -0             0            -0
  -1.34997e+61   7.72187e+59   6.05296e+62    2.8674e+68             0             0    2.8674e+68    2.8674e+68             0             0            -0             0             0
  -1.34997e+61   7.72187e+59   6.05296e+62    2.8674e+68             0             0    2.8674e+68    2.8674e+68             0             0             0             0             0
  -1.34997e+61   7.72187e+59   6.05296e+62   -2.8674e+68             0             0    2.8674e+68   -2.8674e+68             0             0             0             0            -0
  -1.34997e+61   7.72187e+59   6.05296e+62   -2.8674e+68             0             0    2.8674e+68   -2.8674e+68             0             0            -0             0            -0
  -1.54876e+61   7.63305e+59   6.02091e+62   -2.8674e+68             0             0    2.8674e+68   -2.8674e+68             0             0            -0             0             0
  -1.54876e+61   7.63305e+59   6.02091e+62   -2.8674e+68             0             0    2.8674e+68   -2.8674e+68             0             0             0             0             0
  -1.54876e+61   7.63305e+59   6.02091e+62    2.8674e+68             0             0    2.8674e+68    2.8674e+68             0             0             0             0            -0
  -1.54876e+61   7.63305e+59   6.02091e+62    2.8674e+68             0             0    2.8674e+68    2.8674e+68             0             0            -0             0            -0
  -1.54876e+61   7.63305e+59   6.02091e+62   2.86741e+68             0             0   2.86741e+68   2.86741e+68             0             0            -0             0             0
  -1.54876e+61   7.63305e+59   6.02091e+62   2.86741e+68             0             0   2.86741e+68   2.86741e+68             0             0             0             0             0
  -1.54876e+61   7.63305e+59   6.02091e+62  -2.86741e+68             0             0   2.86741e+68  -2.86741e+68             0             0             0             0            -0
  -1.54876e+61   7.63305e+59   6.02091e+62  -2.86741e+68             0             0   2.86741e+68  -2.86741e+68             0             0            -0             0            -0
  -1.74756e+61   7.54422e+59   5.98886e+62  -2.86741e+68             0             0   2.86741e+68  -2.86741e+68             0             0            -0             0             0
  -1.74756e+61   7.54422e+59   5.98886e+62  -2.86741e+68             0             0   2.86741e+68  -2.86741e+68             0             0             0             0             0
  -1.74756e+61   7.54422e+59   5.98886e+62   2.86741e+68             0             0   2.86741e+68   2.86741e+68             0             0             0             0            -0
  -1.74756e+61   7.54422e+59   5.98886e+62   2.86741e+68             0             0   2.86741e+68   2.86741e+68             0             0            -0             0            -0
  -1.74756e+61   7.54422e+59   5.98886e+62    2.8674e+68             0             0    2.8674e+68    2.8674e+68             0             0            -0             0             0
  -1.74756e+61   7.54422e+59   5.98886e+62    2.8674e+68             0             0    2.8674e+68    2.8674e+68             0             0             0             0             0
  -1.74756e+61   7.54422e+59   5.98886e+62   -2.8674e+68             0             0    2.8674e+68   -2.8674e+68             0             0             0             0            -0
  -1.74756e+61   7.54422e+59   5.98886e+62   -2.8674e+68             0             0    2.8674e+68   -2.8674e+68             0             0            -0             0            -0
  -1.94635e+61    7.4554e+59   5.95681e+62   -2.8674e+68             0             0    2.8674e+68   -2.8674e+68             0             0            -0             0             0
  -1.94635e+61    7.4554e+59   5.95681e+62   -2.8674e+68             0             0    2.8674e+68   -2.8674e+68             0             0             0             0             0
  -1.94635e+61    7.4554e+59   5.95681e+62    2.8674e+68             0             0    2.8674e+68    2.8674e+68             0             0             0             0            -0
  -1.94635e+61    7.4554e+59   5.95681e+62    2.8674e+68             0             0    2.8674e+68    2.8674e+68             0             0            -0             0            -0
  -1.94635e+61    7.4554e+59   5.95681e+62    2.8674e+68             0             0    2.8674e+68    2.8674e+68             0             0            -0             0             0
  -1.94635e+61    7.4554e+59   5.95681e+62    2.8674e+68             0             0    2.8674e+68    2.8674e+68             0             0             0             0             0
  -1.94635e+61    7.4554e+59   5.95681e+62   -2.8674e+68             0             0    2.8674e+68   -2.8674e+68             0             0             0             0            -0
  -1.94635e+61    7.4554e+59   5.95681e+62   -2.8674e+68             0             0    2.8674e+68   -2.8674e+68             0             0            -0             0            -0
  -2.14514e+61   7.36658e+59   5.92476e+62   -2.8674e+68             0             0    2.8674e+68   -2.8674e+68             0             0            -0             0             0
  -2.14514e+61   7.36658e+59   5.92476e+62   -2.8674e+68             0             0    2.8674e+68   -2.8674e+68             0             0             0             0             0
  -2.14514e+61   7.36658e+59   5.92476e+62    2.8674e+68             0             0    2.8674e+68    2.8674e+68             0             0             0             0            -0
  -2.14514e+61   7.36658e+59   5.92476e+62    2.8674e+68             0             0    2.8674e+68    2.8674e+68             0             0            -0             0            -0
  -2.14514e+61   7.36658e+59   5.92476e+62   2.86741e+68             0             0   2.86741e+68   2.86741e+68             0             0            -0             0             0
  -2.14514e+61   7.36658e+59   5.92476e+62   2.86741e+68             0             0   2.86741e+68   2.86741e+68             0             0             0             0             0
  -2.14514e+61   7.36658e+59   5.92476e+62  -2.86741e+68             0             0   2.86741e+68  -2.86741e+68             0             0             0             0            -0
  -2.14514e+61   7.36658e+59   5.92476e+62  -2.86741e+68             0             0   2.86741e+68  -2.86741e+68             0             0            -0             0            -0
  -2.34393e+61   7.27775e+59   5.89271e+62  -2.86741e+68             0             0   2.86741e+68  -2.86741e+68             0             0            -0             0             0
  -2.34393e+61   7.27775e+59   5.89271e+62  -2.86741e+68             0             0   2.86741e+68  -2.86741e+68             0             0             0             0             0
  -2.34393e+61   7.27775e+59   5.89271e+62   2.86741e+68             0             0   2.86741e+68   2.86741e+68             0             0             0             0            -0
  -2.34393e+61   7.27775e+59   5.89271e+62   2.86741e+68             0             0   2.86741e+68   2.86741e+68             0             0            -0             0            -0
  -2.34393e+61   7.27775e+59   5.89271e+62    2.8674e+68             0             0    2.8674e+68    2.8674e+68             0             0            -0             0             0
  -2.34393e+61   7.27775e+59   5.89271e+62    2.8674e+68             0             0    2.8674e+68    2.8674e+68             0             0             0             0             0
  -2.34393e+61   7.27775e+59   5.89271e+62   -2.8674e+68             0             0    2.8674e+68   -2.8674e+68             0             0             0             0            -0
  -2.34393e+61   7.27775e+59   5.89271e+62   -2.8674e+68             0             0    2.8674e+68   -2.8674e+68             0             0            -0             0            -0
  -2.54272e+61   7.18893e+59   5.86066e+62   -2.8674e+68             0             0    2.8674e+68   -2.8674e+68             0             0            -0             0             0
  -2.54272e+61   7.18893e+59   5.86066e+62   -2.8674e+68             0             0    2.8674e+68   -2.8674e+68             0             0             0             0             0
  -2.54272e+61   7.18893e+59   5.86066e+62    2.8674e+68             0             0    2.8674e+68    2.8674e+68             0             0             0             0            -0
  -2.54272e+61   7.18893e+59   5.86066e+62    2.8674e+68             0             0    2.8674e+68    2.8674e+68             0             0            -0             0            -0
  -2.54272e+61   7.18893e+59   5.86066e+62    2.8674e+68             0             0    2.8674e+68    2.8674e+68             0             0            -0             0             0
  -2.54272e+61   7.18893e+59   5.86066e+62    2.8674e+68             0             0    2.8674e+68    2.8674e+68             0             0             0             0             0
  -2.54272e+61   7.18893e+59   5.86066e+62   -2.8674e+68             0             0    2.8674e+68   -2.8674e+68             0             0             0             0            -0
  -2.54272e+61   7.18893e+59   5.86066e+62   -2.8674e+68             0             0    2.8674e+68   -2.8674e+68             0             0            -0             0            -0
  -2.74151e+61   7.10011e+59   5.82861e+62   -2.8674e+68             0             0    2.8674e+68   -2.8674e+68             0             0            -0             0             0
  -2.74151e+61   7.10011e+59   5.82861e+62   -2.8674e+68             0             0    2.8674e+68   -2.8674e+68             0             0             0             0             0
  -2.74151e+61   7.10011e+59   5.82861e+62    2.8674e+68             0             0    2.8674e+68    2.8674e+68             0             0             0             0            -0
  -2.74151e+61   7.10011e+59   5.82861e+62    2.8674e+68             0             0    2.8674e+68    2.8674e+68             0             0            -0             0            -0
  -2.74151e+61   7.10011e+59   5.82861e+62   2.86741e+68             0             0   2.86741e+68   2.86741e+68             0             0            -0             0             0
  -2.74151e+61   7.10011e+59   5.82861e+62   2.86741e+68             0             0   2.86741e+68   2.86741e+68             0             0             0             0             0
  -2.74151e+61   7.10011e+59   5.82861e+62  -2.86741e+68             0             0   2.86741e+68  -2.86741e+68             0             0             0             0            -0
  -2.74151e+61   7.10011e+59   5.82861e+62  -2.86741e+68             0             0   2.86741e+68  -2.86741e+68             0             0            -0             0            -0
  -2.94031e+61   7.01128e+59   5.79656e+62  -2.86741e+68             0             0   2.86741e+68  -2.86741e+68             0             0            -0             0             0
  -2.94031e+61   7.01128e+59   5.79656e+62  -2.86741e+68             0             0   2.86741e+68  -2.86741e+68             0             0             0             0             0
  -2.94031e+61   7.01128e+59   5.79656e+62   2.86741e+68             0             0   2.86741e+68   2.86741e+68             0             0             0             0            -0
  -2.94031e+61   7.01128e+59   5.79656e+62   2.86741e+68             0             0   2.86741e+68   2.86741e+68             0             0            -0             0            -0
  -2.94031e+61   7.01128e+59   5.79656e+62    2.8674e+68             0             0    2.8674e+68    2.8674e+68             0             0            -0             0             0
  -2.94031e+61   7.01128e+59   5.79656e+62    2.8674e+68             0             0    2.8674e+68    2.8674e+68             0             0             0             0             0
  -2.94031e+61   7.01128e+59   5.79656e+62   -2.8674e+68             0             0    2.8674e+68   -2.8674e+68             0             0             0             0            -0
  -2.94031e+61   7.01128e+59   5.79656e+62   -2.8674e+68             0             0    2.8674e+68   -2.8674e+68             0             0            -0             0            -0
   -3.1391e+61   6.92246e+59   5.76451e+62   -2.8674e+68             0             0    2.8674e+68   -2.8674e+68             0             0            -0             0             0
   -3.1391e+61   6.92246e+59   5.76451e+62   -2.8674e+68             0             0    2.8674e+68   -2.8674e+68             0             0             0             0             0
   -3.1391e+61   6.92246e+59   5.76451e+62    2.8674e+68             0             0    2.8674e+68    2.8674e+68             0             0             0             0            -0
   -3.1391e+61   6.92246e+59   5.76451e+62    2.8674e+68             0             0    2.8674e+68    2.8674e+68             0             0            -0             0            -0
  -1.57221e+60   8.25481e+59   6.24527e+62   5.46773e+68             0             0   5.46773e+68   5.46773e+68             0             0            -0             0             0
  -1.57221e+60   8.25481e+59   6.24527e+62   5.46773e+68             0             0   5.46773e+68   5.46773e+68             0             0             0             0             0
  -1.57221e+60   8.25481e+59   6.24527e+62  -5.46773e+68             0             0   5.46773e+68  -5.46773e+68             0             0             0             0            -0
  -1.57221e+60   8.25481e+59   6.24527e+62  -5.46773e+68             0             0   5.46773e+68  -5.46773e+68             0             0            -0             0            -0
  -3.41316e+60   8.35719e+59   6.25134e+62  -5.46773e+68             0             0   5.46773e+68  -5.46773e+68             0             0            -0             0             0
  -3.41316e+60   8.35719e+59   6.25134e+62  -5.46773e+68             0             0   5.46773e+68  -5.46773e+68             0             0             0             0             0
  -3.41316e+60   8.35719e+59   6.25134e+62   5.46773e+68             0             0   5.46773e+68   5.46773e+68             0             0             0             0            -0
  -3.41316e+60   8.35719e+59   6.25134e+62   5.46773e+68             0             0   5.46773e+68   5.46773e+68             0             0            -0             0            -0
  -3.41316e+60   8.35719e+59   6.25134e+62   5.46773e+68             0             0   5.46773e+68   5.46773e+68             0             0            -0             0             0
  -3.41316e+60   8.35719e+59   6.25134e+62   5.46773e+68             0             0   5.46773e+68   5.46773e+68             0             0             0             0             0
  -3.41316e+60   8.35719e+59   6.25134e+62  -5.46773e+68             0             0   5.46773e+68  -5.46773e+68             0             0             0             0            -0
  -3.41316e+60   8.35719e+59   6.25134e+62  -5.46773e+68             0             0   5.46773e+68  -5.46773e+68             0             0            -0             0            -0
  -5.25412e+60   8.45956e+59   6.25741e+62  -5.46773e+68             0             0   5.46773e+68  -5.46773e+68             0             0            -0             0             0
  -5.25412e+60   8.45956e+59   6.25741e+62  -5.46773e+68             0             0   5.46773e+68  -5.46773e+68             0             0             0             0             0
  -5.25412e+60   8.45956e+59   6.25741e+62   5.46773e+68             0             0   5.46773e+68   5.46773e+68             0             0             0             0            -0
  -5.25412e+60   8.45956e+59   6.25741e+62   5.46773e+68             0             0   5.46773e+68   5.46773e+68             0             0            -0             0            -0
  -5.25412e+60   8.45956e+59   6.25741e+62   5.46773e+68             0             0   5.46773e+68   5.46773e+68             0             0            -0             0             0
  -5.25412e+60   8.45956e+59   6.25741e+62   5.46773e+68             0             0   5.46773e+68   5.46773e+68             0             0             0             0             0
  -5.25412e+60   8.45956e+59   6.25741e+62  -5.46773e+68             0             0   5.46773e+68  -5.46773e+68             0             0             0             0            -0
  -5.25412e+60   8.45956e+59   6.25741e+62  -5.46773e+68             0             0   5.46773e+68  -5.46773e+68             0             0            -0             0            -0
  -7.09507e+60   8.56194e+59   6.26348e+62  -5.46773e+68             0             0   5.46773e+68  -5.46773e+68             0             0            -0             0             0
  -7.09507e+60   8.56194e+59   6.26348e+62  -5.46773e+68             0             0   5.46773e+68  -5.46773e+68             0             0             0             0             0
  -7.09507e+60   8.56194e+59   6.26348e+62   5.46773e+68             0             0   5.46773e+68   5.46773e+68             0             0             0             0            -0
  -7.09507e+60   8.56194e+59   6.26348e+62   5.46773e+68             0             0   5.46773e+68   5.46773e+68             0             0            -0             0            -0
  -7.09507e+60   8.56194e+59   6.26348e+62   5.46773e+68             0             0   5.46773e+68   5.46773e+68             0             0            -0             0             0
  -7.09507e+60   8.56194e+59   6.26348e+62   5.46773e+68             0             0   5.46773e+68   5.46773e+68             0             0             0             0             0
  -7.09507e+60   8.56194e+59   6.26348e+62  -5.46773e+68             0             0   5.46773e+68  -5.46773e+68             0             0             0             0            -0
  -7.09507e+60   8.56194e+59   6.26348e+62  -5.46773e+68             0             0   5.46773e+68  -5.46773e+68             0             0            -0             0            -0
  -8.93602e+60   8.66432e+59   6.26955e+62  -5.46773e+68             0             0   5.46773e+68  -5.46773e+68             0             0            -0             0             0
  -8.93602e+60   8.66432e+59   6.26955e+62  -5.46773e+68             0             0   5.46773e+68  -5.46773e+68             0             0             0             0             0
  -8.93602e+60   8.66432e+59   6.26955e+62   5.46773e+68             0             0   5.46773e+68   5.46773e+68             0             0             0             0            -0
  -8.93602e+60   8.66432e+59   6.26955e+62   5.46773e+68             0             0   5.46773e+68   5.46773e+68             0             0            -0             0            -0
  -8.93602e+60   8.66432e+59   6.26955e+62   5.46773e+68             0             0   5.46773e+68   5.46773e+68             0             0            -0             0             0
  -8.93602e+60   8.66432e+59   6.26955e+62   5.46773e+68             0             0   5.46773e+68   5.46773e+68             0             0             0             0             0
  -8.93602e+60   8.66432e+59   6.26955e+62  -5.46773e+68             0             0   5.46773e+68  -5.46773e+68             0             0             0             0            -0
  -8.93602e+60   8.66432e+59   6.26955e+62  -5.46773e+68             0             0   5.46773e+68  -5.46773e+68             0             0            -0             0            -0
   -1.0777e+61   8.76669e+59   6.27562e+62  -5.46773e+68             0             0   5.46773e+68  -5.46773e+68             0             0            -0             0             0
   -1.0777e+61   8.76669e+59   6.27562e+62  -5.46773e+68             0             0   5.46773e+68  -5.46773e+68             0             0             0             0             0
   -1.0777e+61   8.76669e+59   6.27562e+62   5.46773e+68             0             0   5.46773e+68   5.46773e+68             0             0             0             0            -0
   -1.0777e+61   8.76669e+59   6.27562e+62   5.46773e+68             0             0   5.46773e+68   5.46773e+68             0             0            -0             0            -0
   -1.0777e+61   8.76669e+59   6.27562e+62   5.46773e+68             0             0   5.46773e+68   5.46773e+68             0             0            -0             0             0
   -1.0777e+61   8.76669e+59   6.27562e+62   5.46773e+68             0             0   5.46773e+68   5.46773e+68             0             0             0             0             0
   -1.0777e+61   8.76669e+59   6.27562e+62  -5.46773e+68             0             0   5.46773e+68  -5.46773e+68             0             0             0             0            -0
   -1.0777e+61   8.76669e+59   6.27562e+62  -5.46773e+68             0             0   5.46773e+68  -5.46773e+68             0             0            -0             0            -0
  -1.26179e+61   8.86907e+59   6.28169e+62  -5.46773e+68             0             0   5.46773e+68  -5.46773e+68             0             0            -0             0             0
  -1.26179e+61   8.86907e+59   6.28169e+62  -5.46773e+68             0             0   5.46773e+68  -5.46773e+68             0             0             0             0             0
  -1.26179e+61   8.86907e+59   6.28169e+62   5.46773e+68             0             0   5.46773e+68   5.46773e+68             0             0             0             0            -0
  -1.26179e+61   8.86907e+59   6.28169e+62   5.46773e+68             0             0   5.46773e+68   5.46773e+68             0             0            -0             0            -0
  -1.26179e+61   8.86907e+59   6.28169e+62   5.46773e+68             0             0   5.46773e+68   5.46773e+68             0             0            -0             0             0
  -1.26179e+61   8.86907e+59   6.28169e+62   5.46773e+68             0             0   5.46773e+68   5.46773e+68             0             0             0             0             0
  -1.26179e+61   8.86907e+59   6.28169e+62  -5.46773e+68             0             0   5.46773e+68  -5.46773e+68             0             0             0             0            -0
  -1.26179e+61   8.86907e+59   6.28169e+62  -5.46773e+68             0             0   5.46773e+68  -5.46773e+68             0             0            -0             0            -0
  -1.44589e+61   8.97144e+59   6.28776e+62  -5.46773e+68             0             0   5.46773e+68  -5.46773e+68             0             0            -0             0             0
  -1.44589e+61   8.97144e+59   6.28776e+62  -5.46773e+68             0             0   5.46773e+68  -5.46773e+68             0             0             0             0             0
  -1.44589e+61   8.97144e+59   6.28776e+62   5.46773e+68             0             0   5.46773e+68   5.46773e+68             0             0             0             0            -0
  -1.44589e+61   8.97144e+59   6.28776e+62   5.46773e+68             0             0   5.46773e+68   5.46773e+68             0             0            -0             0            -0
  -1.44589e+61   8.97144e+59   6.28776e+62   5.46773e+68             0             0   5.46773e+68   5.46773e+68             0             0            -0             0             0
  -1.44589e+61   8.97144e+59   6.28776e+62   5.46773e+68             0             0   5.46773e+68   5.46773e+68             0             0             0             0             0
  -1.44589e+61   8.97144e+59   6.28776e+62  -5.46773e+68             0             0   5.46773e+68  -5.46773e+68             0             0             0             0            -0
  -1.44589e+61   8.97144e+59   6.28776e+62  -5.46773e+68             0             0   5.46773e+68  -5.46773e+68             0             0            -0             0            -0
  -1.62998e+61   9.07382e+59   6.29383e+62  -5.46773e+68             0             0   5.46773e+68  -5.46773e+68             0             0            -0             0             0
  -1.62998e+61   9.07382e+59   6.29383e+62  -5.46773e+68             0             0   5.46773e+68  -5.46773e+68             0             0             0             0             0
  -1.62998e+61   9.07382e+59   6.29383e+62   5.46773e+68             0             0   5.46773e+68   5.46773e+68             0             0             0             0            -0
  -1.62998e+61   9.07382e+59   6.29383e+62   5.46773e+68             0             0   5.46773e+68   5.46773e+68             0             0            -0             0            -0
   1.00852e+61    3.2978e+59   4.72279e+62   6.09145e+66             0             0   6.09145e+66   6.09145e+66             0             0            -0             0             0
   1.00852e+61    3.2978e+59   4.72279e+62   6.09145e+66             0             0   6.09145e+66   6.09145e+66             0             0             0             0             0
   1.00852e+61    3.2978e+59   4.72279e+62  -6.09145e+66             0             0   6.09145e+66  -6.09145e+66             0             0             0             0            -0
   1.00852e+61    3.2978e+59   4.72279e+62  -6.09145e+66             0             0   6.09145e+66  -6.09145e+66             0             0            -0             0            -0
   9.36264e+60   3.08326e+59   4.57124e+62  -6.09145e+66             0             0   6.09145e+66  -6.09145e+66             0             0            -0             0             0
   9.36264e+60   3.08326e+59   4.57124e+62  -6.09145e+66             0             0   6.09145e+66  -6.09145e+66             0             0             0             0             0
   9.36264e+60   3.08326e+59   4.57124e+62   6.09145e+66             0             0   6.09145e+66   6.09145e+66             0             0             0             0            -0
   9.36264e+60   3.08326e+59   4.57124e+62   6.09145e+66             0             0   6.09145e+66   6.09145e+66             0             0            -0             0            -0
   9.36264e+60   3.08326e+59   4.57124e+62   6.09143e+66             0             0   6.09143e+66   6.09143e+66             0             0            -0             0             0
   9.36264e+60   3.08326e+59   4.57124e+62   6.09143e+66             0             0   6.09143e+66   6.09143e+66             0             0             0             0             0
   9.36264e+60   3.08326e+59   4.57124e+62  -6.09143e+66             0             0   6.09143e+66  -6.09143e+66             0             0             0             0            -0
   9.36264e+60   3.08326e+59   4.57124e+62  -6.09143e+66             0             0   6.09143e+66  -6.09143e+66             0             0            -0             0            -0
   8.64008e+60   2.86871e+59   4.41969e+62  -6.09143e+66             0             0   6.09143e+66  -6.09143e+66             0             0            -0             0             0
   8.64008e+60   2.86871e+59   4.41969e+62  -6.09143e+66             0             0   6.09143e+66  -6.09143e+66             0             0             0             0             0
   8.64008e+60   2.86871e+59   4.41969e+62   6.09143e+66             0             0   6.09143e+66   6.09143e+66             0             0             0             0            -0
   8.64008e+60   2.86871e+59   4.41969e+62   6.09143e+66             0             0   6.09143e+66   6.09143e+66             0             0            -0             0            -0
   8.64008e+60   2.86871e+59   4.41969e+62   6.09145e+66             0             0   6.09145e+66   6.09145e+66             0             0            -0             0             0
   8.64008e+60   2.86871e+59   4.41969e+62   6.09145e+66             0             0   6.09145e+66   6.09145e+66             0             0             0             0             0
   8.64008e+60   2.86871e+59   4.41969e+62  -6.09145e+66             0             0   6.09145e+66  -6.09145e+66             0             0             0             0            -0
   8.64008e+60   2.86871e+59   4.41969e+62  -6.09145e+66             0             0   6.09145e+66  -6.09145e+66             0             0            -0             0            -0
   7.91752e+60   2.65416e+59   4.26814e+62  -6.09145e+66             0             0   6.09145e+66  -6.09145e+66             0             0            -0             0             0
   7.91752e+60   2.65416e+59   4.26814e+62  -6.09145e+66             0             0   6.09145e+66  -6.09145e+66             0             0             0             0             0
   7.91752e+60   2.65416e+59   4.26814e+62   6.09145e+66             0             0   6.09145e+66   6.09145e+66             0             0             0             0            -0
   7.91752e+60   2.65416e+59   4.26814e+62   6.09145e+66             0             0   6.09145e+66   6.09145e+66             0             0            -0             0            -0
   7.91752e+60   2.65416e+59   4.26814e+62   6.09143e+66             0             0   6.09143e+66   6.09143e+66             0             0            -0             0             0
   7.91752e+60   2.65416e+59   4.26814e+62   6.09143e+66             0             0   6.09143e+66   6.09143e+66             0             0             0             0             0
   7.91752e+60   2.65416e+59   4.26814e+62  -6.09143e+66             0             0   6.09143e+66  -6.09143e+66             0             0             0             0            -0
   7.91752e+60   2.65416e+59   4.26814e+62  -6.09143e+66             0             0   6.09143e+66  -6.09143e+66             0             0            -0             0            -0
   7.19496e+60   2.43961e+59   4.11659e+62  -6.09143e+66             0             0   6.09143e+66  -6.09143e+66             0             0            -0             0             0
   7.19496e+60   2.43961e+59   4.11659e+62  -6.09143e+66             0             0   6.09143e+66  -6.09143e+66             0             0             0             0             0
   7.19496e+60   2.43961e+59   4.11659e+62   6.09143e+66             0             0   6.09143e+66   6.09143e+66             0             0             0             0            -0
   7.19496e+60   2.43961e+59   4.11659e+62   6.09143e+66             0             0   6.09143e+66   6.09143e+66             0             0            -0             0            -0
   7.19496e+60   2.43961e+59   4.11659e+62   6.09145e+66             0             0   6.09145e+66   6.09145e+66             0             0            -0             0             0
   7.19496e+60   2.43961e+59   4.11659e+62   6.09145e+66             0             0   6.09145e+66   6.09145e+66             0             0             0             0             0
   7.19496e+60   2.43961e+59   4.11659e+62  -6.09145e+66             0             0   6.09145e+66  -6.09145e+66             0             0             0             0            -0
   7.19496e+60   2.43961e+59   4.11659e+62  -6.09145e+66             0             0   6.09145e+66  -6.09145e+66             0             0            -0             0            -0
    6.4724e+60   2.22506e+59   3.96504e+62  -6.09145e+66             0             0   6.09145e+66  -6.09145e+66             0             0            -0             0             0
    6.4724e+60   2.22506e+59   3.96504e+62  -6.09145e+66             0             0   6.09145e+66  -6.09145e+66             0             0             0             0             0
    6.4724e+60   2.22506e+59   3.96504e+62   6.09145e+66             0             0   6.09145e+66   6.09145e+66             0             0             0             0            -0
    6.4724e+60   2.22506e+59   3.96504e+62   6.09145e+66             0             0   6.09145e+66   6.09145e+66             0             0            -0             0            -0
    6.4724e+60   2.22506e+59   3.96504e+62   6.09143e+66             0             0   6.09143e+66   6.09143e+66             0             0            -0             0             0
    6.4724e+60   2.22506e+59   3.96504e+62   6.09143e+66             0             0   6.09143e+66   6.09143e+66             0             0             0             0             0
    6.4724e+60   2.22506e+59   3.96504e+62  -6.09143e+66             0             0   6.09143e+66  -6.09143e+66             0             0             0             0            -0
    6.4724e+60   2.22506e+59   3.96504e+62  -6.09143e+66             0             0   6.09143e+66  -6.09143e+66             0             0            -0             0            -0
   5.74984e+60   2.01052e+59    3.8135e+62  -6.09143e+66             0             0   6.09143e+66  -6.09143e+66             0             0            -0             0             0
   5.74984e+60   2.01052e+59    3.8135e+62  -6.09143e+66             0             0   6.09143e+66  -6.09143e+66             0             0             0             0             0
   5.74984e+60   2.01052e+59    3.8135e+62   6.09143e+66             0             0   6.09143e+66   6.09143e+66             0             0             0             0            -0
   5.74984e+60   2.01052e+59    3.8135e+62   6.09143e+66             0             0   6.09143e+66   6.09143e+66             0             0            -0             0            -0
   5.74984e+60   2.01052e+59    3.8135e+62   6.09145e+66             0             0   6.09145e+66   6.09145e+66             0             0            -0             0             0
   5.74984e+60   2.01052e+59    3.8135e+62   6.09145e+66             0             0   6.09145e+66   6.09145e+66             0             0             0             0             0
   5.74984e+60   2.01052e+59    3.8135e+62  -6.09145e+66             0             0   6.09145e+66  -6.09145e+66             0             0             0             0            -0
   5.74984e+60   2.01052e+59    3.8135e+62  -6.09145e+66             0             0   6.09145e+66  -6.09145e+66             0             0            -0             0            -0
   5.02727e+60   1.79597e+59   3.66195e+62  -6.09145e+66             0             0   6.09145e+66  -6.09145e+66             0             0            -0             0             0
   5.02727e+60   1.79597e+59   3.66195e+62  -6.09145e+66             0             0   6.09145e+66  -6.09145e+66             0             0             0             0             0
   5.02727e+60   1.79597e+59   3.66195e+62   6.09145e+66             0             0   6.09145e+66   6.09145e+66             0             0             0             0            -0
   5.02727e+60   1.79597e+59   3.66195e+62   6.09145e+66             0             0   6.09145e+66   6.09145e+66             0             0            -0             0            -0
   5.02727e+60   1.79597e+59   3.66195e+62   6.09143e+66             0             0   6.09143e+66   6.09143e+66             0             0            -0             0             0
   5.02727e+60   1.79597e+59   3.66195e+62   6.09143e+66             0             0   6.09143e+66   6.09143e+66             0             0             0             0             0
   5.02727e+60   1.79597e+59   3.66195e+62  -6.09143e+66             0             0   6.09143e+66  -6.09143e+66             0             0             0             0            -0
   5.02727e+60   1.79597e+59   3.66195e+62  -6.09143e+66             0             0   6.09143e+66  -6.09143e+66             0             0            -0             0            -0
   4.30471e+60   1.58142e+59    3.5104e+62  -6.09143e+66             0             0   6.09143e+66  -6.09143e+66             0             0            -0             0             0
   4.30471e+60   1.58142e+59    3.5104e+62  -6.09143e+66             0             0   6.09143e+66  -6.09143e+66             0             0             0             0             0
   4.30471e+60   1.58142e+59    3.5104e+62   6.09143e+66             0             0   6.09143e+66   6.09143e+66             0             0             0             0            -0
   4.30471e+60   1.58142e+59    3.5104e+62   6.09143e+66             0             0   6.09143e+66   6.09143e+66             0             0            -0             0            -0
   4.30471e+60   1.58142e+59    3.5104e+62   6.09145e+66             0             0   6.09145e+66   6.09145e+66             0             0            -0             0             0
   4.30471e+60   1.58142e+59    3.5104e+62   6.09145e+66             0             0   6.09145e+66   6.09145e+66             0             0             0             0             0
   4.30471e+60   1.58142e+59    3.5104e+62  -6.09145e+66             0             0   6.09145e+66  -6.09145e+66             0             0             0             0            -0
   4.30471e+60   1.58142e+59    3.5104e+62  -6.09145e+66             0             0   6.09145e+66  -6.09145e+66             0             0            -0             0            -0
   3.58215e+60   1.36687e+59   3.35885e+62  -6.09145e+66             0             0   6.09145e+66  -6.09145e+66             0             0            -0             0             0
   3.58215e+60   1.36687e+59   3.35885e+62  -6.09145e+66             0             0   6.09145e+66  -6.09145e+66             0             0             0             0             0
   3.58215e+60   1.36687e+59   3.35885e+62   6.09145e+66             0             0   6.09145e+66   6.09145e+66             0             0             0             0            -0
   3.58215e+60   1.36687e+59   3.35885e+62   6.09145e+66             0             0   6.09145e+66   6.09145e+66             0             0            -0             0            -0
   3.58215e+60   1.36687e+59   3.35885e+62   6.09143e+66             0             0   6.09143e+66   6.09143e+66             0             0            -0             0             0
   3.58215e+60   1.36687e+59   3.35885e+62   6.09143e+66             0             0   6.09143e+66   6.09143e+66             0             0             0             0             0
   3.58215e+60   1.36687e+59   3.35885e+62  -6.09143e+66             0             0   6.09143e+66  -6.09143e+66             0             0             0             0            -0
   3.58215e+60   1.36687e+59   3.35885e+62  -6.09143e+66             0             0   6.09143e+66  -6.09143e+66             0             0            -0             0            -0
   2.85959e+60   1.15233e+59    3.2073e+62  -6.09143e+66             0             0   6.09143e+66  -6.09143e+66             0             0            -0             0             0
   2.85959e+60   1.15233e+59    3.2073e+62  -6.09143e+66             0             0   6.09143e+66  -6.09143e+66             0             0             0             0             0
   2.85959e+60   1.15233e+59    3.2073e+62   6.09143e+66             0             0   6.09143e+66   6.09143e+66             0             0             0             0            -0
   2.85959e+60   1.15233e+59    3.2073e+62   6.09143e+66             0             0   6.09143e+66   6.09143e+66             0             0            -0             0            -0
   2.85959e+60   1.15233e+59    3.2073e+62   6.09145e+66             0             0   6.09145e+66   6.09145e+66             0             0            -0             0             0
   2.85959e+60   1.15233e+59    3.2073e+62   6.09145e+66             0             0   6.09145e+66   6.09145e+66             0             0             0             0             0
   2.85959e+60   1.15233e+59    3.2073e+62  -6.09145e+66             0             0   6.09145e+66  -6.09145e+66             0             0             0             0            -0
   2.85959e+60   1.15233e+59    3.2073e+62  -6.09145e+66             0             0   6.09145e+66  -6.09145e+66             0             0            -0             0            -0
   2.13703e+60   9.37779e+58   3.05575e+62  -6.09145e+66             0             0   6.09145e+66  -6.09145e+66             0             0            -0             0             0
   2.13703e+60   9.37779e+58   3.05575e+62  -6.09145e+66             0             0   6.09145e+66  -6.09145e+66             0             0             0             0             0
   2.13703e+60   9.37779e+58   3.05575e+62   6.09145e+66             0             0   6.09145e+66   6.09145e+66             0             0             0             0            -0
   2.13703e+60   9.37779e+58   3.05575e+62   6.09145e+66             0             0   6.09145e+66   6.09145e+66             0             0            -0             0            -0
   2.13703e+60   9.37779e+58   3.05575e+62   6.09143e+66             0             0   6.09143e+66   6.09143e+66             0             0            -0             0             0
   2.13703e+60   9.37779e+58   3.05575e+62   6.09143e+66             0             0   6.09143e+66   6.09143e+66             0             0             0             0             0
   2.13703e+60   9.37779e+58   3.05575e+62  -6.09143e+66             0             0   6.09143e+66  -6.09143e+66             0             0             0             0            -0
   2.13703e+60   9.37779e+58   3.05575e+62  -6.09143e+66             0             0   6.09143e+66  -6.09143e+66             0             0            -0             0            -0
   1.41447e+60   7.23233e+58   2.90421e+62  -6.09143e+66             0             0   6.09143e+66  -6.09143e+66             0             0            -0             0             0
   1.41447e+60   7.23233e+58   2.90421e+62  -6.09143e+66             0             0   6.09143e+66  -6.09143e+66             0             0             0             0             0
   1.41447e+60   7.23233e+58   2.90421e+62   6.09143e+66             0             0   6.09143e+66   6.09143e+66             0             0             0             0            -0
   1.41447e+60   7.23233e+58   2.90421e+62   6.09143e+66             0             0   6.09143e+66   6.09143e+66             0             0            -0             0            -0
   1.41447e+60   7.23233e+58   2.90421e+62   6.09145e+66             0             0   6.09145e+66   6.09145e+66             0             0            -0             0             0
   1.41447e+60   7.23233e+58   2.90421e+62   6.09145e+66             0             0   6.09145e+66   6.09145e+66             0             0             0             0             0
   1.41447e+60   7.23233e+58   2.90421e+62  -6.09145e+66             0             0   6.09145e+66  -6.09145e+66             0             0             0             0            -0
   1.41447e+60   7.23233e+58   2.90421e+62  -6.09145e+66             0             0   6.09145e+66  -6.09145e+66             0             0            -0             0            -0
   6.91909e+59   5.08684e+58   2.75266e+62  -6.09145e+66             0             0   6.09145e+66  -6.09145e+66             0             0            -0             0             0
   6.91909e+59   5.08684e+58   2.75266e+62  -6.09145e+66             0             0   6.09145e+66  -6.09145e+66             0             0             0             0             0
   6.91909e+59   5.08684e+58   2.75266e+62   6.09145e+66             0             0   6.09145e+66   6.09145e+66             0             0             0             0            -0
   6.91909e+59   5.08684e+58   2.75266e+62   6.09145e+66             0             0   6.09145e+66   6.09145e+66             0             0            -0             0            -0
   1.56964e+60    6.3117e+59   5.73635e+62   6.58236e+66             0             0   6.58236e+66   6.58236e+66             0             0            -0             0             0
   1.56964e+60    6.3117e+59   5.73635e+62   6.58236e+66             0             0   6.58236e+66   6.58236e+66             0             0             0             0             0
   1.56964e+60    6.3117e+59   5.73635e+62  -6.58236e+66             0             0   6.58236e+66  -6.58236e+66             0             0             0             0            -0
   1.56964e+60    6.3117e+59   5.73635e+62  -6.58236e+66             0             0   6.58236e+66  -6.58236e+66             0             0            -0             0            -0
   2.22469e+60   6.07987e+59   5.65838e+62  -6.58236e+66             0             0   6.58236e+66  -6.58236e+66             0             0            -0             0             0
   2.22469e+60   6.07987e+59   5.65838e+62  -6.58236e+66             0             0   6.58236e+66  -6.58236e+66             0             0             0             0             0
   2.22469e+60   6.07987e+59   5.65838e+62   6.58236e+66             0             0   6.58236e+66   6.58236e+66             0             0             0             0            -0
   2.22469e+60   6.07987e+59   5.65838e+62   6.58236e+66             0             0   6.58236e+66   6.58236e+66             0             0            -0             0            -0
   2.22469e+60   6.07987e+59   5.65838e+62   6.58236e+66             0             0   6.58236e+66   6.58236e+66             0             0            -0             0             0
   2.22469e+60   6.07987e+59   5.65838e+62   6.58236e+66             0             0   6.58236e+66   6.58236e+66             0             0             0             0             0
   2.22469e+60   6.07987e+59   5.65838e+62  -6.58236e+66             0             0   6.58236e+66  -6.58236e+66             0             0             0             0            -0
   2.22469e+60   6.07987e+59   5.65838e+62  -6.58236e+66             0             0   6.58236e+66  -6.58236e+66             0             0            -0             0            -0
   2.87973e+60   5.84803e+59   5.58042e+62  -6.58236e+66             0             0   6.58236e+66  -6.58236e+66             0             0            -0             0             0
   2.87973e+60   5.84803e+59   5.58042e+62  -6.58236e+66             0             0   6.58236e+66  -6.58236e+66             0             0             0             0             0
   2.87973e+60   5.84803e+59   5.58042e+62   6.58236e+66             0             0   6.58236e+66   6.58236e+66             0             0             0             0            -0
   2.87973e+60   5.84803e+59   5.58042e+62   6.58236e+66             0             0   6.58236e+66   6.58236e+66             0             0            -0             0            -0
   2.87973e+60   5.84803e+59   5.58042e+62   6.58236e+66             0             0   6.58236e+66   6.58236e+66             0             0            -0             0             0
   2.87973e+60   5.84803e+59   5.58042e+62   6.58236e+66             0             0   6.58236e+66   6.58236e+66             0             0             0             0             0
   2.87973e+60   5.84803e+59   5.58042e+62  -6.58236e+66             0             0   6.58236e+66  -6.58236e+66             0             0             0             0            -0
   2.87973e+60   5.84803e+59   5.58042e+62  -6.58236e+66             0             0   6.58236e+66  -6.58236e+66             0             0            -0             0            -0
   3.53477e+60   5.61619e+59   5.50245e+62  -6.58236e+66             0             0   6.58236e+66  -6.58236e+66             0             0            -0             0             0
   3.53477e+60   5.61619e+59   5.50245e+62  -6.58236e+66             0             0   6.58236e+66  -6.58236e+66             0             0             0             0             0
   3.53477e+60   5.61619e+59   5.50245e+62   6.58236e+66             0             0   6.58236e+66   6.58236e+66             0             0             0             0            -0
   3.53477e+60   5.61619e+59   5.50245e+62   6.58236e+66             0             0   6.58236e+66   6.58236e+66             0             0            -0             0            -0
   3.53477e+60   5.61619e+59   5.50245e+62   6.58236e+66             0             0   6.58236e+66   6.58236e+66             0             0            -0             0             0
   3.53477e+60   5.61619e+59   5.50245e+62   6.58236e+66             0             0   6.58236e+66   6.58236e+66             0             0             0             0             0
   3.53477e+60   5.61619e+59   5.50245e+62  -6.58236e+66             0             0   6.58236e+66  -6.58236e+66             0             0             0             0            -0
   3.53477e+60   5.61619e+59   5.50245e+62  -6.58236e+66             0             0   6.58236e+66  -6.58236e+66             0             0            -0             0            -0
   4.18981e+60   5.38435e+59   5.42448e+62  -6.58236e+66             0             0   6.58236e+66  -6.58236e+66             0             0            -0             0             0
   4.18981e+60   5.38435e+59   5.42448e+62  -6.58236e+66             0             0   6.58236e+66  -6.58236e+66             0             0             0             0             0
   4.18981e+60   5.38435e+59   5.42448e+62   6.58236e+66             0             0   6.58236e+66   6.58236e+66             0             0             0             0            -0
   4.18981e+60   5.38435e+59   5.42448e+62   6.58236e+66             0             0   6.58236e+66   6.58236e+66             0             0            -0             0            -0
   4.18981e+60   5.38435e+59   5.42448e+62   6.58236e+66             0             0   6.58236e+66   6.58236e+66             0             0            -0             0             0
   4.18981e+60   5.38435e+59   5.42448e+62   6.58236e+66             0             0   6.58236e+66   6.58236e+66             0             0             0             0             0
   4.18981e+60   5.38435e+59   5.42448e+62  -6.58236e+66             0             0   6.58236e+66  -6.58236e+66             0             0             0             0            -0
   4.18981e+60   5.38435e+59   5.42448e+62  -6.58236e+66             0             0   6.58236e+66  -6.58236e+66             0             0            -0             0            -0
   4.84486e+60   5.15251e+59   5.34652e+62  -6.58236e+66             0             0   6.58236e+66  -6.58236e+66             0             0            -0             0             0
   4.84486e+60   5.15251e+59   5.34652e+62  -6.58236e+66             0             0   6.58236e+66  -6.58236e+66             0             0             0             0             0
   4.84486e+60   5.15251e+59   5.34652e+62   6.58236e+66             0             0   6.58236e+66   6.58236e+66             0             0             0             0            -0
   4.84486e+60   5.15251e+59   5.34652e+62   6.58236e+66             0             0   6.58236e+66   6.58236e+66             0             0            -0             0            -0
   4.84486e+60   5.15251e+59   5.34652e+62   6.58236e+66             0             0   6.58236e+66   6.58236e+66             0             0            -0             0             0
   4.84486e+60   5.15251e+59   5.34652e+62   6.58236e+66             0             0   6.58236e+66   6.58236e+66             0             0             0             0             0
   4.84486e+60   5.15251e+59   5.34652e+62  -6.58236e+66             0             0   6.58236e+66  -6.58236e+66             0             0             0             0            -0
   4.84486e+60   5.15251e+59   5.34652e+62  -6.58236e+66             0             0   6.58236e+66  -6.58236e+66             0             0            -0             0            -0
    5.4999e+60   4.92067e+59   5.26855e+62  -6.58236e+66             0             0   6.58236e+66  -6.58236e+66             0             0            -0             0             0
    5.4999e+60   4.92067e+59   5.26855e+62  -6.58236e+66             0             0   6.58236e+66  -6.58236e+66             0             0             0             0             0
    5.4999e+60   4.92067e+59   5.26855e+62   6.58236e+66             0             0   6.58236e+66   6.58236e+66             0             0             0             0            -0
    5.4999e+60   4.92067e+59   5.26855e+62   6.58236e+66             0             0   6.58236e+66   6.58236e+66             0             0            -0             0            -0
    5.4999e+60   4.92067e+59   5.26855e+62   6.58237e+66             0             0   6.58237e+66   6.58237e+66             0             0            -0             0             0
    5.4999e+60   4.92067e+59   5.26855e+62   6.58237e+66             0             0   6.58237e+66   6.58237e+66             0             0             0             0             0
    5.4999e+60   4.92067e+59   5.26855e+62  -6.58237e+66             0             0   6.58237e+66  -6.58237e+66             0             0             0             0            -0
    5.4999e+60   4.92067e+59   5.26855e+62  -6.58237e+66             0             0   6.58237e+66  -6.58237e+66             0             0            -0             0            -0
   6.15494e+60   4.68883e+59   5.19059e+62  -6.58237e+66             0             0   6.58237e+66  -6.58237e+66             0             0            -0             0             0
   6.15494e+60   4.68883e+59   5.19059e+62  -6.58237e+66             0             0   6.58237e+66  -6.58237e+66             0             0             0             0             0
   6.15494e+60   4.68883e+59   5.19059e+62   6.58237e+66             0             0   6.58237e+66   6.58237e+66             0             0             0             0            -0
   6.15494e+60   4.68883e+59   5.19059e+62   6.58237e+66             0             0   6.58237e+66   6.58237e+66             0             0            -0             0            -0
   6.15494e+60   4.68883e+59   5.19059e+62   6.58234e+66             0             0   6.58234e+66   6.58234e+66             0             0            -0             0             0
   6.15494e+60   4.68883e+59   5.19059e+62   6.58234e+66             0             0   6.58234e+66   6.58234e+66             0             0             0             0             0
   6.15494e+60   4.68883e+59   5.19059e+62  -6.58234e+66             0             0   6.58234e+66  -6.58234e+66             0             0             0             0            -0
   6.15494e+60   4.68883e+59   5.19059e+62  -6.58234e+66             0             0   6.58234e+66  -6.58234e+66             0             0            -0             0            -0
   6.80999e+60     4.457e+59   5.11262e+62  -6.58234e+66             0             0   6.58234e+66  -6.58234e+66             0             0            -0             0             0
   6.80999e+60     4.457e+59   5.11262e+62  -6.58234e+66             0             0   6.58234e+66  -6.58234e+66             0             0             0             0             0
   6.80999e+60     4.457e+59   5.11262e+62   6.58234e+66             0             0   6.58234e+66   6.58234e+66             0             0             0             0            -0
   6.80999e+60     4.457e+59   5.11262e+62   6.58234e+66             0             0   6.58234e+66   6.58234e+66             0             0            -0             0            -0
   6.80999e+60     4.457e+59   5.11262e+62   6.58237e+66             0             0   6.58237e+66   6.58237e+66             0             0            -0             0             0
   6.80999e+60     4.457e+59   5.11262e+62   6.58237e+66             0             0   6.58237e+66   6.58237e+66             0             0             0             0             0
   6.80999e+60     4.457e+59   5.11262e+62  -6.58237e+66             0             0   6.58237e+66  -6.58237e+66             0             0             0             0            -0
   6.80999e+60     4.457e+59   5.11262e+62  -6.58237e+66             0             0   6.58237e+66  -6.58237e+66             0             0            -0             0            -0
   7.46503e+60   4.22516e+59   5.03465e+62  -6.58237e+66             0             0   6.58237e+66  -6.58237e+66             0             0            -0             0             0
   7.46503e+60   4.22516e+59   5.03465e+62  -6.58237e+66             0             0   6.58237e+66  -6.58237e+66             0             0             0             0             0
   7.46503e+60   4.22516e+59   5.03465e+62   6.58237e+66             0             0   6.58237e+66   6.58237e+66             0             0             0             0            -0
   7.46503e+60   4.22516e+59   5.03465e+62   6.58237e+66             0             0   6.58237e+66   6.58237e+66             0             0            -0             0            -0
   7.46503e+60   4.22516e+59   5.03465e+62   6.58234e+66             0             0   6.58234e+66   6.58234e+66             0             0            -0             0             0
   7.46503e+60   4.22516e+59   5.03465e+62   6.58234e+66             0             0   6.58234e+66   6.58234e+66             0             0             0             0             0
   7.46503e+60   4.22516e+59   5.03465e+62  -6.58234e+66             0             0   6.58234e+66  -6.58234e+66             0             0             0             0            -0
   7.46503e+60   4.22516e+59   5.03465e+62  -6.58234e+66             0             0   6.58234e+66  -6.58234e+66             0             0            -0             0            -0
   8.12007e+60   3.99332e+59   4.95669e+62  -6.58234e+66             0             0   6.58234e+66  -6.58234e+66             0             0            -0             0             0
   8.12007e+60   3.99332e+59   4.95669e+62  -6.58234e+66             0             0   6.58234e+66  -6.58234e+66             0             0             0             0             0
   8.12007e+60   3.99332e+59   4.95669e+62   6.58234e+66             0             0   6.58234e+66   6.58234e+66             0             0             0             0            -0
   8.12007e+60   3.99332e+59   4.95669e+62   6.58234e+66             0             0   6.58234e+66   6.58234e+66             0             0            -0             0            -0
   8.12007e+60   3.99332e+59   4.95669e+62   6.58237e+66             0             0   6.58237e+66   6.58237e+66             0             0            -0             0             0
   8.12007e+60   3.99332e+59   4.95669e+62   6.58237e+66             0             0   6.58237e+66   6.58237e+66             0             0             0             0             0
   8.12007e+60   3.99332e+59   4.95669e+62  -6.58237e+66             0             0   6.58237e+66  -6.58237e+66             0             0             0             0            -0
   8.12007e+60   3.99332e+59   4.95669e+62  -6.58237e+66             0             0   6.58237e+66  -6.58237e+66             0             0            -0             0            -0
   8.77512e+60   3.76148e+59   4.87872e+62  -6.58237e+66             0             0   6.58237e+66  -6.58237e+66             0             0            -0             0             0
   8.77512e+60   3.76148e+59   4.87872e+62  -6.58237e+66             0             0   6.58237e+66  -6.58237e+66             0             0             0             0             0
   8.77512e+60   3.76148e+59   4.87872e+62   6.58237e+66             0             0   6.58237e+66   6.58237e+66             0             0             0             0            -0
   8.77512e+60   3.76148e+59   4.87872e+62   6.58237e+66             0             0   6.58237e+66   6.58237e+66             0             0            -0             0            -0
   8.77512e+60   3.76148e+59   4.87872e+62   6.58234e+66             0             0   6.58234e+66   6.58234e+66             0             0            -0             0             0
   8.77512e+60   3.76148e+59   4.87872e+62   6.58234e+66             0             0   6.58234e+66   6.58234e+66             0             0             0             0             0
   8.77512e+60   3.76148e+59   4.87872e+62  -6.58234e+66             0             0   6.58234e+66  -6.58234e+66             0             0             0             0            -0
   8.77512e+60   3.76148e+59   4.87872e+62  -6.58234e+66             0             0   6.58234e+66  -6.58234e+66             0             0            -0             0            -0
   9.43016e+60   3.52964e+59   4.80075e+62  -6.58234e+66             0             0   6.58234e+66  -6.58234e+66             0             0            -0             0             0
   9.43016e+60   3.52964e+59   4.80075e+62  -6.58234e+66             0             0   6.58234e+66  -6.58234e+66             0             0             0             0             0
   9.43016e+60   3.52964e+59   4.80075e+62   6.58234e+66             0             0   6.58234e+66   6.58234e+66             0             0             0             0            -0
   9.43016e+60   3.52964e+59   4.80075e+62   6.58234e+66             0             0   6.58234e+66   6.58234e+66             0             0            -0             0            -0
   9.43016e+60   3.52964e+59   4.80075e+62   6.58237e+66             0             0   6.58237e+66   6.58237e+66             0             0            -0             0             0
   9.43016e+60   3.52964e+59   4.80075e+62   6.58237e+66             0             0   6.58237e+66   6.58237e+66             0             0             0             0             0
   9.43016e+60   3.52964e+59   4.80075e+62  -6.58237e+66             0             0   6.58237e+66  -6.58237e+66             0             0             0             0            -0
   9.43016e+60   3.52964e+59   4.80075e+62  -6.58237e+66             0             0   6.58237e+66  -6.58237e+66             0             0            -0             0            -0
   1.00852e+61    3.2978e+59   4.72279e+62  -6.58237e+66             0             0   6.58237e+66  -6.58237e+66             0             0            -0             0             0
   1.00852e+61    3.2978e+59   4.72279e+62  -6.58237e+66             0             0   6.58237e+66  -6.58237e+66             0             0             0             0             0
   1.00852e+61    3.2978e+59   4.72279e+62   6.58237e+66             0             0   6.58237e+66   6.58237e+66             0             0             0             0            -0
   1.00852e+61    3.2978e+59   4.72279e+62   6.58237e+66             0             0   6.58237e+66   6.58237e+66             0             0            -0             0            -0
   -3.1391e+61   6.92246e+59   5.76451e+62   1.23281e+69             0             0   1.23281e+69   1.23281e+69             0             0            -0             0             0
   -3.1391e+61   6.92246e+59   5.76451e+62   1.23281e+69             0             0   1.23281e+69   1.23281e+69             0             0             0             0             0
   -3.1391e+61   6.92246e+59   5.76451e+62  -1.23281e+69             0             0   1.23281e+69  -1.23281e+69             0             0             0             0            -0
   -3.1391e+61   6.92246e+59   5.76451e+62  -1.23281e+69             0             0   1.23281e+69  -1.23281e+69             0             0            -0             0            -0
  -2.72709e+61   6.84611e+59   5.76099e+62  -1.23281e+69             0             0   1.23281e+69  -1.23281e+69             0             0            -0             0             0
  -2.72709e+61   6.84611e+59   5.76099e+62  -1.23281e+69             0             0   1.23281e+69  -1.23281e+69             0             0             0             0             0
  -2.72709e+61   6.84611e+59   5.76099e+62   1.23281e+69             0             0   1.23281e+69   1.23281e+69             0             0             0             0            -0
  -2.72709e+61   6.84611e+59   5.76099e+62   1.23281e+69             0             0   1.23281e+69   1.23281e+69             0             0            -0             0            -0
  -2.72709e+61   6.84611e+59   5.76099e+62   1.23281e+69             0             0   1.23281e+69   1.23281e+69             0             0            -0             0             0
  -2.72709e+61   6.84611e+59   5.76099e+62   1.23281e+69             0             0   1.23281e+69   1.23281e+69             0             0             0             0             0
  -2.72709e+61   6.84611e+59   5.76099e+62  -1.23281e+69             0             0   1.23281e+69  -1.23281e+69             0             0             0             0            -0
  -2.72709e+61   6.84611e+59   5.76099e+62  -1.23281e+69             0             0   1.23281e+69  -1.23281e+69             0             0            -0             0            -0
  -2.31508e+61   6.76977e+59   5.75747e+62  -1.23281e+69             0             0   1.23281e+69  -1.23281e+69             0             0            -0             0             0
  -2.31508e+61   6.76977e+59   5.75747e+62  -1.23281e+69             0             0   1.23281e+69  -1.23281e+69             0             0             0             0             0
  -2.31508e+61   6.76977e+59   5.75747e+62   1.23281e+69             0             0   1.23281e+69   1.23281e+69             0             0             0             0            -0
  -2.31508e+61   6.76977e+59   5.75747e+62   1.23281e+69             0             0   1.23281e+69   1.23281e+69             0             0            -0             0            -0
  -2.31508e+61   6.76977e+59   5.75747e+62   1.23281e+69             0             0   1.23281e+69   1.23281e+69             0             0            -0             0             0
  -2.31508e+61   6.76977e+59   5.75747e+62   1.23281e+69             0             0   1.23281e+69   1.23281e+69             0             0             0             0             0
  -2.31508e+61   6.76977e+59   5.75747e+62  -1.23281e+69             0             0   1.23281e+69  -1.23281e+69             0             0             0             0            -0
  -2.31508e+61   6.76977e+59   5.75747e+62  -1.23281e+69             0             0   1.23281e+69  -1.23281e+69             0             0            -0             0            -0
  -1.90307e+61   6.69343e+59   5.75395e+62  -1.23281e+69             0             0   1.23281e+69  -1.23281e+69             0             0            -0             0             0
  -1.90307e+61   6.69343e+59   5.75395e+62  -1.23281e+69             0             0   1.23281e+69  -1.23281e+69             0             0             0             0             0
  -1.90307e+61   6.69343e+59   5.75395e+62   1.23281e+69             0             0   1.23281e+69   1.23281e+69             0             0             0             0            -0
  -1.90307e+61   6.69343e+59   5.75395e+62   1.23281e+69             0             0   1.23281e+69   1.23281e+69             0             0            -0             0            -0
  -1.90307e+61   6.69343e+59   5.75395e+62   1.23281e+69             0             0   1.23281e+69   1.23281e+69             0             0            -0             0             0
  -1.90307e+61   6.69343e+59   5.75395e+62   1.23281e+69             0             0   1.23281e+69   1.23281e+69             0             0             0             0             0
  -1.90307e+61   6.69343e+59   5.75395e+62  -1.23281e+69             0             0   1.23281e+69  -1.23281e+69             0             0             0             0            -0
  -1.90307e+61   6.69343e+59   5.75395e+62  -1.23281e+69             0             0   1.23281e+69  -1.23281e+69             0             0            -0             0            -0
  -1.49107e+61   6.61708e+59   5.75043e+62  -1.23281e+69             0             0   1.23281e+69  -1.23281e+69             0             0            -0             0             0
  -1.49107e+61   6.61708e+59   5.75043e+62  -1.23281e+69             0             0   1.23281e+69  -1.23281e+69             0             0             0             0             0
  -1.49107e+61   6.61708e+59   5.75043e+62   1.23281e+69             0             0   1.23281e+69   1.23281e+69             0             0             0             0            -0
  -1.49107e+61   6.61708e+59   5.75043e+62   1.23281e+69             0             0   1.23281e+69   1.23281e+69             0             0            -0             0            -0
  -1.49107e+61   6.61708e+59   5.75043e+62   1.23281e+69             0             0   1.23281e+69   1.23281e+69             0             0            -0             0             0
  -1.49107e+61   6.61708e+59   5.75043e+62   1.23281e+69             0             0   1.23281e+69   1.23281e+69             0             0             0             0             0
  -1.49107e+61   6.61708e+59   5.75043e+62  -1.23281e+69             0             0   1.23281e+69  -1.23281e+69             0             0             0             0            -0
  -1.49107e+61   6.61708e+59   5.75043e+62  -1.23281e+69             0             0   1.23281e+69  -1.23281e+69             0             0            -0             0            -0
  -1.07906e+61   6.54074e+59   5.74691e+62  -1.23281e+69             0             0   1.23281e+69  -1.23281e+69             0             0            -0             0             0
  -1.07906e+61   6.54074e+59   5.74691e+62  -1.23281e+69             0             0   1.23281e+69  -1.23281e+69             0             0             0             0             0
  -1.07906e+61   6.54074e+59   5.74691e+62   1.23281e+69             0             0   1.23281e+69   1.23281e+69             0             0             0             0            -0
  -1.07906e+61   6.54074e+59   5.74691e+62   1.23281e+69             0             0   1.23281e+69   1.23281e+69             0             0            -0             0            -0
  -1.07906e+61   6.54074e+59   5.74691e+62   1.23281e+69             0             0   1.23281e+69   1.23281e+69             0             0            -0             0             0
  -1.07906e+61   6.54074e+59   5.74691e+62   1.23281e+69             0             0   1.23281e+69   1.23281e+69             0             0             0             0             0
  -1.07906e+61   6.54074e+59   5.74691e+62  -1.23281e+69             0             0   1.23281e+69  -1.23281e+69             0             0             0             0            -0
  -1.07906e+61   6.54074e+59   5.74691e+62  -1.23281e+69             0             0   1.23281e+69  -1.23281e+69             0             0            -0             0            -0
  -6.67051e+60   6.46439e+59   5.74339e+62  -1.23281e+69             0             0   1.23281e+69  -1.23281e+69             0             0            -0             0             0
  -6.67051e+60   6.46439e+59   5.74339e+62  -1.23281e+69             0             0   1.23281e+69  -1.23281e+69             0             0             0             0             0
  -6.67051e+60   6.46439e+59   5.74339e+62   1.23281e+69             0             0   1.23281e+69   1.23281e+69             0             0             0             0            -0
  -6.67051e+60   6.46439e+59   5.74339e+62   1.23281e+69             0             0   1.23281e+69   1.23281e+69             0             0            -0             0            -0
  -6.67051e+60   6.46439e+59   5.74339e+62   1.23281e+69             0             0   1.23281e+69   1.23281e+69             0             0            -0             0             0
  -6.67051e+60   6.46439e+59   5.74339e+62   1.23281e+69             0             0   1.23281e+69   1.23281e+69             0             0             0             0             0
  -6.67051e+60   6.46439e+59   5.74339e+62  -1.23281e+69             0             0   1.23281e+69  -1.23281e+69             0             0             0             0            -0
  -6.67051e+60   6.46439e+59   5.74339e+62  -1.23281e+69             0             0   1.23281e+69  -1.23281e+69             0             0            -0             0            -0
  -2.55044e+60   6.38805e+59   5.73987e+62  -1.23281e+69             0             0   1.23281e+69  -1.23281e+69             0             0            -0             0             0
  -2.55044e+60   6.38805e+59   5.73987e+62  -1.23281e+69             0             0   1.23281e+69  -1.23281e+69             0             0             0             0             0
  -2.55044e+60   6.38805e+59   5.73987e+62   1.23281e+69             0             0   1.23281e+69   1.23281e+69             0             0             0             0            -0
  -2.55044e+60   6.38805e+59   5.73987e+62   1.23281e+69             0             0   1.23281e+69   1.23281e+69             0             0            -0             0            -0
  -2.55044e+60   6.38805e+59   5.73987e+62   1.23281e+69             0             0   1.23281e+69   1.23281e+69             0             0            -0             0             0
  -2.55044e+60   6.38805e+59   5.73987e+62   1.23281e+69             0             0   1.23281e+69   1.23281e+69             0             0             0             0             0
  -2.55044e+60   6.38805e+59   5.73987e+62  -1.23281e+69             0             0   1.23281e+69  -1.23281e+69             0             0             0             0            -0
  -2.55044e+60   6.38805e+59   5.73987e+62  -1.23281e+69             0             0   1.23281e+69  -1.23281e+69             0             0            -0             0            -0
   1.56964e+60    6.3117e+59   5.73635e+62  -1.23281e+69             0             0   1.23281e+69  -1.23281e+69             0             0            -0             0             0
   1.56964e+60    6.3117e+59   5.73635e+62  -1.23281e+69             0             0   1.23281e+69  -1.23281e+69             0             0             0             0             0
   1.56964e+60    6.3117e+59   5.73635e+62   1.23281e+69             0             0   1.23281e+69   1.23281e+69             0             0             0             0            -0
   1.56964e+60    6.3117e+59   5.73635e+62   1.23281e+69             0             0   1.23281e+69   1.23281e+69             0             0            -0             0            -0
  -8.31155e+48   9.49901e+59   6.23214e+62  -1.26829e+67             0             0   1.26829e+67  -1.26829e+67             0             0            -0             0             0
  -8.31155e+48   9.49901e+59   6.23214e+62  -1.26829e+67             0             0   1.26829e+67  -1.26829e+67             0             0             0             0             0
  -8.31155e+48   9.49901e+59   6.23214e+62   1.26829e+67             0             0   1.26829e+67   1.26829e+67             0             0             0             0            -0
  -8.31155e+48   9.49901e+59   6.23214e+62   1.26829e+67             0             0   1.26829e+67   1.26829e+67             0             0            -0             0            -0
  -1.04814e+59   9.41606e+59   6.23302e+62   1.26829e+67             0             0   1.26829e+67   1.26829e+67             0             0            -0             0             0
  -1.04814e+59   9.41606e+59   6.23302e+62   1.26829e+67             0             0   1.26829e+67   1.26829e+67             0             0             0             0             0
  -1.04814e+59   9.41606e+59   6.23302e+62  -1.26829e+67             0             0   1.26829e+67  -1.26829e+67             0             0             0             0            -0
  -1.04814e+59   9.41606e+59   6.23302e+62  -1.26829e+67             0             0   1.26829e+67  -1.26829e+67             0             0            -0             0            -0
  -1.04814e+59   9.41606e+59   6.23302e+62  -1.26829e+67             0             0   1.26829e+67  -1.26829e+67             0             0            -0             0             0
  -1.04814e+59   9.41606e+59   6.23302e+62  -1.26829e+67             0             0   1.26829e+67  -1.26829e+67             0             0             0             0             0
  -1.04814e+59   9.41606e+59   6.23302e+62   1.26829e+67             0             0   1.26829e+67   1.26829e+67             0             0             0             0            -0
  -1.04814e+59   9.41606e+59   6.23302e+62   1.26829e+67             0             0   1.26829e+67   1.26829e+67             0             0            -0             0            -0
  -2.09628e+59   9.33312e+59   6.23389e+62   1.26829e+67             0             0   1.26829e+67   1.26829e+67             0             0            -0             0             0
  -2.09628e+59   9.33312e+59   6.23389e+62   1.26829e+67             0             0   1.26829e+67   1.26829e+67             0             0             0             0             0
  -2.09628e+59   9.33312e+59   6.23389e+62  -1.26829e+67             0             0   1.26829e+67  -1.26829e+67             0             0             0             0            -0
  -2.09628e+59   9.33312e+59   6.23389e+62  -1.26829e+67             0             0   1.26829e+67  -1.26829e+67             0             0            -0             0            -0
  -2.09628e+59   9.33312e+59   6.23389e+62  -1.26829e+67             0             0   1.26829e+67  -1.26829e+67             0             0            -0             0             0
  -2.09628e+59   9.33312e+59   6.23389e+62  -1.26829e+67             0             0   1.26829e+67  -1.26829e+67             0             0             0             0             0
  -2.09628e+59   9.33312e+59   6.23389e+62   1.26829e+67             0             0   1.26829e+67   1.26829e+67             0             0             0             0            -0
  -2.09628e+59   9.33312e+59   6.23389e+62   1.26829e+67             0             0   1.26829e+67   1.26829e+67             0             0            -0             0            -0
  -3.14442e+59   9.25017e+59   6.23477e+62   1.26829e+67             0             0   1.26829e+67   1.26829e+67             0             0            -0             0             0
  -3.14442e+59   9.25017e+59   6.23477e+62   1.26829e+67             0             0   1.26829e+67   1.26829e+67             0             0             0             0             0
  -3.14442e+59   9.25017e+59   6.23477e+62  -1.26829e+67             0             0   1.26829e+67  -1.26829e+67             0             0             0             0            -0
  -3.14442e+59   9.25017e+59   6.23477e+62  -1.26829e+67             0             0   1.26829e+67  -1.26829e+67             0             0            -0             0            -0
  -3.14442e+59   9.25017e+59   6.23477e+62  -1.26829e+67             0             0   1.26829e+67  -1.26829e+67             0             0            -0             0             0
  -3.14442e+59   9.25017e+59   6.23477e+62  -1.26829e+67             0             0   1.26829e+67  -1.26829e+67             0             0             0             0             0
  -3.14442e+59   9.25017e+59   6.23477e+62   1.26829e+67             0             0   1.26829e+67   1.26829e+67             0             0             0             0            -0
  -3.14442e+59   9.25017e+59   6.23477e+62   1.26829e+67             0             0   1.26829e+67   1.26829e+67             0             0            -0             0            -0
  -4.19256e+59   9.16722e+59   6.23564e+62   1.26829e+67             0             0   1.26829e+67   1.26829e+67             0             0            -0             0             0
  -4.19256e+59   9.16722e+59   6.23564e+62   1.26829e+67             0             0   1.26829e+67   1.26829e+67             0             0             0             0             0
  -4.19256e+59   9.16722e+59   6.23564e+62  -1.26829e+67             0             0   1.26829e+67  -1.26829e+67             0             0             0             0            -0
  -4.19256e+59   9.16722e+59   6.23564e+62  -1.26829e+67             0             0   1.26829e+67  -1.26829e+67             0             0            -0             0            -0
  -4.19256e+59   9.16722e+59   6.23564e+62  -1.26829e+67             0             0   1.26829e+67  -1.26829e+67             0             0            -0             0             0
  -4.19256e+59   9.16722e+59   6.23564e+62  -1.26829e+67             0             0   1.26829e+67  -1.26829e+67             0             0             0             0             0
  -4.19256e+59   9.16722e+59   6.23564e+62   1.26829e+67             0             0   1.26829e+67   1.26829e+67             0             0             0             0            -0
  -4.19256e+59   9.16722e+59   6.23564e+62   1.26829e+67             0             0   1.26829e+67   1.26829e+67             0             0            -0             0            -0
   -5.2407e+59   9.08428e+59   6.23652e+62   1.26829e+67             0             0   1.26829e+67   1.26829e+67             0             0            -0             0             0
   -5.2407e+59   9.08428e+59   6.23652e+62   1.26829e+67             0             0   1.26829e+67   1.26829e+67             0             0             0             0             0
   -5.2407e+59   9.08428e+59   6.23652e+62  -1.26829e+67             0             0   1.26829e+67  -1.26829e+67             0             0             0             0            -0
   -5.2407e+59   9.08428e+59   6.23652e+62  -1.26829e+67             0             0   1.26829e+67  -1.26829e+67             0             0            -0             0            -0
   -5.2407e+59   9.08428e+59   6.23652e+62  -1.26829e+67             0             0   1.26829e+67  -1.26829e+67             0             0            -0             0             0
   -5.2407e+59   9.08428e+59   6.23652e+62  -1.26829e+67             0             0   1.26829e+67  -1.26829e+67             0             0             0             0             0
   -5.2407e+59   9.08428e+59   6.23652e+62   1.26829e+67             0             0   1.26829e+67   1.26829e+67             0             0             0             0            -0
   -5.2407e+59   9.08428e+59   6.23652e+62   1.26829e+67             0             0   1.26829e+67   1.26829e+67             0             0            -0             0            -0
  -6.28885e+59   9.00133e+59   6.23739e+62   1.26829e+67             0             0   1.26829e+67   1.26829e+67             0             0            -0             0             0
  -6.28885e+59   9.00133e+59   6.23739e+62   1.26829e+67             0             0   1.26829e+67   1.26829e+67             0             0             0             0             0
  -6.28885e+59   9.00133e+59   6.23739e+62  -1.26829e+67             0             0   1.26829e+67  -1.26829e+67             0             0             0             0            -0
  -6.28885e+59   9.00133e+59   6.23739e+62  -1.26829e+67             0             0   1.26829e+67  -1.26829e+67             0             0            -0             0            -0
  -6.28885e+59   9.00133e+59   6.23739e+62  -1.26829e+67             0             0   1.26829e+67  -1.26829e+67             0             0            -0             0             0
  -6.28885e+59   9.00133e+59   6.23739e+62  -1.26829e+67             0             0   1.26829e+67  -1.26829e+67             0             0             0             0             0
  -6.28885e+59   9.00133e+59   6.23739e+62   1.26829e+67             0             0   1.26829e+67   1.26829e+67             0             0             0             0            -0
  -6.28885e+59   9.00133e+59   6.23739e+62   1.26829e+67             0             0   1.26829e+67   1.26829e+67             0             0            -0             0            -0
  -7.33699e+59   8.91838e+59   6.23827e+62   1.26829e+67             0             0   1.26829e+67   1.26829e+67             0             0            -0             0             0
  -7.33699e+59   8.91838e+59   6.23827e+62   1.26829e+67             0             0   1.26829e+67   1.26829e+67             0             0             0             0             0
  -7.33699e+59   8.91838e+59   6.23827e+62  -1.26829e+67             0             0   1.26829e+67  -1.26829e+67             0             0             0             0            -0
  -7.33699e+59   8.91838e+59   6.23827e+62  -1.26829e+67             0             0   1.26829e+67  -1.26829e+67             0             0            -0             0            -0
  -7.33699e+59   8.91838e+59   6.23827e+62   -1.2683e+67             0             0    1.2683e+67   -1.2683e+67             0             0            -0             0             0
  -7.33699e+59   8.91838e+59   6.23827e+62   -1.2683e+67             0             0    1.2683e+67   -1.2683e+67             0             0             0             0             0
  -7.33699e+59   8.91838e+59   6.23827e+62    1.2683e+67             0             0    1.2683e+67    1.2683e+67             0             0             0             0            -0
  -7.33699e+59   8.91838e+59   6.23827e+62    1.2683e+67             0             0    1.2683e+67    1.2683e+67             0             0            -0             0            -0
  -8.38513e+59   8.83544e+59   6.23914e+62    1.2683e+67             0             0    1.2683e+67    1.2683e+67             0             0            -0             0             0
  -8.38513e+59   8.83544e+59   6.23914e+62    1.2683e+67             0             0    1.2683e+67    1.2683e+67             0             0             0             0             0
  -8.38513e+59   8.83544e+59   6.23914e+62   -1.2683e+67             0             0    1.2683e+67   -1.2683e+67             0             0             0             0            -0
  -8.38513e+59   8.83544e+59   6.23914e+62   -1.2683e+67             0             0    1.2683e+67   -1.2683e+67             0             0            -0             0            -0
  -8.38513e+59   8.83544e+59   6.23914e+62  -1.26829e+67             0             0   1.26829e+67  -1.26829e+67             0             0            -0             0             0
  -8.38513e+59   8.83544e+59   6.23914e+62  -1.26829e+67             0             0   1.26829e+67  -1.26829e+67             0             0             0             0             0
  -8.38513e+59   8.83544e+59   6.23914e+62   1.26829e+67             0             0   1.26829e+67   1.26829e+67             0             0             0             0            -0
  -8.38513e+59   8.83544e+59   6.23914e+62   1.26829e+67             0             0   1.26829e+67   1.26829e+67             0             0            -0             0            -0
  -9.43327e+59   8.75249e+59   6.24002e+62   1.26829e+67             0             0   1.26829e+67   1.26829e+67             0             0            -0             0             0
  -9.43327e+59   8.75249e+59   6.24002e+62   1.26829e+67             0             0   1.26829e+67   1.26829e+67             0             0             0             0             0
  -9.43327e+59   8.75249e+59   6.24002e+62  -1.26829e+67             0             0   1.26829e+67  -1.26829e+67             0             0             0             0            -0
  -9.43327e+59   8.75249e+59   6.24002e+62  -1.26829e+67             0             0   1.26829e+67  -1.26829e+67             0             0            -0             0            -0
  -9.43327e+59   8.75249e+59   6.24002e+62   -1.2683e+67             0             0    1.2683e+67   -1.2683e+67             0             0            -0             0             0
  -9.43327e+59   8.75249e+59   6.24002e+62   -1.2683e+67             0             0    1.2683e+67   -1.2683e+67             0             0             0             0             0
  -9.43327e+59   8.75249e+59   6.24002e+62    1.2683e+67             0             0    1.2683e+67    1.2683e+67             0             0             0             0            -0
  -9.43327e+59   8.75249e+59   6.24002e+62    1.2683e+67             0             0    1.2683e+67    1.2683e+67             0             0            -0             0            -0
  -1.04814e+60   8.66954e+59   6.24089e+62    1.2683e+67             0             0    1.2683e+67    1.2683e+67             0             0            -0             0             0
  -1.04814e+60   8.66954e+59   6.24089e+62    1.2683e+67             0             0    1.2683e+67    1.2683e+67             0             0             0             0             0
  -1.04814e+60   8.66954e+59   6.24089e+62   -1.2683e+67             0             0    1.2683e+67   -1.2683e+67             0             0             0             0            -0
  -1.04814e+60   8.66954e+59   6.24089e+62   -1.2683e+67             0             0    1.2683e+67   -1.2683e+67             0             0            -0             0            -0
  -1.04814e+60   8.66954e+59   6.24089e+62  -1.26829e+67             0             0   1.26829e+67  -1.26829e+67             0             0            -0             0             0
  -1.04814e+60   8.66954e+59   6.24089e+62  -1.26829e+67             0             0   1.26829e+67  -1.26829e+67             0             0             0             0             0
  -1.04814e+60   8.66954e+59   6.24089e+62   1.26829e+67             0             0   1.26829e+67   1.26829e+67             0             0             0             0            -0
  -1.04814e+60   8.66954e+59   6.24089e+62   1.26829e+67             0             0   1.26829e+67   1.26829e+67             0             0            -0             0            -0
  -1.15295e+60    8.5866e+59   6.24177e+62   1.26829e+67             0             0   1.26829e+67   1.26829e+67             0             0            -0             0             0
  -1.15295e+60    8.5866e+59   6.24177e+62   1.26829e+67             0             0   1.26829e+67   1.26829e+67             0             0             0             0             0
  -1.15295e+60    8.5866e+59   6.24177e+62  -1.26829e+67             0             0   1.26829e+67  -1.26829e+67             0             0             0             0            -0
  -1.15295e+60    8.5866e+59   6.24177e+62  -1.26829e+67             0             0   1.26829e+67  -1.26829e+67             0             0            -0             0            -0
  -1.15295e+60    8.5866e+59   6.24177e+62   -1.2683e+67             0             0    1.2683e+67   -1.2683e+67             0             0            -0             0             0
  -1.15295e+60    8.5866e+59   6.24177e+62   -1.2683e+67             0             0    1.2683e+67   -1.2683e+67             0             0             0             0             0
  -1.15295e+60    8.5866e+59   6.24177e+62    1.2683e+67             0             0    1.2683e+67    1.2683e+67             0             0             0             0            -0
  -1.15295e+60    8.5866e+59   6.24177e+62    1.2683e+67             0             0    1.2683e+67    1.2683e+67             0             0            -0             0            -0
  -1.25777e+60   8.50365e+59   6.24264e+62    1.2683e+67             0             0    1.2683e+67    1.2683e+67             0             0            -0             0             0
  -1.25777e+60   8.50365e+59   6.24264e+62    1.2683e+67             0             0    1.2683e+67    1.2683e+67             0             0             0             0             0
  -1.25777e+60   8.50365e+59   6.24264e+62   -1.2683e+67             0             0    1.2683e+67   -1.2683e+67             0             0             0             0            -0
  -1.25777e+60   8.50365e+59   6.24264e+62   -1.2683e+67             0             0    1.2683e+67   -1.2683e+67             0             0            -0             0            -0
  -1.25777e+60   8.50365e+59   6.24264e+62   -1.2683e+67             0             0    1.2683e+67   -1.2683e+67             0             0            -0             0             0
  -1.25777e+60   8.50365e+59   6.24264e+62   -1.2683e+67             0             0    1.2683e+67   -1.2683e+67             0             0             0             0             0
  -1.25777e+60   8.50365e+59   6.24264e+62    1.2683e+67             0             0    1.2683e+67    1.2683e+67             0             0             0             0            -0
  -1.25777e+60   8.50365e+59   6.24264e+62    1.2683e+67             0             0    1.2683e+67    1.2683e+67             0             0            -0             0            -0
  -1.36258e+60    8.4207e+59   6.24352e+62    1.2683e+67             0             0    1.2683e+67    1.2683e+67             0             0            -0             0             0
  -1.36258e+60    8.4207e+59   6.24352e+62    1.2683e+67             0             0    1.2683e+67    1.2683e+67             0             0             0             0             0
  -1.36258e+60    8.4207e+59   6.24352e+62   -1.2683e+67             0             0    1.2683e+67   -1.2683e+67             0             0             0             0            -0
  -1.36258e+60    8.4207e+59   6.24352e+62   -1.2683e+67             0             0    1.2683e+67   -1.2683e+67             0             0            -0             0            -0
  -1.36258e+60    8.4207e+59   6.24352e+62  -1.26829e+67             0             0   1.26829e+67  -1.26829e+67             0             0            -0             0             0
  -1.36258e+60    8.4207e+59   6.24352e+62  -1.26829e+67             0             0   1.26829e+67  -1.26829e+67             0             0             0             0             0
  -1.36258e+60    8.4207e+59   6.24352e+62   1.26829e+67             0             0   1.26829e+67   1.26829e+67             0             0             0             0            -0
  -1.36258e+60    8.4207e+59   6.24352e+62   1.26829e+67             0             0   1.26829e+67   1.26829e+67             0             0            -0             0            -0
   -1.4674e+60   8.33776e+59   6.24439e+62   1.26829e+67             0             0   1.26829e+67   1.26829e+67             0             0            -0             0             0
   -1.4674e+60   8.33776e+59   6.24439e+62   1.26829e+67             0             0   1.26829e+67   1.26829e+67             0             0             0             0             0
   -1.4674e+60   8.33776e+59   6.24439e+62  -1.26829e+67             0             0   1.26829e+67  -1.26829e+67             0             0             0             0            -0
   -1.4674e+60   8.33776e+59   6.24439e+62  -1.26829e+67             0             0   1.26829e+67  -1.26829e+67             0             0            -0             0            -0
   -1.4674e+60   8.33776e+59   6.24439e+62   -1.2683e+67             0             0    1.2683e+67   -1.2683e+67             0             0            -0             0             0
   -1.4674e+60   8.33776e+59   6.24439e+62   -1.2683e+67             0             0    1.2683e+67   -1.2683e+67             0             0             0             0             0
   -1.4674e+60   8.33776e+59   6.24439e+62    1.2683e+67             0             0    1.2683e+67    1.2683e+67             0             0             0             0            -0
   -1.4674e+60   8.33776e+59   6.24439e+62    1.2683e+67             0             0    1.2683e+67    1.2683e+67             0             0            -0             0            -0
  -1.57221e+60   8.25481e+59   6.24527e+62    1.2683e+67             0             0    1.2683e+67    1.2683e+67             0             0            -0             0             0
  -1.57221e+60   8.25481e+59   6.24527e+62    1.2683e+67             0             0    1.2683e+67    1.2683e+67             0             0             0             0             0
  -1.57221e+60   8.25481e+59   6.24527e+62   -1.2683e+67             0             0    1.2683e+67   -1.2683e+67             0             0             0             0            -0
  -1.57221e+60   8.25481e+59   6.24527e+62   -1.2683e+67             0             0    1.2683e+67   -1.2683e+67             0             0            -0             0            -0
  -8.31155e+48   9.49901e+59   6.23214e+62   1.72938e+67             0             0   1.72938e+67   1.72938e+67             0             0            -0             0             0
  -8.31155e+48   9.49901e+59   6.23214e+62   1.72938e+67             0             0   1.72938e+67   1.72938e+67             0             0             0             0             0
  -8.31155e+48   9.49901e+59   6.23214e+62  -1.72938e+67             0             0   1.72938e+67  -1.72938e+67             0             0             0             0            -0
  -8.31155e+48   9.49901e+59   6.23214e+62  -1.72938e+67             0             0   1.72938e+67  -1.72938e+67             0             0            -0             0            -0
   1.04814e+59   9.41606e+59   6.23302e+62  -1.72938e+67             0             0   1.72938e+67  -1.72938e+67             0             0            -0             0             0
   1.04814e+59   9.41606e+59   6.23302e+62  -1.72938e+67             0             0   1.72938e+67  -1.72938e+67             0             0             0             0             0
   1.04814e+59   9.41606e+59   6.23302e+62   1.72938e+67             0             0   1.72938e+67   1.72938e+67             0             0             0             0            -0
   1.04814e+59   9.41606e+59   6.23302e+62   1.72938e+67             0             0   1.72938e+67   1.72938e+67             0             0            -0             0            -0
   1.04814e+59   9.41606e+59   6.23302e+62   1.72938e+67             0             0   1.72938e+67   1.72938e+67             0             0            -0             0             0
   1.04814e+59   9.41606e+59   6.23302e+62   1.72938e+67             0             0   1.72938e+67   1.72938e+67             0             0             0             0             0
   1.04814e+59   9.41606e+59   6.23302e+62  -1.72938e+67             0             0   1.72938e+67  -1.72938e+67             0             0             0             0            -0
   1.04814e+59   9.41606e+59   6.23302e+62  -1.72938e+67             0             0   1.72938e+67  -1.72938e+67             0             0            -0             0            -0
   2.09628e+59   9.33312e+59   6.23389e+62  -1.72938e+67             0             0   1.72938e+67  -1.72938e+67             0             0            -0             0             0
   2.09628e+59   9.33312e+59   6.23389e+62  -1.72938e+67             0             0   1.72938e+67  -1.72938e+67             0             0             0             0             0
   2.09628e+59   9.33312e+59   6.23389e+62   1.72938e+67             0             0   1.72938e+67   1.72938e+67             0             0             0             0            -0
   2.09628e+59   9.33312e+59   6.23389e+62   1.72938e+67             0             0   1.72938e+67   1.72938e+67             0             0            -0             0            -0
   2.09628e+59   9.33312e+59   6.23389e+62   1.72938e+67             0             0   1.72938e+67   1.72938e+67             0             0            -0             0             0
   2.09628e+59   9.33312e+59   6.23389e+62   1.72938e+67             0             0   1.72938e+67   1.72938e+67             0             0             0             0             0
   2.09628e+59   9.33312e+59   6.23389e+62  -1.72938e+67             0             0   1.72938e+67  -1.72938e+67             0             0             0             0            -0
   2.09628e+59   9.33312e+59   6.23389e+62  -1.72938e+67             0             0   1.72938e+67  -1.72938e+67             0             0            -0             0            -0
   3.14442e+59   9.25017e+59   6.23477e+62  -1.72938e+67             0             0   1.72938e+67  -1.72938e+67             0             0            -0             0             0
   3.14442e+59   9.25017e+59   6.23477e+62  -1.72938e+67             0             0   1.72938e+67  -1.72938e+67             0             0             0             0             0
   3.14442e+59   9.25017e+59   6.23477e+62   1.72938e+67             0             0   1.72938e+67   1.72938e+67             0             0             0             0            -0
   3.14442e+59   9.25017e+59   6.23477e+62   1.72938e+67             0             0   1.72938e+67   1.72938e+67             0             0            -0             0            -0
   3.14442e+59   9.25017e+59   6.23477e+62   1.72938e+67             0             0   1.72938e+67   1.72938e+67             0             0            -0             0             0
   3.14442e+59   9.25017e+59   6.23477e+62   1.72938e+67             0             0   1.72938e+67   1.72938e+67             0             0             0             0             0
   3.14442e+59   9.25017e+59   6.23477e+62  -1.72938e+67             0             0   1.72938e+67  -1.72938e+67             0             0             0             0            -0
   3.14442e+59   9.25017e+59   6.23477e+62  -1.72938e+67             0             0   1.72938e+67  -1.72938e+67             0             0            -0             0            -0
   4.19256e+59   9.16722e+59   6.23564e+62  -1.72938e+67             0             0   1.72938e+67  -1.72938e+67             0             0            -0             0             0
   4.19256e+59   9.16722e+59   6.23564e+62  -1.72938e+67             0             0   1.72938e+67  -1.72938e+67             0             0             0             0             0
   4.19256e+59   9.16722e+59   6.23564e+62   1.72938e+67             0             0   1.72938e+67   1.72938e+67             0             0             0             0            -0
   4.19256e+59   9.16722e+59   6.23564e+62   1.72938e+67             0             0   1.72938e+67   1.72938e+67             0             0            -0             0            -0
   4.19256e+59   9.16722e+59   6.23564e+62   1.72938e+67             0             0   1.72938e+67   1.72938e+67             0             0            -0             0             0
   4.19256e+59   9.16722e+59   6.23564e+62   1.72938e+67             0             0   1.72938e+67   1.72938e+67             0             0             0             0             0
   4.19256e+59   9.16722e+59   6.23564e+62  -1.72938e+67             0             0   1.72938e+67  -1.72938e+67             0             0             0             0            -0
   4.19256e+59   9.16722e+59   6.23564e+62  -1.72938e+67             0             0   1.72938e+67  -1.72938e+67             0             0            -0             0            -0
    5.2407e+59   9.08428e+59   6.23652e+62  -1.72938e+67             0             0   1.72938e+67  -1.72938e+67             0             0            -0             0             0
    5.2407e+59   9.08428e+59   6.23652e+62  -1.72938e+67             0             0   1.72938e+67  -1.72938e+67             0             0             0             0             0
    5.2407e+59   9.08428e+59   6.23652e+62   1.72938e+67             0             0   1.72938e+67   1.72938e+67             0             0             0             0            -0
    5.2407e+59   9.08428e+59   6.23652e+62   1.72938e+67             0             0   1.72938e+67   1.72938e+67             0             0            -0             0            -0
    5.2407e+59   9.08428e+59   6.23652e+62   1.72938e+67             0             0   1.72938e+67   1.72938e+67             0             0            -0             0             0
    5.2407e+59   9.08428e+59   6.23652e+62   1.72938e+67             0             0   1.72938e+67   1.72938e+67             0             0             0             0             0
    5.2407e+59   9.08428e+59   6.23652e+62  -1.72938e+67             0             0   1.72938e+67  -1.72938e+67             0             0             0             0            -0
    5.2407e+59   9.08428e+59   6.23652e+62  -1.72938e+67             0             0   1.72938e+67  -1.72938e+67             0             0            -0             0            -0
   6.28885e+59   9.00133e+59   6.23739e+62  -1.72938e+67             0             0   1.72938e+67  -1.72938e+67             0             0            -0             0             0
   6.28885e+59   9.00133e+59   6.23739e+62  -1.72938e+67             0             0   1.72938e+67  -1.72938e+67             0             0             0             0             0
   6.28885e+59   9.00133e+59   6.23739e+62   1.72938e+67             0             0   1.72938e+67   1.72938e+67             0             0             0             0            -0
   6.28885e+59   9.00133e+59   6.23739e+62   1.72938e+67             0             0   1.72938e+67   1.72938e+67             0             0            -0             0            -0
   6.28885e+59   9.00133e+59   6.23739e+62   1.72938e+67             0             0   1.72938e+67   1.72938e+67             0             0            -0             0             0
   6.28885e+59   9.00133e+59   6.23739e+62   1.72938e+67             0             0   1.72938e+67   1.72938e+67             0             0             0             0             0
   6.28885e+59   9.00133e+59   6.23739e+62  -1.72938e+67             0             0   1.72938e+67  -1.72938e+67             0             0             0             0            -0
   6.28885e+59   9.00133e+59   6.23739e+62  -1.72938e+67             0             0   1.72938e+67  -1.72938e+67             0             0            -0             0            -0
   7.33699e+59   8.91838e+59   6.23827e+62  -1.72938e+67             0             0   1.72938e+67  -1.72938e+67             0             0            -0             0             0
   7.33699e+59   8.91838e+59   6.23827e+62  -1.72938e+67             0             0   1.72938e+67  -1.72938e+67             0             0             0             0             0
   7.33699e+59   8.91838e+59   6.23827e+62   1.72938e+67             0             0   1.72938e+67   1.72938e+67             0             0             0             0            -0
   7.33699e+59   8.91838e+59   6.23827e+62   1.72938e+67             0             0   1.72938e+67   1.72938e+67             0             0            -0             0            -0
   7.33699e+59   8.91838e+59   6.23827e+62   1.72938e+67             0             0   1.72938e+67   1.72938e+67             0             0            -0             0             0
   7.33699e+59   8.91838e+59   6.23827e+62   1.72938e+67             0             0   1.72938e+67   1.72938e+67             0             0             0             0             0
   7.33699e+59   8.91838e+59   6.23827e+62  -1.72938e+67             0             0   1.72938e+67  -1.72938e+67             0             0             0             0            -0
   7.33699e+59   8.91838e+59   6.23827e+62  -1.72938e+67             0             0   1.72938e+67  -1.72938e+67             0             0            -0             0            -0
   8.38513e+59   8.83544e+59   6.23914e+62  -1.72938e+67             0             0   1.72938e+67  -1.72938e+67             0             0            -0             0             0
   8.38513e+59   8.83544e+59   6.23914e+62  -1.72938e+67             0             0   1.72938e+67  -1.72938e+67             0             0             0             0             0
   8.38513e+59   8.83544e+59   6.23914e+62   1.72938e+67             0             0   1.72938e+67   1.72938e+67             0             0             0             0            -0
   8.38513e+59   8.83544e+59   6.23914e+62   1.72938e+67             0             0   1.72938e+67   1.72938e+67             0             0            -0             0            -0
   8.38513e+59   8.83544e+59   6.23914e+62   1.72938e+67             0             0   1.72938e+67   1.72938e+67             0             0            -0             0             0
   8.38513e+59   8.83544e+59   6.23914e+62   1.72938e+67             0             0   1.72938e+67   1.72938e+67             0             0             0             0             0
   8.38513e+59   8.83544e+59   6.23914e+62  -1.72938e+67             0             0   1.72938e+67  -1.72938e+67             0             0             0             0            -0
   8.38513e+59   8.83544e+59   6.23914e+62  -1.72938e+67             0             0   1.72938e+67  -1.72938e+67             0             0            -0             0            -0
   9.43327e+59   8.75249e+59   6.24002e+62  -1.72938e+67             0             0   1.72938e+67  -1.72938e+67             0             0            -0             0             0
   9.43327e+59   8.75249e+59   6.24002e+62  -1.72938e+67             0             0   1.72938e+67  -1.72938e+67             0             0             0             0             0
   9.43327e+59   8.75249e+59   6.24002e+62   1.72938e+67             0             0   1.72938e+67   1.72938e+67             0             0             0             0            -0
   9.43327e+59   8.75249e+59   6.24002e+62   1.72938e+67             0             0   1.72938e+67   1.72938e+67             0             0            -0             0            -0
   9.43327e+59   8.75249e+59   6.24002e+62   1.72938e+67             0             0   1.72938e+67   1.72938e+67             0             0            -0             0             0
   9.43327e+59   8.75249e+59   6.24002e+62   1.72938e+67             0             0   1.72938e+67   1.72938e+67             0             0             0             0             0
   9.43327e+59   8.75249e+59   6.24002e+62  -1.72938e+67             0             0   1.72938e+67  -1.72938e+67             0             0             0             0            -0
   9.43327e+59   8.75249e+59   6.24002e+62  -1.72938e+67             0             0   1.72938e+67  -1.72938e+67             0             0            -0             0            -0
   1.04814e+60   8.66954e+59   6.24089e+62  -1.72938e+67             0             0   1.72938e+67  -1.72938e+67             0             0            -0             0             0
   1.04814e+60   8.66954e+59   6.24089e+62  -1.72938e+67             0             0   1.72938e+67  -1.72938e+67             0             0             0             0             0
   1.04814e+60   8.66954e+59   6.24089e+62   1.72938e+67             0             0   1.72938e+67   1.72938e+67             0             0             0             0            -0
   1.04814e+60   8.66954e+59   6.24089e+62   1.72938e+67             0             0   1.72938e+67   1.72938e+67             0             0            -0             0            -0
   1.04814e+60   8.66954e+59   6.24089e+62   1.72938e+67             0             0   1.72938e+67   1.72938e+67             0             0            -0             0             0
   1.04814e+60   8.66954e+59   6.24089e+62   1.72938e+67             0             0   1.72938e+67   1.72938e+67             0             0             0             0             0
   1.04814e+60   8.66954e+59   6.24089e+62  -1.72938e+67             0             0   1.72938e+67  -1.72938e+67             0             0             0             0            -0
   1.04814e+60   8.66954e+59   6.24089e+62  -1.72938e+67             0             0   1.72938e+67  -1.72938e+67             0             0            -0             0            -0
   1.15295e+60    8.5866e+59   6.24177e+62  -1.72938e+67             0             0   1.72938e+67  -1.72938e+67             0             0            -0             0             0
   1.15295e+60    8.5866e+59   6.24177e+62  -1.72938e+67             0             0   1.72938e+67  -1.72938e+67             0             0             0             0             0
   1.15295e+60    8.5866e+59   6.24177e+62   1.72938e+67             0             0   1.72938e+67   1.72938e+67             0             0             0             0            -0
   1.15295e+60    8.5866e+59   6.24177e+62   1.72938e+67             0             0   1.72938e+67   1.72938e+67             0             0            -0             0            -0
   1.15295e+60    8.5866e+59   6.24177e+62   1.72938e+67             0             0   1.72938e+67   1.72938e+67             0             0            -0             0             0
   1.15295e+60    8.5866e+59   6.24177e+62   1.72938e+67             0             0   1.72938e+67   1.72938e+67             0             0             0             0             0
   1.15295e+60    8.5866e+59   6.24177e+62  -1.72938e+67             0             0   1.72938e+67  -1.72938e+67             0             0             0             0            -0
   1.15295e+60    8.5866e+59   6.24177e+62  -1.72938e+67             0             0   1.72938e+67  -1.72938e+67             0             0            -0             0            -0
   1.25777e+60   8.50365e+59   6.24264e+62  -1.72938e+67             0             0   1.72938e+67  -1.72938e+67             0             0            -0             0             0
   1.25777e+60   8.50365e+59   6.24264e+62  -1.72938e+67             0             0   1.72938e+67  -1.72938e+67             0             0             0             0             0
   1.25777e+60   8.50365e+59   6.24264e+62   1.72938e+67             0             0   1.72938e+67   1.72938e+67             0             0             0             0            -0
   1.25777e+60   8.50365e+59   6.24264e+62   1.72938e+67             0             0   1.72938e+67   1.72938e+67             0             0            -0             0            -0
   1.25777e+60   8.50365e+59   6.24264e+62   1.72938e+67             0             0   1.72938e+67   1.72938e+67             0             0            -0             0             0
   1.25777e+60   8.50365e+59   6.24264e+62   1.72938e+67             0             0   1.72938e+67   1.72938e+67             0             0             0             0             0
   1.25777e+60   8.50365e+59   6.24264e+62  -1.72938e+67             0             0   1.72938e+67  -1.72938e+67             0             0             0             0            -0
   1.25777e+60   8.50365e+59   6.24264e+62  -1.72938e+67             0             0   1.72938e+67  -1.72938e+67             0             0            -0             0            -0
   1.36258e+60    8.4207e+59   6.24352e+62  -1.72938e+67             0             0   1.72938e+67  -1.72938e+67             0             0            -0             0             0
   1.36258e+60    8.4207e+59   6.24352e+62  -1.72938e+67             0             0   1.72938e+67  -1.72938e+67             0             0             0             0             0
   1.36258e+60    8.4207e+59   6.24352e+62   1.72938e+67             0             0   1.72938e+67   1.72938e+67             0             0             0             0            -0
   1.36258e+60    8.4207e+59   6.24352e+62   1.72938e+67             0             0   1.72938e+67   1.72938e+67             0             0            -0             0            -0
   1.36258e+60    8.4207e+59   6.24352e+62   1.72938e+67             0             0   1.72938e+67   1.72938e+67             0             0            -0             0             0
   1.36258e+60    8.4207e+59   6.24352e+62   1.72938e+67             0             0   1.72938e+67   1.72938e+67             0             0             0             0             0
   1.36258e+60    8.4207e+59   6.24352e+62  -1.72938e+67             0             0   1.72938e+67  -1.72938e+67             0             0             0             0            -0
   1.36258e+60    8.4207e+59   6.24352e+62  -1.72938e+67             0             0   1.72938e+67  -1.72938e+67             0             0            -0             0            -0
    1.4674e+60   8.33776e+59   6.24439e+62  -1.72938e+67             0             0   1.72938e+67  -1.72938e+67             0             0            -0             0             0
    1.4674e+60   8.33776e+59   6.24439e+62  -1.72938e+67             0             0   1.72938e+67  -1.72938e+67             0             0             0             0             0
    1.4674e+60   8.33776e+59   6.24439e+62   1.72938e+67             0             0   1.72938e+67   1.72938e+67             0             0             0             0            -0
    1.4674e+60   8.33776e+59   6.24439e+62   1.72938e+67             0             0   1.72938e+67   1.72938e+67             0             0            -0             0            -0
    1.4674e+60   8.33776e+59   6.24439e+62   1.72938e+67             0             0   1.72938e+67   1.72938e+67             0             0            -0             0             0
    1.4674e+60   8.33776e+59   6.24439e+62   1.72938e+67             0             0   1.72938e+67   1.72938e+67             0             0             0             0             0
    1.4674e+60   8.33776e+59   6.24439e+62  -1.72938e+67             0             0   1.72938e+67  -1.72938e+67             0             0             0             0            -0
    1.4674e+60   8.33776e+59   6.24439e+62  -1.72938e+67             0             0   1.72938e+67  -1.72938e+67             0             0            -0             0            -0
   1.57221e+60   8.25481e+59   6.24527e+62  -1.72938e+67             0             0   1.72938e+67  -1.72938e+67             0             0            -0             0             0
   1.57221e+60   8.25481e+59   6.24527e+62  -1.72938e+67             0             0   1.72938e+67  -1.72938e+67             0             0             0             0             0
   1.57221e+60   8.25481e+59   6.24527e+62   1.72938e+67             0             0   1.72938e+67   1.72938e+67             0             0             0             0            -0
   1.57221e+60   8.25481e+59   6.24527e+62   1.72938e+67             0             0   1.72938e+67   1.72938e+67             0             0            -0             0            -0
    -1.975e+49   8.83601e+59   6.23346e+62   1.26933e+66             0             0   1.26933e+66   1.26933e+66             0             0            -0             0             0
    -1.975e+49   8.83601e+59   6.23346e+62   1.26933e+66             0             0   1.26933e+66   1.26933e+66             0             0             0             0             0
    -1.975e+49   8.83601e+59   6.23346e+62  -1.26933e+66             0             0   1.26933e+66  -1.26933e+66             0             0             0             0            -0
    -1.975e+49   8.83601e+59   6.23346e+62  -1.26933e+66             0             0   1.26933e+66  -1.26933e+66             0             0            -0             0            -0
   1.20939e+59    8.7913e+59   6.23437e+62  -1.26933e+66             0             0   1.26933e+66  -1.26933e+66             0             0            -0             0             0
   1.20939e+59    8.7913e+59   6.23437e+62  -1.26933e+66             0             0   1.26933e+66  -1.26933e+66             0             0             0             0             0
   1.20939e+59    8.7913e+59   6.23437e+62   1.26933e+66             0             0   1.26933e+66   1.26933e+66             0             0             0             0            -0
   1.20939e+59    8.7913e+59   6.23437e+62   1.26933e+66             0             0   1.26933e+66   1.26933e+66             0             0            -0             0            -0
   1.20939e+59    8.7913e+59   6.23437e+62   1.26933e+66             0             0   1.26933e+66   1.26933e+66             0             0            -0             0             0
   1.20939e+59    8.7913e+59   6.23437e+62   1.26933e+66             0             0   1.26933e+66   1.26933e+66             0             0             0             0             0
   1.20939e+59    8.7913e+59   6.23437e+62  -1.26933e+66             0             0   1.26933e+66  -1.26933e+66             0             0             0             0            -0
   1.20939e+59    8.7913e+59   6.23437e+62  -1.26933e+66             0             0   1.26933e+66  -1.26933e+66             0             0            -0             0            -0
   2.41879e+59   8.74659e+59   6.23528e+62  -1.26933e+66             0             0   1.26933e+66  -1.26933e+66             0             0            -0             0             0
   2.41879e+59   8.74659e+59   6.23528e+62  -1.26933e+66             0             0   1.26933e+66  -1.26933e+66             0             0             0             0             0
   2.41879e+59   8.74659e+59   6.23528e+62   1.26933e+66             0             0   1.26933e+66   1.26933e+66             0             0             0             0            -0
   2.41879e+59   8.74659e+59   6.23528e+62   1.26933e+66             0             0   1.26933e+66   1.26933e+66             0             0            -0             0            -0
   2.41879e+59   8.74659e+59   6.23528e+62   1.26933e+66             0             0   1.26933e+66   1.26933e+66             0             0            -0             0             0
   2.41879e+59   8.74659e+59   6.23528e+62   1.26933e+66             0             0   1.26933e+66   1.26933e+66             0             0             0             0             0
   2.41879e+59   8.74659e+59   6.23528e+62  -1.26933e+66             0             0   1.26933e+66  -1.26933e+66             0             0             0             0            -0
   2.41879e+59   8.74659e+59   6.23528e+62  -1.26933e+66             0             0   1.26933e+66  -1.26933e+66             0             0            -0             0            -0
   3.62818e+59   8.70189e+59   6.23618e+62  -1.26933e+66             0             0   1.26933e+66  -1.26933e+66             0             0            -0             0             0
   3.62818e+59   8.70189e+59   6.23618e+62  -1.26933e+66             0             0   1.26933e+66  -1.26933e+66             0             0             0             0             0
   3.62818e+59   8.70189e+59   6.23618e+62   1.26933e+66             0             0   1.26933e+66   1.26933e+66             0             0             0             0            -0
   3.62818e+59   8.70189e+59   6.23618e+62   1.26933e+66             0             0   1.26933e+66   1.26933e+66             0             0            -0             0            -0
   3.62818e+59   8.70189e+59   6.23618e+62   1.26933e+66             0             0   1.26933e+66   1.26933e+66             0             0            -0             0             0
   3.62818e+59   8.70189e+59   6.23618e+62   1.26933e+66             0             0   1.26933e+66   1.26933e+66             0             0             0             0             0
   3.62818e+59   8.70189e+59   6.23618e+62  -1.26933e+66             0             0   1.26933e+66  -1.26933e+66             0             0             0             0            -0
   3.62818e+59   8.70189e+59   6.23618e+62  -1.26933e+66             0             0   1.26933e+66  -1.26933e+66             0             0            -0             0            -0
   4.83757e+59   8.65718e+59   6.23709e+62  -1.26933e+66             0             0   1.26933e+66  -1.26933e+66             0             0            -0             0             0
   4.83757e+59   8.65718e+59   6.23709e+62  -1.26933e+66             0             0   1.26933e+66  -1.26933e+66             0             0             0             0             0
   4.83757e+59   8.65718e+59   6.23709e+62   1.26933e+66             0             0   1.26933e+66   1.26933e+66             0             0             0             0            -0
   4.83757e+59   8.65718e+59   6.23709e+62   1.26933e+66             0             0   1.26933e+66   1.26933e+66             0             0            -0             0            -0
   4.83757e+59   8.65718e+59   6.23709e+62   1.26933e+66             0             0   1.26933e+66   1.26933e+66             0             0            -0             0             0
   4.83757e+59   8.65718e+59   6.23709e+62   1.26933e+66             0             0   1.26933e+66   1.26933e+66             0             0             0             0             0
   4.83757e+59   8.65718e+59   6.23709e+62  -1.26933e+66             0             0   1.26933e+66  -1.26933e+66             0             0             0             0            -0
   4.83757e+59   8.65718e+59   6.23709e+62  -1.26933e+66             0             0   1.26933e+66  -1.26933e+66             0             0            -0             0            -0
   6.04697e+59   8.61247e+59     6.238e+62  -1.26933e+66             0             0   1.26933e+66  -1.26933e+66             0             0            -0             0             0
   6.04697e+59   8.61247e+59     6.238e+62  -1.26933e+66             0             0   1.26933e+66  -1.26933e+66             0             0             0             0             0
   6.04697e+59   8.61247e+59     6.238e+62   1.26933e+66             0             0   1.26933e+66   1.26933e+66             0             0             0             0            -0
   6.04697e+59   8.61247e+59     6.238e+62   1.26933e+66             0             0   1.26933e+66   1.26933e+66             0             0            -0             0            -0
   6.04697e+59   8.61247e+59     6.238e+62   1.26933e+66             0             0   1.26933e+66   1.26933e+66             0             0            -0             0             0
   6.04697e+59   8.61247e+59     6.238e+62   1.26933e+66             0             0   1.26933e+66   1.26933e+66             0             0             0             0             0
   6.04697e+59   8.61247e+59     6.238e+62  -1.26933e+66             0             0   1.26933e+66  -1.26933e+66             0             0             0             0            -0
   6.04697e+59   8.61247e+59     6.238e+62  -1.26933e+66             0             0   1.26933e+66  -1.26933e+66             0             0            -0             0            -0
   7.25636e+59   8.56776e+59   6.23891e+62  -1.26933e+66             0             0   1.26933e+66  -1.26933e+66             0             0            -0             0             0
   7.25636e+59   8.56776e+59   6.23891e+62  -1.26933e+66             0             0   1.26933e+66  -1.26933e+66             0             0             0             0             0
   7.25636e+59   8.56776e+59   6.23891e+62   1.26933e+66             0             0   1.26933e+66   1.26933e+66             0             0             0             0            -0
   7.25636e+59   8.56776e+59   6.23891e+62   1.26933e+66             0             0   1.26933e+66   1.26933e+66             0             0            -0             0            -0
   7.25636e+59   8.56776e+59   6.23891e+62   1.26933e+66             0             0   1.26933e+66   1.26933e+66             0             0            -0             0             0
   7.25636e+59   8.56776e+59   6.23891e+62   1.26933e+66             0             0   1.26933e+66   1.26933e+66             0             0             0             0             0
   7.25636e+59   8.56776e+59   6.23891e+62  -1.26933e+66             0             0   1.26933e+66  -1.26933e+66             0             0             0             0            -0
   7.25636e+59   8.56776e+59   6.23891e+62  -1.26933e+66             0             0   1.26933e+66  -1.26933e+66             0             0            -0             0            -0
   8.46575e+59   8.52306e+59   6.23982e+62  -1.26933e+66             0             0   1.26933e+66  -1.26933e+66             0             0            -0             0             0
   8.46575e+59   8.52306e+59   6.23982e+62  -1.26933e+66             0             0   1.26933e+66  -1.26933e+66             0             0             0             0             0
   8.46575e+59   8.52306e+59   6.23982e+62   1.26933e+66             0             0   1.26933e+66   1.26933e+66             0             0             0             0            -0
   8.46575e+59   8.52306e+59   6.23982e+62   1.26933e+66             0             0   1.26933e+66   1.26933e+66             0             0            -0             0            -0
   8.46575e+59   8.52306e+59   6.23982e+62   1.26933e+66             0             0   1.26933e+66   1.26933e+66             0             0            -0             0             0
   8.46575e+59   8.52306e+59   6.23982e+62   1.26933e+66             0             0   1.26933e+66   1.26933e+66             0             0             0             0             0
   8.46575e+59   8.52306e+59   6.23982e+62  -1.26933e+66             0             0   1.26933e+66  -1.26933e+66             0             0             0             0            -0
   8.46575e+59   8.52306e+59   6.23982e+62  -1.26933e+66             0             0   1.26933e+66  -1.26933e+66             0             0            -0             0            -0
   9.67515e+59   8.47835e+59   6.24073e+62  -1.26933e+66             0             0   1.26933e+66  -1.26933e+66             0             0            -0             0             0
   9.67515e+59   8.47835e+59   6.24073e+62  -1.26933e+66             0             0   1.26933e+66  -1.26933e+66             0             0             0             0             0
   9.67515e+59   8.47835e+59   6.24073e+62   1.26933e+66             0             0   1.26933e+66   1.26933e+66             0             0             0             0            -0
   9.67515e+59   8.47835e+59   6.24073e+62   1.26933e+66             0             0   1.26933e+66   1.26933e+66             0             0            -0             0            -0
   9.67515e+59   8.47835e+59   6.24073e+62   1.26933e+66             0             0   1.26933e+66   1.26933e+66             0             0            -0             0             0
   9.67515e+59   8.47835e+59   6.24073e+62   1.26933e+66             0             0   1.26933e+66   1.26933e+66             0             0             0             0             0
   9.67515e+59   8.47835e+59   6.24073e+62  -1.26933e+66             0             0   1.26933e+66  -1.26933e+66             0             0             0             0            -0
   9.67515e+59   8.47835e+59   6.24073e+62  -1.26933e+66             0             0   1.26933e+66  -1.26933e+66             0             0            -0             0            -0
   1.08845e+60   8.43364e+59   6.24164e+62  -1.26933e+66             0             0   1.26933e+66  -1.26933e+66             0             0            -0             0             0
   1.08845e+60   8.43364e+59   6.24164e+62  -1.26933e+66             0             0   1.26933e+66  -1.26933e+66             0             0             0             0             0
   1.08845e+60   8.43364e+59   6.24164e+62   1.26933e+66             0             0   1.26933e+66   1.26933e+66             0             0             0             0            -0
   1.08845e+60   8.43364e+59   6.24164e+62   1.26933e+66             0             0   1.26933e+66   1.26933e+66             0             0            -0             0            -0
   1.08845e+60   8.43364e+59   6.24164e+62   1.26933e+66             0             0   1.26933e+66   1.26933e+66             0             0            -0             0             0
   1.08845e+60   8.43364e+59   6.24164e+62   1.26933e+66             0             0   1.26933e+66   1.26933e+66             0             0             0             0             0
   1.08845e+60   8.43364e+59   6.24164e+62  -1.26933e+66             0             0   1.26933e+66  -1.26933e+66             0             0             0             0            -0
   1.08845e+60   8.43364e+59   6.24164e+62  -1.26933e+66             0             0   1.26933e+66  -1.26933e+66             0             0            -0             0            -0
   1.20939e+60   8.38893e+59   6.24254e+62  -1.26933e+66             0             0   1.26933e+66  -1.26933e+66             0             0            -0             0             0
   1.20939e+60   8.38893e+59   6.24254e+62  -1.26933e+66             0             0   1.26933e+66  -1.26933e+66             0             0             0             0             0
   1.20939e+60   8.38893e+59   6.24254e+62   1.26933e+66             0             0   1.26933e+66   1.26933e+66             0             0             0             0            -0
   1.20939e+60   8.38893e+59   6.24254e+62   1.26933e+66             0             0   1.26933e+66   1.26933e+66             0             0            -0             0            -0
   1.20939e+60   8.38893e+59   6.24254e+62   1.26933e+66             0             0   1.26933e+66   1.26933e+66             0             0            -0             0             0
   1.20939e+60   8.38893e+59   6.24254e+62   1.26933e+66             0             0   1.26933e+66   1.26933e+66             0             0             0             0             0
   1.20939e+60   8.38893e+59   6.24254e+62  -1.26933e+66             0             0   1.26933e+66  -1.26933e+66             0             0             0             0            -0
   1.20939e+60   8.38893e+59   6.24254e+62  -1.26933e+66             0             0   1.26933e+66  -1.26933e+66             0             0            -0             0            -0
   1.33033e+60   8.34423e+59   6.24345e+62  -1.26933e+66             0             0   1.26933e+66  -1.26933e+66             0             0            -0             0             0
   1.33033e+60   8.34423e+59   6.24345e+62  -1.26933e+66             0             0   1.26933e+66  -1.26933e+66             0             0             0             0             0
   1.33033e+60   8.34423e+59   6.24345e+62   1.26933e+66             0             0   1.26933e+66   1.26933e+66             0             0             0             0            -0
   1.33033e+60   8.34423e+59   6.24345e+62   1.26933e+66             0             0   1.26933e+66   1.26933e+66             0             0            -0             0            -0
   1.33033e+60   8.34423e+59   6.24345e+62   1.26933e+66             0             0   1.26933e+66   1.26933e+66             0             0            -0             0             0
   1.33033e+60   8.34423e+59   6.24345e+62   1.26933e+66             0             0   1.26933e+66   1.26933e+66             0             0             0             0             0
   1.33033e+60   8.34423e+59   6.24345e+62  -1.26933e+66             0             0   1.26933e+66  -1.26933e+66             0             0             0             0            -0
   1.33033e+60   8.34423e+59   6.24345e+62  -1.26933e+66             0             0   1.26933e+66  -1.26933e+66             0             0            -0             0            -0
   1.45127e+60   8.29952e+59   6.24436e+62  -1.26933e+66             0             0   1.26933e+66  -1.26933e+66             0             0            -0             0             0
   1.45127e+60   8.29952e+59   6.24436e+62  -1.26933e+66             0             0   1.26933e+66  -1.26933e+66             0             0             0             0             0
   1.45127e+60   8.29952e+59   6.24436e+62   1.26933e+66             0             0   1.26933e+66   1.26933e+66             0             0             0             0            -0
   1.45127e+60   8.29952e+59   6.24436e+62   1.26933e+66             0             0   1.26933e+66   1.26933e+66             0             0            -0             0            -0
   1.45127e+60   8.29952e+59   6.24436e+62   1.26933e+66             0             0   1.26933e+66   1.26933e+66             0             0            -0             0             0
   1.45127e+60   8.29952e+59   6.24436e+62   1.26933e+66             0             0   1.26933e+66   1.26933e+66             0             0             0             0             0
   1.45127e+60   8.29952e+59   6.24436e+62  -1.26933e+66             0             0   1.26933e+66  -1.26933e+66             0             0             0             0            -0
   1.45127e+60   8.29952e+59   6.24436e+62  -1.26933e+66             0             0   1.26933e+66  -1.26933e+66             0             0            -0             0            -0
   1.57221e+60   8.25481e+59   6.24527e+62  -1.26933e+66             0             0   1.26933e+66  -1.26933e+66             0             0            -0             0             0
   1.57221e+60   8.25481e+59   6.24527e+62  -1.26933e+66             0             0   1.26933e+66  -1.26933e+66             0             0             0             0             0
   1.57221e+60   8.25481e+59   6.24527e+62   1.26933e+66             0             0   1.26933e+66   1.26933e+66             0             0             0             0            -0
   1.57221e+60   8.25481e+59   6.24527e+62   1.26933e+66             0             0   1.26933e+66   1.26933e+66             0             0            -0             0            -0
    -1.975e+49   8.83601e+59   6.23346e+62   -2.4752e+66             0             0    2.4752e+66   -2.4752e+66             0             0            -0             0             0
    -1.975e+49   8.83601e+59   6.23346e+62   -2.4752e+66             0             0    2.4752e+66   -2.4752e+66             0             0             0             0             0
    -1.975e+49   8.83601e+59   6.23346e+62    2.4752e+66             0             0    2.4752e+66    2.4752e+66             0             0             0             0            -0
    -1.975e+49   8.83601e+59   6.23346e+62    2.4752e+66             0             0    2.4752e+66    2.4752e+66             0             0            -0             0            -0
  -1.83042e+49   8.91888e+59   6.23329e+62    2.4752e+66             0             0    2.4752e+66    2.4752e+66             0             0            -0             0             0
  -1.83042e+49   8.91888e+59   6.23329e+62    2.4752e+66             0             0    2.4752e+66    2.4752e+66             0             0             0             0             0
  -1.83042e+49   8.91888e+59   6.23329e+62   -2.4752e+66             0             0    2.4752e+66   -2.4752e+66             0             0             0             0            -0
  -1.83042e+49   8.91888e+59   6.23329e+62   -2.4752e+66             0             0    2.4752e+66   -2.4752e+66             0             0            -0             0            -0
  -1.83042e+49   8.91888e+59   6.23329e+62   -2.4752e+66             0             0    2.4752e+66   -2.4752e+66             0             0            -0             0             0
  -1.83042e+49   8.91888e+59   6.23329e+62   -2.4752e+66             0             0    2.4752e+66   -2.4752e+66             0             0             0             0             0
  -1.83042e+49   8.91888e+59   6.23329e+62    2.4752e+66             0             0    2.4752e+66    2.4752e+66             0             0             0             0            -0
  -1.83042e+49   8.91888e+59   6.23329e+62    2.4752e+66             0             0    2.4752e+66    2.4752e+66             0             0            -0             0            -0
  -1.68561e+49   9.00176e+59   6.23313e+62    2.4752e+66             0             0    2.4752e+66    2.4752e+66             0             0            -0             0             0
  -1.68561e+49   9.00176e+59   6.23313e+62    2.4752e+66             0             0    2.4752e+66    2.4752e+66             0             0             0             0             0
  -1.68561e+49   9.00176e+59   6.23313e+62   -2.4752e+66             0             0    2.4752e+66   -2.4752e+66             0             0             0             0            -0
  -1.68561e+49   9.00176e+59   6.23313e+62   -2.4752e+66             0             0    2.4752e+66   -2.4752e+66             0             0            -0             0            -0
  -1.68561e+49   9.00176e+59   6.23313e+62   -2.4752e+66             0             0    2.4752e+66   -2.4752e+66             0             0            -0             0             0
  -1.68561e+49   9.00176e+59   6.23313e+62   -2.4752e+66             0             0    2.4752e+66   -2.4752e+66             0             0             0             0             0
  -1.68561e+49   9.00176e+59   6.23313e+62    2.4752e+66             0             0    2.4752e+66    2.4752e+66             0             0             0             0            -0
  -1.68561e+49   9.00176e+59   6.23313e+62    2.4752e+66             0             0    2.4752e+66    2.4752e+66             0             0            -0             0            -0
  -1.54091e+49   9.08463e+59   6.23296e+62    2.4752e+66             0             0    2.4752e+66    2.4752e+66             0             0            -0             0             0
  -1.54091e+49   9.08463e+59   6.23296e+62    2.4752e+66             0             0    2.4752e+66    2.4752e+66             0             0             0             0             0
  -1.54091e+49   9.08463e+59   6.23296e+62   -2.4752e+66             0             0    2.4752e+66   -2.4752e+66             0             0             0             0            -0
  -1.54091e+49   9.08463e+59   6.23296e+62   -2.4752e+66             0             0    2.4752e+66   -2.4752e+66             0             0            -0             0            -0
  -1.54091e+49   9.08463e+59   6.23296e+62   -2.4752e+66             0             0    2.4752e+66   -2.4752e+66             0             0            -0             0             0
  -1.54091e+49   9.08463e+59   6.23296e+62   -2.4752e+66             0             0    2.4752e+66   -2.4752e+66             0             0             0             0             0
  -1.54091e+49   9.08463e+59   6.23296e+62    2.4752e+66             0             0    2.4752e+66    2.4752e+66             0             0             0             0            -0
  -1.54091e+49   9.08463e+59   6.23296e+62    2.4752e+66             0             0    2.4752e+66    2.4752e+66             0             0            -0             0            -0
  -1.39617e+49   9.16751e+59    6.2328e+62    2.4752e+66             0             0    2.4752e+66    2.4752e+66             0             0            -0             0             0
  -1.39617e+49   9.16751e+59    6.2328e+62    2.4752e+66             0             0    2.4752e+66    2.4752e+66             0             0             0             0             0
  -1.39617e+49   9.16751e+59    6.2328e+62   -2.4752e+66             0             0    2.4752e+66   -2.4752e+66             0             0             0             0            -0
  -1.39617e+49   9.16751e+59    6.2328e+62   -2.4752e+66             0             0    2.4752e+66   -2.4752e+66             0             0            -0             0            -0
  -1.39617e+49   9.16751e+59    6.2328e+62   -2.4752e+66             0             0    2.4752e+66   -2.4752e+66             0             0            -0             0             0
  -1.39617e+49   9.16751e+59    6.2328e+62   -2.4752e+66             0             0    2.4752e+66   -2.4752e+66             0             0             0             0             0
  -1.39617e+49   9.16751e+59    6.2328e+62    2.4752e+66             0             0    2.4752e+66    2.4752e+66             0             0             0             0            -0
  -1.39617e+49   9.16751e+59    6.2328e+62    2.4752e+66             0             0    2.4752e+66    2.4752e+66             0             0            -0             0            -0
  -1.25142e+49   9.25038e+59   6.23263e+62    2.4752e+66             0             0    2.4752e+66    2.4752e+66             0             0            -0             0             0
  -1.25142e+49   9.25038e+59   6.23263e+62    2.4752e+66             0             0    2.4752e+66    2.4752e+66             0             0             0             0             0
  -1.25142e+49   9.25038e+59   6.23263e+62   -2.4752e+66             0             0    2.4752e+66   -2.4752e+66             0             0             0             0            -0
  -1.25142e+49   9.25038e+59   6.23263e+62   -2.4752e+66             0             0    2.4752e+66   -2.4752e+66             0             0            -0             0            -0
  -1.25142e+49   9.25038e+59   6.23263e+62   -2.4752e+66             0             0    2.4752e+66   -2.4752e+66             0             0            -0             0             0
  -1.25142e+49   9.25038e+59   6.23263e+62   -2.4752e+66             0             0    2.4752e+66   -2.4752e+66             0             0             0             0             0
  -1.25142e+49   9.25038e+59   6.23263e+62    2.4752e+66             0             0    2.4752e+66    2.4752e+66             0             0             0             0            -0
  -1.25142e+49   9.25038e+59   6.23263e+62    2.4752e+66             0             0    2.4752e+66    2.4752e+66             0             0            -0             0            -0
  -1.10663e+49   9.33326e+59   6.23247e+62    2.4752e+66             0             0    2.4752e+66    2.4752e+66             0             0            -0             0             0
  -1.10663e+49   9.33326e+59   6.23247e+62    2.4752e+66             0             0    2.4752e+66    2.4752e+66             0             0             0             0             0
  -1.10663e+49   9.33326e+59   6.23247e+62   -2.4752e+66             0             0    2.4752e+66   -2.4752e+66             0             0             0             0            -0
  -1.10663e+49   9.33326e+59   6.23247e+62   -2.4752e+66             0             0    2.4752e+66   -2.4752e+66             0             0            -0             0            -0
  -1.10663e+49   9.33326e+59   6.23247e+62   -2.4752e+66             0             0    2.4752e+66   -2.4752e+66             0             0            -0             0             0
  -1.10663e+49   9.33326e+59   6.23247e+62   -2.4752e+66             0             0    2.4752e+66   -2.4752e+66             0             0             0             0             0
  -1.10663e+49   9.33326e+59   6.23247e+62    2.4752e+66             0             0    2.4752e+66    2.4752e+66             0             0             0             0            -0
  -1.10663e+49   9.33326e+59   6.23247e+62    2.4752e+66             0             0    2.4752e+66    2.4752e+66             0             0            -0             0            -0
  -9.61858e+48   9.41613e+59    6.2323e+62    2.4752e+66             0             0    2.4752e+66    2.4752e+66             0             0            -0             0             0
  -9.61858e+48   9.41613e+59    6.2323e+62    2.4752e+66             0             0    2.4752e+66    2.4752e+66             0             0             0             0             0
  -9.61858e+48   9.41613e+59    6.2323e+62   -2.4752e+66             0             0    2.4752e+66   -2.4752e+66             0             0             0             0            -0
  -9.61858e+48   9.41613e+59    6.2323e+62   -2.4752e+66             0             0    2.4752e+66   -2.4752e+66             0             0            -0             0            -0
  -9.61858e+48   9.41613e+59    6.2323e+62   -2.4752e+66             0             0    2.4752e+66   -2.4752e+66             0             0            -0             0             0
  -9.61858e+48   9.41613e+59    6.2323e+62   -2.4752e+66             0             0    2.4752e+66   -2.4752e+66             0             0             0             0             0
  -9.61858e+48   9.41613e+59    6.2323e+62    2.4752e+66             0             0    2.4752e+66    2.4752e+66             0             0             0             0            -0
  -9.61858e+48   9.41613e+59    6.2323e+62    2.4752e+66             0             0    2.4752e+66    2.4752e+66             0             0            -0             0            -0
  -8.31155e+48   9.49901e+59   6.23214e+62    2.4752e+66             0             0    2.4752e+66    2.4752e+66             0             0            -0             0             0
  -8.31155e+48   9.49901e+59   6.23214e+62    2.4752e+66             0             0    2.4752e+66    2.4752e+66             0             0             0             0             0
  -8.31155e+48   9.49901e+59   6.23214e+62   -2.4752e+66             0             0    2.4752e+66   -2.4752e+66             0             0             0             0            -0
  -8.31155e+48   9.49901e+59   6.23214e+62   -2.4752e+66             0             0    2.4752e+66   -2.4752e+66             0             0            -0             0            -0
  -1.57221e+60   8.25481e+59   6.24527e+62   4.24375e+66             0             0   4.24375e+66   4.24375e+66             0             0            -0             0             0
  -1.57221e+60   8.25481e+59   6.24527e+62   4.24375e+66             0             0   4.24375e+66   4.24375e+66             0             0             0             0             0
  -1.57221e+60   8.25481e+59   6.24527e+62  -4.24375e+66             0             0   4.24375e+66  -4.24375e+66             0             0             0             0            -0
  -1.57221e+60   8.25481e+59   6.24527e+62  -4.24375e+66             0             0   4.24375e+66  -4.24375e+66             0             0            -0             0            -0
  -1.33053e+60   8.10534e+59   6.20612e+62  -4.24375e+66             0             0   4.24375e+66  -4.24375e+66             0             0            -0             0             0
  -1.33053e+60   8.10534e+59   6.20612e+62  -4.24375e+66             0             0   4.24375e+66  -4.24375e+66             0             0             0             0             0
  -1.33053e+60   8.10534e+59   6.20612e+62   4.24375e+66             0             0   4.24375e+66   4.24375e+66             0             0             0             0            -0
  -1.33053e+60   8.10534e+59   6.20612e+62   4.24375e+66             0             0   4.24375e+66   4.24375e+66             0             0            -0             0            -0
  -1.33053e+60   8.10534e+59   6.20612e+62   4.24375e+66             0             0   4.24375e+66   4.24375e+66             0             0            -0             0             0
  -1.33053e+60   8.10534e+59   6.20612e+62   4.24375e+66             0             0   4.24375e+66   4.24375e+66             0             0             0             0             0
  -1.33053e+60   8.10534e+59   6.20612e+62  -4.24375e+66             0             0   4.24375e+66  -4.24375e+66             0             0             0             0            -0
  -1.33053e+60   8.10534e+59   6.20612e+62  -4.24375e+66             0             0   4.24375e+66  -4.24375e+66             0             0            -0             0            -0
  -1.08885e+60   7.95587e+59   6.16697e+62  -4.24375e+66             0             0   4.24375e+66  -4.24375e+66             0             0            -0             0             0
  -1.08885e+60   7.95587e+59   6.16697e+62  -4.24375e+66             0             0   4.24375e+66  -4.24375e+66             0             0             0             0             0
  -1.08885e+60   7.95587e+59   6.16697e+62   4.24375e+66             0             0   4.24375e+66   4.24375e+66             0             0             0             0            -0
  -1.08885e+60   7.95587e+59   6.16697e+62   4.24375e+66             0             0   4.24375e+66   4.24375e+66             0             0            -0             0            -0
  -1.08885e+60   7.95587e+59   6.16697e+62   4.24375e+66             0             0   4.24375e+66   4.24375e+66             0             0            -0             0             0
  -1.08885e+60   7.95587e+59   6.16697e+62   4.24375e+66             0             0   4.24375e+66   4.24375e+66             0             0             0             0             0
  -1.08885e+60   7.95587e+59   6.16697e+62  -4.24375e+66             0             0   4.24375e+66  -4.24375e+66             0             0             0             0            -0
  -1.08885e+60   7.95587e+59   6.16697e+62  -4.24375e+66             0             0   4.24375e+66  -4.24375e+66             0             0            -0             0            -0
  -8.47168e+59    7.8064e+59   6.12783e+62  -4.24375e+66             0             0   4.24375e+66  -4.24375e+66             0             0            -0             0             0
  -8.47168e+59    7.8064e+59   6.12783e+62  -4.24375e+66             0             0   4.24375e+66  -4.24375e+66             0             0             0             0             0
  -8.47168e+59    7.8064e+59   6.12783e+62   4.24375e+66             0             0   4.24375e+66   4.24375e+66             0             0             0             0            -0
  -8.47168e+59    7.8064e+59   6.12783e+62   4.24375e+66             0             0   4.24375e+66   4.24375e+66             0             0            -0             0            -0
  -8.47168e+59    7.8064e+59   6.12783e+62   4.24375e+66             0             0   4.24375e+66   4.24375e+66             0             0            -0             0             0
  -8.47168e+59    7.8064e+59   6.12783e+62   4.24375e+66             0             0   4.24375e+66   4.24375e+66             0             0             0             0             0
  -8.47168e+59    7.8064e+59   6.12783e+62  -4.24375e+66             0             0   4.24375e+66  -4.24375e+66             0             0             0             0            -0
  -8.47168e+59    7.8064e+59   6.12783e+62  -4.24375e+66             0             0   4.24375e+66  -4.24375e+66             0             0            -0             0            -0
  -6.05487e+59   7.65693e+59   6.08868e+62  -4.24375e+66             0             0   4.24375e+66  -4.24375e+66             0             0            -0             0             0
  -6.05487e+59   7.65693e+59   6.08868e+62  -4.24375e+66             0             0   4.24375e+66  -4.24375e+66             0             0             0             0             0
  -6.05487e+59   7.65693e+59   6.08868e+62   4.24375e+66             0             0   4.24375e+66   4.24375e+66             0             0             0             0            -0
  -6.05487e+59   7.65693e+59   6.08868e+62   4.24375e+66             0             0   4.24375e+66   4.24375e+66             0             0            -0             0            -0
  -6.05487e+59   7.65693e+59   6.08868e+62   4.24375e+66             0             0   4.24375e+66   4.24375e+66             0             0            -0             0             0
  -6.05487e+59   7.65693e+59   6.08868e+62   4.24375e+66             0             0   4.24375e+66   4.24375e+66             0             0             0             0             0
  -6.05487e+59   7.65693e+59   6.08868e+62  -4.24375e+66             0             0   4.24375e+66  -4.24375e+66             0             0             0             0            -0
  -6.05487e+59   7.65693e+59   6.08868e+62  -4.24375e+66             0             0   4.24375e+66  -4.24375e+66             0             0            -0             0            -0
  -3.63806e+59   7.50746e+59   6.04953e+62  -4.24375e+66             0             0   4.24375e+66  -4.24375e+66             0             0            -0             0             0
  -3.63806e+59   7.50746e+59   6.04953e+62  -4.24375e+66             0             0   4.24375e+66  -4.24375e+66             0             0             0             0             0
  -3.63806e+59   7.50746e+59   6.04953e+62   4.24375e+66             0             0   4.24375e+66   4.24375e+66             0             0             0             0            -0
  -3.63806e+59   7.50746e+59   6.04953e+62   4.24375e+66             0             0   4.24375e+66   4.24375e+66             0             0            -0             0            -0
  -3.63806e+59   7.50746e+59   6.04953e+62   4.24375e+66             0             0   4.24375e+66   4.24375e+66             0             0            -0             0             0
  -3.63806e+59   7.50746e+59   6.04953e+62   4.24375e+66             0             0   4.24375e+66   4.24375e+66             0             0             0             0             0
  -3.63806e+59   7.50746e+59   6.04953e+62  -4.24375e+66             0             0   4.24375e+66  -4.24375e+66             0             0             0             0            -0
  -3.63806e+59   7.50746e+59   6.04953e+62  -4.24375e+66             0             0   4.24375e+66  -4.24375e+66             0             0            -0             0            -0
  -1.22125e+59   7.35799e+59   6.01038e+62  -4.24375e+66             0             0   4.24375e+66  -4.24375e+66             0             0            -0             0             0
  -1.22125e+59   7.35799e+59   6.01038e+62  -4.24375e+66             0             0   4.24375e+66  -4.24375e+66             0             0             0             0             0
  -1.22125e+59   7.35799e+59   6.01038e+62   4.24375e+66             0             0   4.24375e+66   4.24375e+66             0             0             0             0            -0
  -1.22125e+59   7.35799e+59   6.01038e+62   4.24375e+66             0             0   4.24375e+66   4.24375e+66             0             0            -0             0            -0
  -1.22125e+59   7.35799e+59   6.01038e+62   4.24375e+66             0             0   4.24375e+66   4.24375e+66             0             0            -0             0             0
  -1.22125e+59   7.35799e+59   6.01038e+62   4.24375e+66             0             0   4.24375e+66   4.24375e+66             0             0             0             0             0
  -1.22125e+59   7.35799e+59   6.01038e+62  -4.24375e+66             0             0   4.24375e+66  -4.24375e+66             0             0             0             0            -0
  -1.22125e+59   7.35799e+59   6.01038e+62  -4.24375e+66             0             0   4.24375e+66  -4.24375e+66             0             0            -0             0            -0
   1.19557e+59   7.20852e+59   5.97124e+62  -4.24375e+66             0             0   4.24375e+66  -4.24375e+66             0             0            -0             0             0
   1.19557e+59   7.20852e+59   5.97124e+62  -4.24375e+66             0             0   4.24375e+66  -4.24375e+66             0             0             0             0             0
   1.19557e+59   7.20852e+59   5.97124e+62   4.24375e+66             0             0   4.24375e+66   4.24375e+66             0             0             0             0            -0
   1.19557e+59   7.20852e+59   5.97124e+62   4.24375e+66             0             0   4.24375e+66   4.24375e+66             0             0            -0             0            -0
   1.19557e+59   7.20852e+59   5.97124e+62   4.24375e+66             0             0   4.24375e+66   4.24375e+66             0             0            -0             0             0
   1.19557e+59   7.20852e+59   5.97124e+62   4.24375e+66             0             0   4.24375e+66   4.24375e+66             0             0             0             0             0
   1.19557e+59   7.20852e+59   5.97124e+62  -4.24375e+66             0             0   4.24375e+66  -4.24375e+66             0             0             0             0            -0
   1.19557e+59   7.20852e+59   5.97124e+62  -4.24375e+66             0             0   4.24375e+66  -4.24375e+66             0             0            -0             0            -0
   3.61238e+59   7.05905e+59   5.93209e+62  -4.24375e+66             0             0   4.24375e+66  -4.24375e+66             0             0            -0             0             0
   3.61238e+59   7.05905e+59   5.93209e+62  -4.24375e+66             0             0   4.24375e+66  -4.24375e+66             0             0             0             0             0
   3.61238e+59   7.05905e+59   5.93209e+62   4.24375e+66             0             0   4.24375e+66   4.24375e+66             0             0             0             0            -0
   3.61238e+59   7.05905e+59   5.93209e+62   4.24375e+66             0             0   4.24375e+66   4.24375e+66             0             0            -0             0            -0
   3.61238e+59   7.05905e+59   5.93209e+62   4.24375e+66             0             0   4.24375e+66   4.24375e+66             0             0            -0             0             0
   3.61238e+59   7.05905e+59   5.93209e+62   4.24375e+66             0             0   4.24375e+66   4.24375e+66             0             0             0             0             0
   3.61238e+59   7.05905e+59   5.93209e+62  -4.24375e+66             0             0   4.24375e+66  -4.24375e+66             0             0             0             0            -0
   3.61238e+59   7.05905e+59   5.93209e+62  -4.24375e+66             0             0   4.24375e+66  -4.24375e+66             0             0            -0             0            -0
   6.02919e+59   6.90958e+59   5.89294e+62  -4.24375e+66             0             0   4.24375e+66  -4.24375e+66             0             0            -0             0             0
   6.02919e+59   6.90958e+59   5.89294e+62  -4.24375e+66             0             0   4.24375e+66  -4.24375e+66             0             0             0             0             0
   6.02919e+59   6.90958e+59   5.89294e+62   4.24375e+66             0             0   4.24375e+66   4.24375e+66             0             0             0             0            -0
   6.02919e+59   6.90958e+59   5.89294e+62   4.24375e+66             0             0   4.24375e+66   4.24375e+66             0             0            -0             0            -0
   6.02919e+59   6.90958e+59   5.89294e+62   4.24375e+66             0             0   4.24375e+66   4.24375e+66             0             0            -0             0             0
   6.02919e+59   6.90958e+59   5.89294e+62   4.24375e+66             0             0   4.24375e+66   4.24375e+66             0             0             0             0             0
   6.02919e+59   6.90958e+59   5.89294e+62  -4.24375e+66             0             0   4.24375e+66  -4.24375e+66             0             0             0             0            -0
   6.02919e+59   6.90958e+59   5.89294e+62  -4.24375e+66             0             0   4.24375e+66  -4.24375e+66             0             0            -0             0            -0
     8.446e+59   6.76011e+59   5.85379e+62  -4.24375e+66             0             0   4.24375e+66  -4.24375e+66             0             0            -0             0             0
     8.446e+59   6.76011e+59   5.85379e+62  -4.24375e+66             0             0   4.24375e+66  -4.24375e+66             0             0             0             0             0
     8.446e+59   6.76011e+59   5.85379e+62   4.24375e+66             0             0   4.24375e+66   4.24375e+66             0             0             0             0            -0
     8.446e+59   6.76011e+59   5.85379e+62   4.24375e+66             0             0   4.24375e+66   4.24375e+66             0             0            -0             0            -0
     8.446e+59   6.76011e+59   5.85379e+62   4.24375e+66             0             0   4.24375e+66   4.24375e+66             0             0            -0             0             0
     8.446e+59   6.76011e+59   5.85379e+62   4.24375e+66             0             0   4.24375e+66   4.24375e+66             0             0             0             0             0
     8.446e+59   6.76011e+59   5.85379e+62  -4.24375e+66             0             0   4.24375e+66  -4.24375e+66             0             0             0             0            -0
     8.446e+59   6.76011e+59   5.85379e+62  -4.24375e+66             0             0   4.24375e+66  -4.24375e+66             0             0            -0             0            -0
   1.08628e+60   6.61064e+59   5.81465e+62  -4.24375e+66             0             0   4.24375e+66  -4.24375e+66             0             0            -0             0             0
   1.08628e+60   6.61064e+59   5.81465e+62  -4.24375e+66             0             0   4.24375e+66  -4.24375e+66             0             0             0             0             0
   1.08628e+60   6.61064e+59   5.81465e+62   4.24375e+66             0             0   4.24375e+66   4.24375e+66             0             0             0             0            -0
   1.08628e+60   6.61064e+59   5.81465e+62   4.24375e+66             0             0   4.24375e+66   4.24375e+66             0             0            -0             0            -0
   1.08628e+60   6.61064e+59   5.81465e+62   4.24375e+66             0             0   4.24375e+66   4.24375e+66             0             0            -0             0             0
   1.08628e+60   6.61064e+59   5.81465e+62   4.24375e+66             0             0   4.24375e+66   4.24375e+66             0             0             0             0             0
   1.08628e+60   6.61064e+59   5.81465e+62  -4.24375e+66             0             0   4.24375e+66  -4.24375e+66             0             0             0             0            -0
   1.08628e+60   6.61064e+59   5.81465e+62  -4.24375e+66             0             0   4.24375e+66  -4.24375e+66             0             0            -0             0            -0
   1.32796e+60   6.46117e+59    5.7755e+62  -4.24375e+66             0             0   4.24375e+66  -4.24375e+66             0             0            -0             0             0
   1.32796e+60   6.46117e+59    5.7755e+62  -4.24375e+66             0             0   4.24375e+66  -4.24375e+66             0             0             0             0             0
   1.32796e+60   6.46117e+59    5.7755e+62   4.24375e+66             0             0   4.24375e+66   4.24375e+66             0             0             0             0            -0
   1.32796e+60   6.46117e+59    5.7755e+62   4.24375e+66             0             0   4.24375e+66   4.24375e+66             0             0            -0             0            -0
   1.32796e+60   6.46117e+59    5.7755e+62   4.24375e+66             0             0   4.24375e+66   4.24375e+66             0             0            -0             0             0
   1.32796e+60   6.46117e+59    5.7755e+62   4.24375e+66             0             0   4.24375e+66   4.24375e+66             0             0             0             0             0
   1.32796e+60   6.46117e+59    5.7755e+62  -4.24375e+66             0             0   4.24375e+66  -4.24375e+66             0             0             0             0            -0
   1.32796e+60   6.46117e+59    5.7755e+62  -4.24375e+66             0             0   4.24375e+66  -4.24375e+66             0             0            -0             0            -0
   1.56964e+60    6.3117e+59   5.73635e+62  -4.24375e+66             0             0   4.24375e+66  -4.24375e+66             0             0            -0             0             0
   1.56964e+60    6.3117e+59   5.73635e+62  -4.24375e+66             0             0   4.24375e+66  -4.24375e+66             0             0             0             0             0
   1.56964e+60    6.3117e+59   5.73635e+62   4.24375e+66             0             0   4.24375e+66   4.24375e+66             0             0             0             0            -0
   1.56964e+60    6.3117e+59   5.73635e+62   4.24375e+66             0             0   4.24375e+66   4.24375e+66             0             0            -0             0            -0
    -1.975e+49   8.83601e+59   6.23346e+62   1.26933e+66             0             0   1.26933e+66   1.26933e+66             0             0            -0             0             0
    -1.975e+49   8.83601e+59   6.23346e+62   1.26933e+66             0             0   1.26933e+66   1.26933e+66             0             0             0             0             0
    -1.975e+49   8.83601e+59   6.23346e+62  -1.26933e+66             0             0   1.26933e+66  -1.26933e+66             0             0             0             0            -0
    -1.975e+49   8.83601e+59   6.23346e+62  -1.26933e+66             0             0   1.26933e+66  -1.26933e+66             0             0            -0             0            -0
  -1.20939e+59    8.7913e+59   6.23437e+62  -1.26933e+66             0             0   1.26933e+66  -1.26933e+66             0             0            -0             0             0
  -1.20939e+59    8.7913e+59   6.23437e+62  -1.26933e+66             0             0   1.26933e+66  -1.26933e+66             0             0             0             0             0
  -1.20939e+59    8.7913e+59   6.23437e+62   1.26933e+66             0             0   1.26933e+66   1.26933e+66             0             0             0             0            -0
  -1.20939e+59    8.7913e+59   6.23437e+62   1.26933e+66             0             0   1.26933e+66   1.26933e+66             0             0            -0             0            -0
  -1.20939e+59    8.7913e+59   6.23437e+62   1.26933e+66             0             0   1.26933e+66   1.26933e+66             0             0            -0             0             0
  -1.20939e+59    8.7913e+59   6.23437e+62   1.26933e+66             0             0   1.26933e+66   1.26933e+66             0             0             0             0             0
  -1.20939e+59    8.7913e+59   6.23437e+62  -1.26933e+66             0             0   1.26933e+66  -1.26933e+66             0             0             0             0            -0
  -1.20939e+59    8.7913e+59   6.23437e+62  -1.26933e+66             0             0   1.26933e+66  -1.26933e+66             0             0            -0             0            -0
  -2.41879e+59   8.74659e+59   6.23528e+62  -1.26933e+66             0             0   1.26933e+66  -1.26933e+66             0             0            -0             0             0
  -2.41879e+59   8.74659e+59   6.23528e+62  -1.26933e+66             0             0   1.26933e+66  -1.26933e+66             0             0             0             0             0
  -2.41879e+59   8.74659e+59   6.23528e+62   1.26933e+66             0             0   1.26933e+66   1.26933e+66             0             0             0             0            -0
  -2.41879e+59   8.74659e+59   6.23528e+62   1.26933e+66             0             0   1.26933e+66   1.26933e+66             0             0            -0             0            -0
  -2.41879e+59   8.74659e+59   6.23528e+62   1.26933e+66             0             0   1.26933e+66   1.26933e+66             0             0            -0             0             0
  -2.41879e+59   8.74659e+59   6.23528e+62   1.26933e+66             0             0   1.26933e+66   1.26933e+66             0             0             0             0             0
  -2.41879e+59   8.74659e+59   6.23528e+62  -1.26933e+66             0             0   1.26933e+66  -1.26933e+66             0             0             0             0            -0
  -2.41879e+59   8.74659e+59   6.23528e+62  -1.26933e+66             0             0   1.26933e+66  -1.26933e+66             0             0            -0             0            -0
  -3.62818e+59   8.70189e+59   6.23618e+62  -1.26933e+66             0             0   1.26933e+66  -1.26933e+66             0             0            -0             0             0
  -3.62818e+59   8.70189e+59   6.23618e+62  -1.26933e+66             0             0   1.26933e+66  -1.26933e+66             0             0             0             0             0
  -3.62818e+59   8.70189e+59   6.23618e+62   1.26933e+66             0             0   1.26933e+66   1.26933e+66             0             0             0             0            -0
  -3.62818e+59   8.70189e+59   6.23618e+62   1.26933e+66             0             0   1.26933e+66   1.26933e+66             0             0            -0             0            -0
  -3.62818e+59   8.70189e+59   6.23618e+62   1.26933e+66             0             0   1.26933e+66   1.26933e+66             0             0            -0             0             0
  -3.62818e+59   8.70189e+59   6.23618e+62   1.26933e+66             0             0   1.26933e+66   1.26933e+66             0             0             0             0             0
  -3.62818e+59   8.70189e+59   6.23618e+62  -1.26933e+66             0             0   1.26933e+66  -1.26933e+66             0             0             0             0            -0
  -3.62818e+59   8.70189e+59   6.23618e+62  -1.26933e+66             0             0   1.26933e+66  -1.26933e+66             0             0            -0             0            -0
  -4.83757e+59   8.65718e+59   6.23709e+62  -1.26933e+66             0             0   1.26933e+66  -1.26933e+66             0             0            -0             0             0
  -4.83757e+59   8.65718e+59   6.23709e+62  -1.26933e+66             0             0   1.26933e+66  -1.26933e+66             0             0             0             0             0
  -4.83757e+59   8.65718e+59   6.23709e+62   1.26933e+66             0             0   1.26933e+66   1.26933e+66             0             0             0             0            -0
  -4.83757e+59   8.65718e+59   6.23709e+62   1.26933e+66             0             0   1.26933e+66   1.26933e+66             0             0            -0             0            -0
  -4.83757e+59   8.65718e+59   6.23709e+62   1.26933e+66             0             0   1.26933e+66   1.26933e+66             0             0            -0             0             0
  -4.83757e+59   8.65718e+59   6.23709e+62   1.26933e+66             0             0   1.26933e+66   1.26933e+66             0             0             0             0             0
  -4.83757e+59   8.65718e+59   6.23709e+62  -1.26933e+66             0             0   1.26933e+66  -1.26933e+66             0             0             0             0            -0
  -4.83757e+59   8.65718e+59   6.23709e+62  -1.26933e+66             0             0   1.26933e+66  -1.26933e+66             0             0            -0             0            -0
  -6.04697e+59   8.61247e+59     6.238e+62  -1.26933e+66             0             0   1.26933e+66  -1.26933e+66             0             0            -0             0             0
  -6.04697e+59   8.61247e+59     6.238e+62  -1.26933e+66             0             0   1.26933e+66  -1.26933e+66             0             0             0             0             0
  -6.04697e+59   8.61247e+59     6.238e+62   1.26933e+66             0             0   1.26933e+66   1.26933e+66             0             0             0             0            -0
  -6.04697e+59   8.61247e+59     6.238e+62   1.26933e+66             0             0   1.26933e+66   1.26933e+66             0             0            -0             0            -0
  -6.04697e+59   8.61247e+59     6.238e+62   1.26933e+66             0             0   1.26933e+66   1.26933e+66             0             0            -0             0             0
  -6.04697e+59   8.61247e+59     6.238e+62   1.26933e+66             0             0   1.26933e+66   1.26933e+66             0             0             0             0             0
  -6.04697e+59   8.61247e+59     6.238e+62  -1.26933e+66             0             0   1.26933e+66  -1.26933e+66             0             0             0             0            -0
  -6.04697e+59   8.61247e+59     6.238e+62  -1.26933e+66             0             0   1.26933e+66  -1.26933e+66             0             0            -0             0            -0
  -7.25636e+59   8.56776e+59   6.23891e+62  -1.26933e+66             0             0   1.26933e+66  -1.26933e+66             0             0            -0             0             0
  -7.25636e+59   8.56776e+59   6.23891e+62  -1.26933e+66             0             0   1.26933e+66  -1.26933e+66             0             0             0             0             0
  -7.25636e+59   8.56776e+59   6.23891e+62   1.26933e+66             0             0   1.26933e+66   1.26933e+66             0             0             0             0            -0
  -7.25636e+59   8.56776e+59   6.23891e+62   1.26933e+66             0             0   1.26933e+66   1.26933e+66             0             0            -0             0            -0
  -7.25636e+59   8.56776e+59   6.23891e+62   1.26933e+66             0             0   1.26933e+66   1.26933e+66             0             0            -0             0             0
  -7.25636e+59   8.56776e+59   6.23891e+62   1.26933e+66             0             0   1.26933e+66   1.26933e+66             0             0             0             0             0
  -7.25636e+59   8.56776e+59   6.23891e+62  -1.26933e+66             0             0   1.26933e+66  -1.26933e+66             0             0             0             0            -0
  -7.25636e+59   8.56776e+59   6.23891e+62  -1.26933e+66             0             0   1.26933e+66  -1.26933e+66             0             0            -0             0            -0
  -8.46575e+59   8.52306e+59   6.23982e+62  -1.26933e+66             0             0   1.26933e+66  -1.26933e+66             0             0            -0             0             0
  -8.46575e+59   8.52306e+59   6.23982e+62  -1.26933e+66             0             0   1.26933e+66  -1.26933e+66             0             0             0             0             0
  -8.46575e+59   8.52306e+59   6.23982e+62   1.26933e+66             0             0   1.26933e+66   1.26933e+66             0             0             0             0            -0
  -8.46575e+59   8.52306e+59   6.23982e+62   1.26933e+66             0             0   1.26933e+66   1.26933e+66             0             0            -0             0            -0
  -8.46575e+59   8.52306e+59   6.23982e+62   1.26933e+66             0             0   1.26933e+66   1.26933e+66             0             0            -0             0             0
  -8.46575e+59   8.52306e+59   6.23982e+62   1.26933e+66             0             0   1.26933e+66   1.26933e+66             0             0             0             0             0
  -8.46575e+59   8.52306e+59   6.23982e+62  -1.26933e+66             0             0   1.26933e+66  -1.26933e+66             0             0             0             0            -0
  -8.46575e+59   8.52306e+59   6.23982e+62  -1.26933e+66             0             0   1.26933e+66  -1.26933e+66             0             0            -0             0            -0
  -9.67515e+59   8.47835e+59   6.24073e+62  -1.26933e+66             0             0   1.26933e+66  -1.26933e+66             0             0            -0             0             0
  -9.67515e+59   8.47835e+59   6.24073e+62  -1.26933e+66             0             0   1.26933e+66  -1.26933e+66             0             0             0             0             0
  -9.67515e+59   8.47835e+59   6.24073e+62   1.26933e+66             0             0   1.26933e+66   1.26933e+66             0             0             0             0            -0
  -9.67515e+59   8.47835e+59   6.24073e+62   1.26933e+66             0             0   1.26933e+66   1.26933e+66             0             0            -0             0            -0
  -9.67515e+59   8.47835e+59   6.24073e+62   1.26933e+66             0             0   1.26933e+66   1.26933e+66             0             0            -0             0             0
  -9.67515e+59   8.47835e+59   6.24073e+62   1.26933e+66             0             0   1.26933e+66   1.26933e+66             0             0             0             0             0
  -9.67515e+59   8.47835e+59   6.24073e+62  -1.26933e+66             0             0   1.26933e+66  -1.26933e+66             0             0             0             0            -0
  -9.67515e+59   8.47835e+59   6.24073e+62  -1.26933e+66             0             0   1.26933e+66  -1.26933e+66             0             0            -0             0            -0
  -1.08845e+60   8.43364e+59   6.24164e+62  -1.26933e+66             0             0   1.26933e+66  -1.26933e+66             0             0            -0             0             0
  -1.08845e+60   8.43364e+59   6.24164e+62  -1.26933e+66             0             0   1.26933e+66  -1.26933e+66             0             0             0             0             0
  -1.08845e+60   8.43364e+59   6.24164e+62   1.26933e+66             0             0   1.26933e+66   1.26933e+66             0             0             0             0            -0
  -1.08845e+60   8.43364e+59   6.24164e+62   1.26933e+66             0             0   1.26933e+66   1.26933e+66             0             0            -0             0            -0
  -1.08845e+60   8.43364e+59   6.24164e+62   1.26933e+66             0             0   1.26933e+66   1.26933e+66             0             0            -0             0             0
  -1.08845e+60   8.43364e+59   6.24164e+62   1.26933e+66             0             0   1.26933e+66   1.26933e+66             0             0             0             0             0
  -1.08845e+60   8.43364e+59   6.24164e+62  -1.26933e+66             0             0   1.26933e+66  -1.26933e+66             0             0             0             0            -0
  -1.08845e+60   8.43364e+59   6.24164e+62  -1.26933e+66             0             0   1.26933e+66  -1.26933e+66             0             0            -0             0            -0
  -1.20939e+60   8.38893e+59   6.24254e+62  -1.26933e+66             0             0   1.26933e+66  -1.26933e+66             0             0            -0             0             0
  -1.20939e+60   8.38893e+59   6.24254e+62  -1.26933e+66             0             0   1.26933e+66  -1.26933e+66             0             0             0             0             0
  -1.20939e+60   8.38893e+59   6.24254e+62   1.26933e+66             0             0   1.26933e+66   1.26933e+66             0             0             0             0            -0
  -1.20939e+60   8.38893e+59   6.24254e+62   1.26933e+66             0             0   1.26933e+66   1.26933e+66             0             0            -0             0            -0
  -1.20939e+60   8.38893e+59   6.24254e+62   1.26933e+66             0             0   1.26933e+66   1.26933e+66             0             0            -0             0             0
  -1.20939e+60   8.38893e+59   6.24254e+62   1.26933e+66             0             0   1.26933e+66   1.26933e+66             0             0             0             0             0
  -1.20939e+60   8.38893e+59   6.24254e+62  -1.26933e+66             0             0   1.26933e+66  -1.26933e+66             0             0             0             0            -0
  -1.20939e+60   8.38893e+59   6.24254e+62  -1.26933e+66             0             0   1.26933e+66  -1.26933e+66             0             0            -0             0            -0
  -1.33033e+60   8.34423e+59   6.24345e+62  -1.26933e+66             0             0   1.26933e+66  -1.26933e+66             0             0            -0             0             0
  -1.33033e+60   8.34423e+59   6.24345e+62  -1.26933e+66             0             0   1.26933e+66  -1.26933e+66             0             0             0             0             0
  -1.33033e+60   8.34423e+59   6.24345e+62   1.26933e+66             0             0   1.26933e+66   1.26933e+66             0             0             0             0            -0
  -1.33033e+60   8.34423e+59   6.24345e+62   1.26933e+66             0             0   1.26933e+66   1.26933e+66             0             0            -0             0            -0
  -1.33033e+60   8.34423e+59   6.24345e+62   1.26933e+66             0             0   1.26933e+66   1.26933e+66             0             0            -0             0             0
  -1.33033e+60   8.34423e+59   6.24345e+62   1.26933e+66             0             0   1.26933e+66   1.26933e+66             0             0             0             0             0
  -1.33033e+60   8.34423e+59   6.24345e+62  -1.26933e+66             0             0   1.26933e+66  -1.26933e+66             0             0             0             0            -0
  -1.33033e+60   8.34423e+59   6.24345e+62  -1.26933e+66             0             0   1.26933e+66  -1.26933e+66             0             0            -0             0            -0
  -1.45127e+60   8.29952e+59   6.24436e+62  -1.26933e+66             0             0   1.26933e+66  -1.26933e+66             0             0            -0             0             0
  -1.45127e+60   8.29952e+59   6.24436e+62  -1.26933e+66             0             0   1.26933e+66  -1.26933e+66             0             0             0             0             0
  -1.45127e+60   8.29952e+59   6.24436e+62   1.26933e+66             0             0   1.26933e+66   1.26933e+66             0             0             0             0            -0
  -1.45127e+60   8.29952e+59   6.24436e+62   1.26933e+66             0             0   1.26933e+66   1.26933e+66             0             0            -0             0            -0
  -1.45127e+60   8.29952e+59   6.24436e+62   1.26933e+66             0             0   1.26933e+66   1.26933e+66             0             0            -0             0             0
  -1.45127e+60   8.29952e+59   6.24436e+62   1.26933e+66             0             0   1.26933e+66   1.26933e+66             0             0             0             0             0
  -1.45127e+60   8.29952e+59   6.24436e+62  -1.26933e+66             0             0   1.26933e+66  -1.26933e+66             0             0             0             0            -0
  -1.45127e+60   8.29952e+59   6.24436e+62  -1.26933e+66             0             0   1.26933e+66  -1.26933e+66             0             0            -0             0            -0
  -1.57221e+60   8.25481e+59   6.24527e+62  -1.26933e+66             0             0   1.26933e+66  -1.26933e+66             0             0            -0             0             0
  -1.57221e+60   8.25481e+59   6.24527e+62  -1.26933e+66             0             0   1.26933e+66  -1.26933e+66             0             0             0             0             0
  -1.57221e+60   8.25481e+59   6.24527e+62   1.26933e+66             0             0   1.26933e+66   1.26933e+66             0             0             0             0            -0
  -1.57221e+60   8.25481e+59   6.24527e+62   1.26933e+66             0             0   1.26933e+66   1.26933e+66             0             0            -0             0            -0
   1.57221e+60   8.25481e+59   6.24527e+62   4.24375e+66             0             0   4.24375e+66   4.24375e+66             0             0            -0             0             0
   1.57221e+60   8.25481e+59   6.24527e+62   4.24375e+66             0             0   4.24375e+66   4.24375e+66             0             0             0             0             0
   1.57221e+60   8.25481e+59   6.24527e+62  -4.24375e+66             0             0   4.24375e+66  -4.24375e+66             0             0             0             0            -0
   1.57221e+60   8.25481e+59   6.24527e+62  -4.24375e+66             0             0   4.24375e+66  -4.24375e+66             0             0            -0             0            -0
   1.33053e+60   8.10534e+59   6.20612e+62  -4.24375e+66             0             0   4.24375e+66  -4.24375e+66             0             0            -0             0             0
   1.33053e+60   8.10534e+59   6.20612e+62  -4.24375e+66             0             0   4.24375e+66  -4.24375e+66             0             0             0             0             0
   1.33053e+60   8.10534e+59   6.20612e+62   4.24375e+66             0             0   4.24375e+66   4.24375e+66             0             0             0             0            -0
   1.33053e+60   8.10534e+59   6.20612e+62   4.24375e+66             0             0   4.24375e+66   4.24375e+66             0             0            -0             0            -0
   1.33053e+60   8.10534e+59   6.20612e+62   4.24375e+66             0             0   4.24375e+66   4.24375e+66             0             0            -0             0             0
   1.33053e+60   8.10534e+59   6.20612e+62   4.24375e+66             0             0   4.24375e+66   4.24375e+66             0             0             0             0             0
   1.33053e+60   8.10534e+59   6.20612e+62  -4.24375e+66             0             0   4.24375e+66  -4.24375e+66             0             0             0             0            -0
   1.33053e+60   8.10534e+59   6.20612e+62  -4.24375e+66             0             0   4.24375e+66  -4.24375e+66             0             0            -0             0            -0
   1.08885e+60   7.95587e+59   6.16697e+62  -4.24375e+66             0             0   4.24375e+66  -4.24375e+66             0             0            -0             0             0
   1.08885e+60   7.95587e+59   6.16697e+62  -4.24375e+66             0             0   4.24375e+66  -4.24375e+66             0             0             0             0             0
   1.08885e+60   7.95587e+59   6.16697e+62   4.24375e+66             0             0   4.24375e+66   4.24375e+66             0             0             0             0            -0
   1.08885e+60   7.95587e+59   6.16697e+62   4.24375e+66             0             0   4.24375e+66   4.24375e+66             0             0            -0             0            -0
   1.08885e+60   7.95587e+59   6.16697e+62   4.24375e+66             0             0   4.24375e+66   4.24375e+66             0             0            -0             0             0
   1.08885e+60   7.95587e+59   6.16697e+62   4.24375e+66             0             0   4.24375e+66   4.24375e+66             0             0             0             0             0
   1.08885e+60   7.95587e+59   6.16697e+62  -4.24375e+66             0             0   4.24375e+66  -4.24375e+66             0             0             0             0            -0
   1.08885e+60   7.95587e+59   6.16697e+62  -4.24375e+66             0             0   4.24375e+66  -4.24375e+66             0             0            -0             0            -0
   8.47168e+59    7.8064e+59   6.12783e+62  -4.24375e+66             0             0   4.24375e+66  -4.24375e+66             0             0            -0             0             0
   8.47168e+59    7.8064e+59   6.12783e+62  -4.24375e+66             0             0   4.24375e+66  -4.24375e+66             0             0             0             0             0
   8.47168e+59    7.8064e+59   6.12783e+62   4.24375e+66             0             0   4.24375e+66   4.24375e+66             0             0             0             0            -0
   8.47168e+59    7.8064e+59   6.12783e+62   4.24375e+66             0             0   4.24375e+66   4.24375e+66             0             0            -0             0            -0
   8.47168e+59    7.8064e+59   6.12783e+62   4.24375e+66             0             0   4.24375e+66   4.24375e+66             0             0            -0             0             0
   8.47168e+59    7.8064e+59   6.12783e+62   4.24375e+66             0             0   4.24375e+66   4.24375e+66             0             0             0             0             0
   8.47168e+59    7.8064e+59   6.12783e+62  -4.24375e+66             0             0   4.24375e+66  -4.24375e+66             0             0             0             0            -0
   8.47168e+59    7.8064e+59   6.12783e+62  -4.24375e+66             0             0   4.24375e+66  -4.24375e+66             0             0            -0             0            -0
   6.05487e+59   7.65693e+59   6.08868e+62  -4.24375e+66             0             0   4.24375e+66  -4.24375e+66             0             0            -0             0             0
   6.05487e+59   7.65693e+59   6.08868e+62  -4.24375e+66             0             0   4.24375e+66  -4.24375e+66             0             0             0             0             0
   6.05487e+59   7.65693e+59   6.08868e+62   4.24375e+66             0             0   4.24375e+66   4.24375e+66             0             0             0             0            -0
   6.05487e+59   7.65693e+59   6.08868e+62   4.24375e+66             0             0   4.24375e+66   4.24375e+66             0             0            -0             0            -0
   6.05487e+59   7.65693e+59   6.08868e+62   4.24375e+66             0             0   4.24375e+66   4.24375e+66             0             0            -0             0             0
   6.05487e+59   7.65693e+59   6.08868e+62   4.24375e+66             0             0   4.24375e+66   4.24375e+66             0             0             0             0             0
   6.05487e+59   7.65693e+59   6.08868e+62  -4.24375e+66             0             0   4.24375e+66  -4.24375e+66             0             0             0             0            -0
   6.05487e+59   7.65693e+59   6.08868e+62  -4.24375e+66             0             0   4.24375e+66  -4.24375e+66             0             0            -0             0            -0
   3.63806e+59   7.50746e+59   6.04953e+62  -4.24375e+66             0             0   4.24375e+66  -4.24375e+66             0             0            -0             0             0
   3.63806e+59   7.50746e+59   6.04953e+62  -4.24375e+66             0             0   4.24375e+66  -4.24375e+66             0             0             0             0             0
   3.63806e+59   7.50746e+59   6.04953e+62   4.24375e+66             0             0   4.24375e+66   4.24375e+66             0             0             0             0            -0
   3.63806e+59   7.50746e+59   6.04953e+62   4.24375e+66             0             0   4.24375e+66   4.24375e+66             0             0            -0             0            -0
   3.63806e+59   7.50746e+59   6.04953e+62   4.24375e+66             0             0   4.24375e+66   4.24375e+66             0             0            -0             0             0
   3.63806e+59   7.50746e+59   6.04953e+62   4.24375e+66             0             0   4.24375e+66   4.24375e+66             0             0             0             0             0
   3.63806e+59   7.50746e+59   6.04953e+62  -4.24375e+66             0             0   4.24375e+66  -4.24375e+66             0             0             0             0            -0
   3.63806e+59   7.50746e+59   6.04953e+62  -4.24375e+66             0             0   4.24375e+66  -4.24375e+66             0             0            -0             0            -0
   1.22125e+59   7.35799e+59   6.01038e+62  -4.24375e+66             0             0   4.24375e+66  -4.24375e+66             0             0            -0             0             0
   1.22125e+59   7.35799e+59   6.01038e+62  -4.24375e+66             0             0   4.24375e+66  -4.24375e+66             0             0             0             0             0
   1.22125e+59   7.35799e+59   6.01038e+62   4.24375e+66             0             0   4.24375e+66   4.24375e+66             0             0             0             0            -0
   1.22125e+59   7.35799e+59   6.01038e+62   4.24375e+66             0             0   4.24375e+66   4.24375e+66             0             0            -0             0            -0
   1.22125e+59   7.35799e+59   6.01038e+62   4.24375e+66             0             0   4.24375e+66   4.24375e+66             0             0            -0             0             0
   1.22125e+59   7.35799e+59   6.01038e+62   4.24375e+66             0             0   4.24375e+66   4.24375e+66             0             0             0             0             0
   1.22125e+59   7.35799e+59   6.01038e+62  -4.24375e+66             0             0   4.24375e+66  -4.24375e+66             0             0             0             0            -0
   1.22125e+59   7.35799e+59   6.01038e+62  -4.24375e+66             0             0   4.24375e+66  -4.24375e+66             0             0            -0             0            -0
  -1.19557e+59   7.20852e+59   5.97124e+62  -4.24375e+66             0             0   4.24375e+66  -4.24375e+66             0             0            -0             0             0
  -1.19557e+59   7.20852e+59   5.97124e+62  -4.24375e+66             0             0   4.24375e+66  -4.24375e+66             0             0             0             0             0
  -1.19557e+59   7.20852e+59   5.97124e+62   4.24375e+66             0             0   4.24375e+66   4.24375e+66             0             0             0             0            -0
  -1.19557e+59   7.20852e+59   5.97124e+62   4.24375e+66             0             0   4.24375e+66   4.24375e+66             0             0            -0             0            -0
  -1.19557e+59   7.20852e+59   5.97124e+62   4.24375e+66             0             0   4.24375e+66   4.24375e+66             0             0            -0             0             0
  -1.19557e+59   7.20852e+59   5.97124e+62   4.24375e+66             0             0   4.24375e+66   4.24375e+66             0             0             0             0             0
  -1.19557e+59   7.20852e+59   5.97124e+62  -4.24375e+66             0             0   4.24375e+66  -4.24375e+66             0             0             0             0            -0
  -1.19557e+59   7.20852e+59   5.97124e+62  -4.24375e+66             0             0   4.24375e+66  -4.24375e+66             0             0            -0             0            -0
  -3.61238e+59   7.05905e+59   5.93209e+62  -4.24375e+66             0             0   4.24375e+66  -4.24375e+66             0             0            -0             0             0
  -3.61238e+59   7.05905e+59   5.93209e+62  -4.24375e+66             0             0   4.24375e+66  -4.24375e+66             0             0             0             0             0
  -3.61238e+59   7.05905e+59   5.93209e+62   4.24375e+66             0             0   4.24375e+66   4.24375e+66             0             0             0             0            -0
  -3.61238e+59   7.05905e+59   5.93209e+62   4.24375e+66             0             0   4.24375e+66   4.24375e+66             0             0            -0             0            -0
  -3.61238e+59   7.05905e+59   5.93209e+62   4.24375e+66             0             0   4.24375e+66   4.24375e+66             0             0            -0             0             0
  -3.61238e+59   7.05905e+59   5.93209e+62   4.24375e+66             0             0   4.24375e+66   4.24375e+66             0             0             0             0             0
  -3.61238e+59   7.05905e+59   5.93209e+62  -4.24375e+66             0             0   4.24375e+66  -4.24375e+66             0             0             0             0            -0
  -3.61238e+59   7.05905e+59   5.93209e+62  -4.24375e+66             0             0   4.24375e+66  -4.24375e+66             0             0            -0             0            -0
  -6.02919e+59   6.90958e+59   5.89294e+62  -4.24375e+66             0             0   4.24375e+66  -4.24375e+66             0             0            -0             0             0
  -6.02919e+59   6.90958e+59   5.89294e+62  -4.24375e+66             0             0   4.24375e+66  -4.24375e+66             0             0             0             0             0
  -6.02919e+59   6.90958e+59   5.89294e+62   4.24375e+66             0             0   4.24375e+66   4.24375e+66             0             0             0             0            -0
  -6.02919e+59   6.90958e+59   5.89294e+62   4.24375e+66             0             0   4.24375e+66   4.24375e+66             0             0            -0             0            -0
  -6.02919e+59   6.90958e+59   5.89294e+62   4.24375e+66             0             0   4.24375e+66   4.24375e+66             0             0            -0             0             0
  -6.02919e+59   6.90958e+59   5.89294e+62   4.24375e+66             0             0   4.24375e+66   4.24375e+66             0             0             0             0             0
  -6.02919e+59   6.90958e+59   5.89294e+62  -4.24375e+66             0             0   4.24375e+66  -4.24375e+66             0             0             0             0            -0
  -6.02919e+59   6.90958e+59   5.89294e+62  -4.24375e+66             0             0   4.24375e+66  -4.24375e+66             0             0            -0             0            -0
    -8.446e+59   6.76011e+59   5.85379e+62  -4.24375e+66             0             0   4.24375e+66  -4.24375e+66             0             0            -0             0             0
    -8.446e+59   6.76011e+59   5.85379e+62  -4.24375e+66             0             0   4.24375e+66  -4.24375e+66             0             0             0             0             0
    -8.446e+59   6.76011e+59   5.85379e+62   4.24375e+66             0             0   4.24375e+66   4.24375e+66             0             0             0             0            -0
    -8.446e+59   6.76011e+59   5.85379e+62   4.24375e+66             0             0   4.24375e+66   4.24375e+66             0             0            -0             0            -0
    -8.446e+59   6.76011e+59   5.85379e+62   4.24375e+66             0             0   4.24375e+66   4.24375e+66             0             0            -0             0             0
    -8.446e+59   6.76011e+59   5.85379e+62   4.24375e+66             0             0   4.24375e+66   4.24375e+66             0             0             0             0             0
    -8.446e+59   6.76011e+59   5.85379e+62  -4.24375e+66             0             0   4.24375e+66  -4.24375e+66             0             0             0             0            -0
    -8.446e+59   6.76011e+59   5.85379e+62  -4.24375e+66             0             0   4.24375e+66  -4.24375e+66             0             0            -0             0            -0
  -1.08628e+60   6.61064e+59   5.81465e+62  -4.24375e+66             0             0   4.24375e+66  -4.24375e+66             0             0            -0             0             0
  -1.08628e+60   6.61064e+59   5.81465e+62  -4.24375e+66             0             0   4.24375e+66  -4.24375e+66             0             0             0             0             0
  -1.08628e+60   6.61064e+59   5.81465e+62   4.24375e+66             0             0   4.24375e+66   4.24375e+66             0             0             0             0            -0
  -1.08628e+60   6.61064e+59   5.81465e+62   4.24375e+66             0             0   4.24375e+66   4.24375e+66             0             0            -0             0            -0
  -1.08628e+60   6.61064e+59   5.81465e+62   4.24375e+66             0             0   4.24375e+66   4.24375e+66             0             0            -0             0             0
  -1.08628e+60   6.61064e+59   5.81465e+62   4.24375e+66             0             0   4.24375e+66   4.24375e+66             0             0             0             0             0
  -1.08628e+60   6.61064e+59   5.81465e+62  -4.24375e+66             0             0   4.24375e+66  -4.24375e+66             0             0             0             0            -0
  -1.08628e+60   6.61064e+59   5.81465e+62  -4.24375e+66             0             0   4.24375e+66  -4.24375e+66             0             0            -0             0            -0
  -1.32796e+60   6.46117e+59    5.7755e+62  -4.24375e+66             0             0   4.24375e+66  -4.24375e+66             0             0            -0             0             0
  -1.32796e+60   6.46117e+59    5.7755e+62  -4.24375e+66             0             0   4.24375e+66  -4.24375e+66             0             0             0             0             0
  -1.32796e+60   6.46117e+59    5.7755e+62   4.24375e+66             0             0   4.24375e+66   4.24375e+66             0             0             0             0            -0
  -1.32796e+60   6.46117e+59    5.7755e+62   4.24375e+66             0             0   4.24375e+66   4.24375e+66             0             0            -0             0            -0
  -1.32796e+60   6.46117e+59    5.7755e+62   4.24375e+66             0             0   4.24375e+66   4.24375e+66             0             0            -0             0             0
  -1.32796e+60   6.46117e+59    5.7755e+62   4.24375e+66             0             0   4.24375e+66   4.24375e+66             0             0             0             0             0
  -1.32796e+60   6.46117e+59    5.7755e+62  -4.24375e+66             0             0   4.24375e+66  -4.24375e+66             0             0             0             0            -0
  -1.32796e+60   6.46117e+59    5.7755e+62  -4.24375e+66             0             0   4.24375e+66  -4.24375e+66             0             0            -0             0            -0
  -1.56964e+60    6.3117e+59   5.73635e+62  -4.24375e+66             0             0   4.24375e+66  -4.24375e+66             0             0            -0             0             0
  -1.56964e+60    6.3117e+59   5.73635e+62  -4.24375e+66             0             0   4.24375e+66  -4.24375e+66             0             0             0             0             0
  -1.56964e+60    6.3117e+59   5.73635e+62   4.24375e+66             0             0   4.24375e+66   4.24375e+66             0             0             0             0            -0
  -1.56964e+60    6.3117e+59   5.73635e+62   4.24375e+66             0             0   4.24375e+66   4.24375e+66             0             0            -0             0            -0
   1.57221e+60   8.25481e+59   6.24527e+62  -2.81803e+68             0             0   2.81803e+68  -2.81803e+68             0             0            -0             0             0
   1.57221e+60   8.25481e+59   6.24527e+62  -2.81803e+68             0             0   2.81803e+68  -2.81803e+68             0             0             0             0             0
   1.57221e+60   8.25481e+59   6.24527e+62   2.81803e+68             0             0   2.81803e+68   2.81803e+68             0             0             0             0            -0
   1.57221e+60   8.25481e+59   6.24527e+62   2.81803e+68             0             0   2.81803e+68   2.81803e+68             0             0            -0             0            -0
   3.56013e+60   8.16599e+59   6.21322e+62   2.81803e+68             0             0   2.81803e+68   2.81803e+68             0             0            -0             0             0
   3.56013e+60   8.16599e+59   6.21322e+62   2.81803e+68             0             0   2.81803e+68   2.81803e+68             0             0             0             0             0
   3.56013e+60   8.16599e+59   6.21322e+62  -2.81803e+68             0             0   2.81803e+68  -2.81803e+68             0             0             0             0            -0
   3.56013e+60   8.16599e+59   6.21322e+62  -2.81803e+68             0             0   2.81803e+68  -2.81803e+68             0             0            -0             0            -0
   3.56013e+60   8.16599e+59   6.21322e+62  -2.81802e+68             0             0   2.81802e+68  -2.81802e+68             0             0            -0             0             0
   3.56013e+60   8.16599e+59   6.21322e+62  -2.81802e+68             0             0   2.81802e+68  -2.81802e+68             0             0             0             0             0
   3.56013e+60   8.16599e+59   6.21322e+62   2.81802e+68             0             0   2.81802e+68   2.81802e+68             0             0             0             0            -0
   3.56013e+60   8.16599e+59   6.21322e+62   2.81802e+68             0             0   2.81802e+68   2.81802e+68             0             0            -0             0            -0
   5.54805e+60   8.07716e+59   6.18117e+62   2.81802e+68             0             0   2.81802e+68   2.81802e+68             0             0            -0             0             0
   5.54805e+60   8.07716e+59   6.18117e+62   2.81802e+68             0             0   2.81802e+68   2.81802e+68             0             0             0             0             0
   5.54805e+60   8.07716e+59   6.18117e+62  -2.81802e+68             0             0   2.81802e+68  -2.81802e+68             0             0             0             0            -0
   5.54805e+60   8.07716e+59   6.18117e+62  -2.81802e+68             0             0   2.81802e+68  -2.81802e+68             0             0            -0             0            -0
   5.54805e+60   8.07716e+59   6.18117e+62  -2.81803e+68             0             0   2.81803e+68  -2.81803e+68             0             0            -0             0             0
   5.54805e+60   8.07716e+59   6.18117e+62  -2.81803e+68             0             0   2.81803e+68  -2.81803e+68             0             0             0             0             0
   5.54805e+60   8.07716e+59   6.18117e+62   2.81803e+68             0             0   2.81803e+68   2.81803e+68             0             0             0             0            -0
   5.54805e+60   8.07716e+59   6.18117e+62   2.81803e+68             0             0   2.81803e+68   2.81803e+68             0             0            -0             0            -0
   7.53597e+60   7.98834e+59   6.14912e+62   2.81803e+68             0             0   2.81803e+68   2.81803e+68             0             0            -0             0             0
   7.53597e+60   7.98834e+59   6.14912e+62   2.81803e+68             0             0   2.81803e+68   2.81803e+68             0             0             0             0             0
   7.53597e+60   7.98834e+59   6.14912e+62  -2.81803e+68             0             0   2.81803e+68  -2.81803e+68             0             0             0             0            -0
   7.53597e+60   7.98834e+59   6.14912e+62  -2.81803e+68             0             0   2.81803e+68  -2.81803e+68             0             0            -0             0            -0
   7.53597e+60   7.98834e+59   6.14912e+62  -2.81803e+68             0             0   2.81803e+68  -2.81803e+68             0             0            -0             0             0
   7.53597e+60   7.98834e+59   6.14912e+62  -2.81803e+68             0             0   2.81803e+68  -2.81803e+68             0             0             0             0             0
   7.53597e+60   7.98834e+59   6.14912e+62   2.81803e+68             0             0   2.81803e+68   2.81803e+68             0             0             0             0            -0
   7.53597e+60   7.98834e+59   6.14912e+62   2.81803e+68             0             0   2.81803e+68   2.81803e+68             0             0            -0             0            -0
   9.52388e+60   7.89952e+59   6.11707e+62   2.81803e+68             0             0   2.81803e+68   2.81803e+68             0             0            -0             0             0
   9.52388e+60   7.89952e+59   6.11707e+62   2.81803e+68             0             0   2.81803e+68   2.81803e+68             0             0             0             0             0
   9.52388e+60   7.89952e+59   6.11707e+62  -2.81803e+68             0             0   2.81803e+68  -2.81803e+68             0             0             0             0            -0
   9.52388e+60   7.89952e+59   6.11707e+62  -2.81803e+68             0             0   2.81803e+68  -2.81803e+68             0             0            -0             0            -0
   9.52388e+60   7.89952e+59   6.11707e+62  -2.81803e+68             0             0   2.81803e+68  -2.81803e+68             0             0            -0             0             0
   9.52388e+60   7.89952e+59   6.11707e+62  -2.81803e+68             0             0   2.81803e+68  -2.81803e+68             0             0             0             0             0
   9.52388e+60   7.89952e+59   6.11707e+62   2.81803e+68             0             0   2.81803e+68   2.81803e+68             0             0             0             0            -0
   9.52388e+60   7.89952e+59   6.11707e+62   2.81803e+68             0             0   2.81803e+68   2.81803e+68             0             0            -0             0            -0
   1.15118e+61   7.81069e+59   6.08501e+62   2.81803e+68             0             0   2.81803e+68   2.81803e+68             0             0            -0             0             0
   1.15118e+61   7.81069e+59   6.08501e+62   2.81803e+68             0             0   2.81803e+68   2.81803e+68             0             0             0             0             0
   1.15118e+61   7.81069e+59   6.08501e+62  -2.81803e+68             0             0   2.81803e+68  -2.81803e+68             0             0             0             0            -0
   1.15118e+61   7.81069e+59   6.08501e+62  -2.81803e+68             0             0   2.81803e+68  -2.81803e+68             0             0            -0             0            -0
   1.15118e+61   7.81069e+59   6.08501e+62  -2.81802e+68             0             0   2.81802e+68  -2.81802e+68             0             0            -0             0             0
   1.15118e+61   7.81069e+59   6.08501e+62  -2.81802e+68             0             0   2.81802e+68  -2.81802e+68             0             0             0             0             0
   1.15118e+61   7.81069e+59   6.08501e+62   2.81802e+68             0             0   2.81802e+68   2.81802e+68             0             0             0             0            -0
   1.15118e+61   7.81069e+59   6.08501e+62   2.81802e+68             0             0   2.81802e+68   2.81802e+68             0             0            -0             0            -0
   1.34997e+61   7.72187e+59   6.05296e+62   2.81802e+68             0             0   2.81802e+68   2.81802e+68             0             0            -0             0             0
   1.34997e+61   7.72187e+59   6.05296e+62   2.81802e+68             0             0   2.81802e+68   2.81802e+68             0             0             0             0             0
   1.34997e+61   7.72187e+59   6.05296e+62  -2.81802e+68             0             0   2.81802e+68  -2.81802e+68             0             0             0             0            -0
   1.34997e+61   7.72187e+59   6.05296e+62  -2.81802e+68             0             0   2.81802e+68  -2.81802e+68             0             0            -0             0            -0
   1.34997e+61   7.72187e+59   6.05296e+62  -2.81802e+68             0             0   2.81802e+68  -2.81802e+68             0             0            -0             0             0
   1.34997e+61   7.72187e+59   6.05296e+62  -2.81802e+68             0             0   2.81802e+68  -2.81802e+68             0             0             0             0             0
   1.34997e+61   7.72187e+59   6.05296e+62   2.81802e+68             0             0   2.81802e+68   2.81802e+68             0             0             0             0            -0
   1.34997e+61   7.72187e+59   6.05296e+62   2.81802e+68             0             0   2.81802e+68   2.81802e+68             0             0            -0             0            -0
   1.54876e+61   7.63305e+59   6.02091e+62   2.81802e+68             0             0   2.81802e+68   2.81802e+68             0             0            -0             0             0
   1.54876e+61   7.63305e+59   6.02091e+62   2.81802e+68             0             0   2.81802e+68   2.81802e+68             0             0             0             0             0
   1.54876e+61   7.63305e+59   6.02091e+62  -2.81802e+68             0             0   2.81802e+68  -2.81802e+68             0             0             0             0            -0
   1.54876e+61   7.63305e+59   6.02091e+62  -2.81802e+68             0             0   2.81802e+68  -2.81802e+68             0             0            -0             0            -0
   1.54876e+61   7.63305e+59   6.02091e+62  -2.81803e+68             0             0   2.81803e+68  -2.81803e+68             0             0            -0             0             0
   1.54876e+61   7.63305e+59   6.02091e+62  -2.81803e+68             0             0   2.81803e+68  -2.81803e+68             0             0             0             0             0
   1.54876e+61   7.63305e+59   6.02091e+62   2.81803e+68             0             0   2.81803e+68   2.81803e+68             0             0             0             0            -0
   1.54876e+61   7.63305e+59   6.02091e+62   2.81803e+68             0             0   2.81803e+68   2.81803e+68             0             0            -0             0            -0
   1.74756e+61   7.54422e+59   5.98886e+62   2.81803e+68             0             0   2.81803e+68   2.81803e+68             0             0            -0             0             0
   1.74756e+61   7.54422e+59   5.98886e+62   2.81803e+68             0             0   2.81803e+68   2.81803e+68             0             0             0             0             0
   1.74756e+61   7.54422e+59   5.98886e+62  -2.81803e+68             0             0   2.81803e+68  -2.81803e+68             0             0             0             0            -0
   1.74756e+61   7.54422e+59   5.98886e+62  -2.81803e+68             0             0   2.81803e+68  -2.81803e+68             0             0            -0             0            -0
   1.74756e+61   7.54422e+59   5.98886e+62  -2.81802e+68             0             0   2.81802e+68  -2.81802e+68             0             0            -0             0             0
   1.74756e+61   7.54422e+59   5.98886e+62  -2.81802e+68             0             0   2.81802e+68  -2.81802e+68             0             0             0             0             0
   1.74756e+61   7.54422e+59   5.98886e+62   2.81802e+68             0             0   2.81802e+68   2.81802e+68             0             0             0             0            -0
   1.74756e+61   7.54422e+59   5.98886e+62   2.81802e+68             0             0   2.81802e+68   2.81802e+68             0             0            -0             0            -0
   1.94635e+61    7.4554e+59   5.95681e+62   2.81802e+68             0             0   2.81802e+68   2.81802e+68             0             0            -0             0             0
   1.94635e+61    7.4554e+59   5.95681e+62   2.81802e+68             0             0   2.81802e+68   2.81802e+68             0             0             0             0             0
   1.94635e+61    7.4554e+59   5.95681e+62  -2.81802e+68             0             0   2.81802e+68  -2.81802e+68             0             0             0             0            -0
   1.94635e+61    7.4554e+59   5.95681e+62  -2.81802e+68             0             0   2.81802e+68  -2.81802e+68             0             0            -0             0            -0
   1.94635e+61    7.4554e+59   5.95681e+62  -2.81802e+68             0             0   2.81802e+68  -2.81802e+68             0             0            -0             0             0
   1.94635e+61    7.4554e+59   5.95681e+62  -2.81802e+68             0             0   2.81802e+68  -2.81802e+68             0             0             0             0             0
   1.94635e+61    7.4554e+59   5.95681e+62   2.81802e+68             0             0   2.81802e+68   2.81802e+68             0             0             0             0            -0
   1.94635e+61    7.4554e+59   5.95681e+62   2.81802e+68             0             0   2.81802e+68   2.81802e+68             0             0            -0             0            -0
   2.14514e+61   7.36658e+59   5.92476e+62   2.81802e+68             0             0   2.81802e+68   2.81802e+68             0             0            -0             0             0
   2.14514e+61   7.36658e+59   5.92476e+62   2.81802e+68             0             0   2.81802e+68   2.81802e+68             0             0             0             0             0
   2.14514e+61   7.36658e+59   5.92476e+62  -2.81802e+68             0             0   2.81802e+68  -2.81802e+68             0             0             0             0            -0
   2.14514e+61   7.36658e+59   5.92476e+62  -2.81802e+68             0             0   2.81802e+68  -2.81802e+68             0             0            -0             0            -0
   2.14514e+61   7.36658e+59   5.92476e+62  -2.81803e+68             0             0   2.81803e+68  -2.81803e+68             0             0            -0             0             0
   2.14514e+61   7.36658e+59   5.92476e+62  -2.81803e+68             0             0   2.81803e+68  -2.81803e+68             0             0             0             0             0
   2.14514e+61   7.36658e+59   5.92476e+62   2.81803e+68             0             0   2.81803e+68   2.81803e+68             0             0             0             0            -0
   2.14514e+61   7.36658e+59   5.92476e+62   2.81803e+68             0             0   2.81803e+68   2.81803e+68             0             0            -0             0            -0
   2.34393e+61   7.27775e+59   5.89271e+62   2.81803e+68             0             0   2.81803e+68   2.81803e+68             0             0            -0             0             0
   2.34393e+61   7.27775e+59   5.89271e+62   2.81803e+68             0             0   2.81803e+68   2.81803e+68             0             0             0             0             0
   2.34393e+61   7.27775e+59   5.89271e+62  -2.81803e+68             0             0   2.81803e+68  -2.81803e+68             0             0             0             0            -0
   2.34393e+61   7.27775e+59   5.89271e+62  -2.81803e+68             0             0   2.81803e+68  -2.81803e+68             0             0            -0             0            -0
   2.34393e+61   7.27775e+59   5.89271e+62  -2.81802e+68             0             0   2.81802e+68  -2.81802e+68             0             0            -0             0             0
   2.34393e+61   7.27775e+59   5.89271e+62  -2.81802e+68             0             0   2.81802e+68  -2.81802e+68             0             0             0             0             0
   2.34393e+61   7.27775e+59   5.89271e+62   2.81802e+68             0             0   2.81802e+68   2.81802e+68             0             0             0             0            -0
   2.34393e+61   7.27775e+59   5.89271e+62   2.81802e+68             0             0   2.81802e+68   2.81802e+68             0             0            -0             0            -0
   2.54272e+61   7.18893e+59   5.86066e+62   2.81802e+68             0             0   2.81802e+68   2.81802e+68             0             0            -0             0             0
   2.54272e+61   7.18893e+59   5.86066e+62   2.81802e+68             0             0   2.81802e+68   2.81802e+68             0             0             0             0             0
   2.54272e+61   7.18893e+59   5.86066e+62  -2.81802e+68             0             0   2.81802e+68  -2.81802e+68             0             0             0             0            -0
   2.54272e+61   7.18893e+59   5.86066e+62  -2.81802e+68             0             0   2.81802e+68  -2.81802e+68             0             0            -0             0            -0
   2.54272e+61   7.18893e+59   5.86066e+62  -2.81802e+68             0             0   2.81802e+68  -2.81802e+68             0             0            -0             0             0
   2.54272e+61   7.18893e+59   5.86066e+62  -2.81802e+68             0             0   2.81802e+68  -2.81802e+68             0             0             0             0             0
   2.54272e+61   7.18893e+59   5.86066e+62   2.81802e+68             0             0   2.81802e+68   2.81802e+68             0             0             0             0            -0
   2.54272e+61   7.18893e+59   5.86066e+62   2.81802e+68             0             0   2.81802e+68   2.81802e+68             0             0            -0             0            -0
   2.74151e+61   7.10011e+59   5.82861e+62   2.81802e+68             0             0   2.81802e+68   2.81802e+68             0             0            -0             0             0
   2.74151e+61   7.10011e+59   5.82861e+62   2.81802e+68             0             0   2.81802e+68   2.81802e+68             0             0             0             0             0
   2.74151e+61   7.10011e+59   5.82861e+62  -2.81802e+68             0             0   2.81802e+68  -2.81802e+68             0             0             0             0            -0
   2.74151e+61   7.10011e+59   5.82861e+62  -2.81802e+68             0             0   2.81802e+68  -2.81802e+68             0             0            -0             0            -0
   2.74151e+61   7.10011e+59   5.82861e+62  -2.81803e+68             0             0   2.81803e+68  -2.81803e+68             0             0            -0             0             0
   2.74151e+61   7.10011e+59   5.82861e+62  -2.81803e+68             0             0   2.81803e+68  -2.81803e+68             0             0             0             0             0
   2.74151e+61   7.10011e+59   5.82861e+62   2.81803e+68             0             0   2.81803e+68   2.81803e+68             0             0             0             0            -0
   2.74151e+61   7.10011e+59   5.82861e+62   2.81803e+68             0             0   2.81803e+68   2.81803e+68             0             0            -0             0            -0
   2.94031e+61   7.01128e+59   5.79656e+62   2.81803e+68             0             0   2.81803e+68   2.81803e+68             0             0            -0             0             0
   2.94031e+61   7.01128e+59   5.79656e+62   2.81803e+68             0             0   2.81803e+68   2.81803e+68             0             0             0             0             0
   2.94031e+61   7.01128e+59   5.79656e+62  -2.81803e+68             0             0   2.81803e+68  -2.81803e+68             0             0             0             0            -0
   2.94031e+61   7.01128e+59   5.79656e+62  -2.81803e+68             0             0   2.81803e+68  -2.81803e+68             0             0            -0             0            -0
   2.94031e+61   7.01128e+59   5.79656e+62  -2.81802e+68             0             0   2.81802e+68  -2.81802e+68             0             0            -0             0             0
   2.94031e+61   7.01128e+59   5.79656e+62  -2.81802e+68             0             0   2.81802e+68  -2.81802e+68             0             0             0             0             0
   2.94031e+61   7.01128e+59   5.79656e+62   2.81802e+68             0             0   2.81802e+68   2.81802e+68             0             0             0             0            -0
   2.94031e+61   7.01128e+59   5.79656e+62   2.81802e+68             0             0   2.81802e+68   2.81802e+68             0             0            -0             0            -0
    3.1391e+61   6.92246e+59   5.76451e+62   2.81802e+68             0             0   2.81802e+68   2.81802e+68             0             0            -0             0             0
    3.1391e+61   6.92246e+59   5.76451e+62   2.81802e+68             0             0   2.81802e+68   2.81802e+68             0             0             0             0             0
    3.1391e+61   6.92246e+59   5.76451e+62  -2.81802e+68             0             0   2.81802e+68  -2.81802e+68             0             0             0             0            -0
    3.1391e+61   6.92246e+59   5.76451e+62  -2.81802e+68             0             0   2.81802e+68  -2.81802e+68             0             0            -0             0            -0
    3.1391e+61   6.92246e+59   5.76451e+62  -1.22825e+69             0             0   1.22825e+69  -1.22825e+69             0             0            -0             0             0
    3.1391e+61   6.92246e+59   5.76451e+62  -1.22825e+69             0             0   1.22825e+69  -1.22825e+69             0             0             0             0             0
    3.1391e+61   6.92246e+59   5.76451e+62   1.22825e+69             0             0   1.22825e+69   1.22825e+69             0             0             0             0            -0
    3.1391e+61   6.92246e+59   5.76451e+62   1.22825e+69             0             0   1.22825e+69   1.22825e+69             0             0            -0             0            -0
   2.72709e+61   6.84611e+59   5.76099e+62   1.22825e+69             0             0   1.22825e+69   1.22825e+69             0             0            -0             0             0
   2.72709e+61   6.84611e+59   5.76099e+62   1.22825e+69             0             0   1.22825e+69   1.22825e+69             0             0             0             0             0
   2.72709e+61   6.84611e+59   5.76099e+62  -1.22825e+69             0             0   1.22825e+69  -1.22825e+69             0             0             0             0            -0
   2.72709e+61   6.84611e+59   5.76099e+62  -1.22825e+69             0             0   1.22825e+69  -1.22825e+69             0             0            -0             0            -0
   2.72709e+61   6.84611e+59   5.76099e+62  -1.22825e+69             0             0   1.22825e+69  -1.22825e+69             0             0            -0             0             0
   2.72709e+61   6.84611e+59   5.76099e+62  -1.22825e+69             0             0   1.22825e+69  -1.22825e+69             0             0             0             0             0
   2.72709e+61   6.84611e+59   5.76099e+62   1.22825e+69             0             0   1.22825e+69   1.22825e+69             0             0             0             0            -0
   2.72709e+61   6.84611e+59   5.76099e+62   1.22825e+69             0             0   1.22825e+69   1.22825e+69             0             0            -0             0            -0
   2.31508e+61   6.76977e+59   5.75747e+62   1.22825e+69             0             0   1.22825e+69   1.22825e+69             0             0            -0             0             0
   2.31508e+61   6.76977e+59   5.75747e+62   1.22825e+69             0             0   1.22825e+69   1.22825e+69             0             0             0             0             0
   2.31508e+61   6.76977e+59   5.75747e+62  -1.22825e+69             0             0   1.22825e+69  -1.22825e+69             0             0             0             0            -0
   2.31508e+61   6.76977e+59   5.75747e+62  -1.22825e+69             0             0   1.22825e+69  -1.22825e+69             0             0            -0             0            -0
   2.31508e+61   6.76977e+59   5.75747e+62  -1.22825e+69             0             0   1.22825e+69  -1.22825e+69             0             0            -0             0             0
   2.31508e+61   6.76977e+59   5.75747e+62  -1.22825e+69             0             0   1.22825e+69  -1.22825e+69             0             0             0             0             0
   2.31508e+61   6.76977e+59   5.75747e+62   1.22825e+69             0             0   1.22825e+69   1.22825e+69             0             0             0             0            -0
   2.31508e+61   6.76977e+59   5.75747e+62   1.22825e+69             0             0   1.22825e+69   1.22825e+69             0             0            -0             0            -0
   1.90307e+61   6.69343e+59   5.75395e+62   1.22825e+69             0             0   1.22825e+69   1.22825e+69             0             0            -0             0             0
   1.90307e+61   6.69343e+59   5.75395e+62   1.22825e+69             0             0   1.22825e+69   1.22825e+69             0             0             0             0             0
   1.90307e+61   6.69343e+59   5.75395e+62  -1.22825e+69             0             0   1.22825e+69  -1.22825e+69             0             0             0             0            -0
   1.90307e+61   6.69343e+59   5.75395e+62  -1.22825e+69             0             0   1.22825e+69  -1.22825e+69             0             0            -0             0            -0
   1.90307e+61   6.69343e+59   5.75395e+62  -1.22825e+69             0             0   1.22825e+69  -1.22825e+69             0             0            -0             0             0
   1.90307e+61   6.69343e+59   5.75395e+62  -1.22825e+69             0             0   1.22825e+69  -1.22825e+69             0             0             0             0             0
   1.90307e+61   6.69343e+59   5.75395e+62   1.22825e+69             0             0   1.22825e+69   1.22825e+69             0             0             0             0            -0
   1.90307e+61   6.69343e+59   5.75395e+62   1.22825e+69             0             0   1.22825e+69   1.22825e+69             0             0            -0             0            -0
   1.49107e+61   6.61708e+59   5.75043e+62   1.22825e+69             0             0   1.22825e+69   1.22825e+69             0             0            -0             0             0
   1.49107e+61   6.61708e+59   5.75043e+62   1.22825e+69             0             0   1.22825e+69   1.22825e+69             0             0             0             0             0
   1.49107e+61   6.61708e+59   5.75043e+62  -1.22825e+69             0             0   1.22825e+69  -1.22825e+69             0             0             0             0            -0
   1.49107e+61   6.61708e+59   5.75043e+62  -1.22825e+69             0             0   1.22825e+69  -1.22825e+69             0             0            -0             0            -0
   1.49107e+61   6.61708e+59   5.75043e+62  -1.22825e+69             0             0   1.22825e+69  -1.22825e+69             0             0            -0             0             0
   1.49107e+61   6.61708e+59   5.75043e+62  -1.22825e+69             0             0   1.22825e+69  -1.22825e+69             0             0             0             0             0
   1.49107e+61   6.61708e+59   5.75043e+62   1.22825e+69             0             0   1.22825e+69   1.22825e+69             0             0             0             0            -0
   1.49107e+61   6.61708e+59   5.75043e+62   1.22825e+69             0             0   1.22825e+69   1.22825e+69             0             0            -0             0            -0
   1.07906e+61   6.54074e+59   5.74691e+62   1.22825e+69             0             0   1.22825e+69   1.22825e+69             0             0            -0             0             0
   1.07906e+61   6.54074e+59   5.74691e+62   1.22825e+69             0             0   1.22825e+69   1.22825e+69             0             0             0             0             0
   1.07906e+61   6.54074e+59   5.74691e+62  -1.22825e+69             0             0   1.22825e+69  -1.22825e+69             0             0             0             0            -0
   1.07906e+61   6.54074e+59   5.74691e+62  -1.22825e+69             0             0   1.22825e+69  -1.22825e+69             0             0            -0             0            -0
   1.07906e+61   6.54074e+59   5.74691e+62  -1.22825e+69             0             0   1.22825e+69  -1.22825e+69             0             0            -0             0             0
   1.07906e+61   6.54074e+59   5.74691e+62  -1.22825e+69             0             0   1.22825e+69  -1.22825e+69             0             0             0             0             0
   1.07906e+61   6.54074e+59   5.74691e+62   1.22825e+69             0             0   1.22825e+69   1.22825e+69             0             0             0             0            -0
   1.07906e+61   6.54074e+59   5.74691e+62   1.22825e+69             0             0   1.22825e+69   1.22825e+69             0             0            -0             0            -0
   6.67051e+60   6.46439e+59   5.74339e+62   1.22825e+69             0             0   1.22825e+69   1.22825e+69             0             0            -0             0             0
   6.67051e+60   6.46439e+59   5.74339e+62   1.22825e+69             0             0   1.22825e+69   1.22825e+69             0             0             0             0             0
   6.67051e+60   6.46439e+59   5.74339e+62  -1.22825e+69             0             0   1.22825e+69  -1.22825e+69             0             0             0             0            -0
   6.67051e+60   6.46439e+59   5.74339e+62  -1.22825e+69             0             0   1.22825e+69  -1.22825e+69             0             0            -0             0            -0
   6.67051e+60   6.46439e+59   5.74339e+62  -1.22825e+69             0             0   1.22825e+69  -1.22825e+69             0             0            -0             0             0
   6.67051e+60   6.46439e+59   5.74339e+62  -1.22825e+69             0             0   1.22825e+69  -1.22825e+69             0             0             0             0             0
   6.67051e+60   6.46439e+59   5.74339e+62   1.22825e+69             0             0   1.22825e+69   1.22825e+69             0             0             0             0            -0
   6.67051e+60   6.46439e+59   5.74339e+62   1.22825e+69             0             0   1.22825e+69   1.22825e+69             0             0            -0             0            -0
   2.55044e+60   6.38805e+59   5.73987e+62   1.22825e+69             0             0   1.22825e+69   1.22825e+69             0             0            -0             0             0
   2.55044e+60   6.38805e+59   5.73987e+62   1.22825e+69             0             0   1.22825e+69   1.22825e+69             0             0             0             0             0
   2.55044e+60   6.38805e+59   5.73987e+62  -1.22825e+69             0             0   1.22825e+69  -1.22825e+69             0             0             0             0            -0
   2.55044e+60   6.38805e+59   5.73987e+62  -1.22825e+69             0             0   1.22825e+69  -1.22825e+69             0             0            -0             0            -0
   2.55044e+60   6.38805e+59   5.73987e+62  -1.22825e+69             0             0   1.22825e+69  -1.22825e+69             0             0            -0             0             0
   2.55044e+60   6.38805e+59   5.73987e+62  -1.22825e+69             0             0   1.22825e+69  -1.22825e+69             0             0             0             0             0
   2.55044e+60   6.38805e+59   5.73987e+62   1.22825e+69             0             0   1.22825e+69   1.22825e+69             0             0             0             0            -0
   2.55044e+60   6.38805e+59   5.73987e+62   1.22825e+69             0             0   1.22825e+69   1.22825e+69             0             0            -0             0            -0
  -1.56964e+60    6.3117e+59   5.73635e+62   1.22825e+69             0             0   1.22825e+69   1.22825e+69             0             0            -0             0             0
  -1.56964e+60    6.3117e+59   5.73635e+62   1.22825e+69             0             0   1.22825e+69   1.22825e+69             0             0             0             0             0
  -1.56964e+60    6.3117e+59   5.73635e+62  -1.22825e+69             0             0   1.22825e+69  -1.22825e+69             0             0             0             0            -0
  -1.56964e+60    6.3117e+59   5.73635e+62  -1.22825e+69             0             0   1.22825e+69  -1.22825e+69             0             0            -0             0            -0
  -1.56964e+60    6.3117e+59   5.73635e+62   6.58236e+66             0             0   6.58236e+66   6.58236e+66             0             0            -0             0             0
  -1.56964e+60    6.3117e+59   5.73635e+62   6.58236e+66             0             0   6.58236e+66   6.58236e+66             0             0             0             0             0
  -1.56964e+60    6.3117e+59   5.73635e+62  -6.58236e+66             0             0   6.58236e+66  -6.58236e+66             0             0             0             0            -0
  -1.56964e+60    6.3117e+59   5.73635e+62  -6.58236e+66             0             0   6.58236e+66  -6.58236e+66             0             0            -0             0            -0
  -2.22469e+60   6.07987e+59   5.65838e+62  -6.58236e+66             0             0   6.58236e+66  -6.58236e+66             0             0            -0             0             0
  -2.22469e+60   6.07987e+59   5.65838e+62  -6.58236e+66             0             0   6.58236e+66  -6.58236e+66             0             0             0             0             0
  -2.22469e+60   6.07987e+59   5.65838e+62   6.58236e+66             0             0   6.58236e+66   6.58236e+66             0             0             0             0            -0
  -2.22469e+60   6.07987e+59   5.65838e+62   6.58236e+66             0             0   6.58236e+66   6.58236e+66             0             0            -0             0            -0
  -2.22469e+60   6.07987e+59   5.65838e+62   6.58236e+66             0             0   6.58236e+66   6.58236e+66             0             0            -0             0             0
  -2.22469e+60   6.07987e+59   5.65838e+62   6.58236e+66             0             0   6.58236e+66   6.58236e+66             0             0             0             0             0
  -2.22469e+60   6.07987e+59   5.65838e+62  -6.58236e+66             0             0   6.58236e+66  -6.58236e+66             0             0             0             0            -0
  -2.22469e+60   6.07987e+59   5.65838e+62  -6.58236e+66             0             0   6.58236e+66  -6.58236e+66             0             0            -0             0            -0
  -2.87973e+60   5.84803e+59   5.58042e+62  -6.58236e+66             0             0   6.58236e+66  -6.58236e+66             0             0            -0             0             0
  -2.87973e+60   5.84803e+59   5.58042e+62  -6.58236e+66             0             0   6.58236e+66  -6.58236e+66             0             0             0             0             0
  -2.87973e+60   5.84803e+59   5.58042e+62   6.58236e+66             0             0   6.58236e+66   6.58236e+66             0             0             0             0            -0
  -2.87973e+60   5.84803e+59   5.58042e+62   6.58236e+66             0             0   6.58236e+66   6.58236e+66             0             0            -0             0            -0
  -2.87973e+60   5.84803e+59   5.58042e+62   6.58236e+66             0             0   6.58236e+66   6.58236e+66             0             0            -0             0             0
  -2.87973e+60   5.84803e+59   5.58042e+62   6.58236e+66             0             0   6.58236e+66   6.58236e+66             0             0             0             0             0
  -2.87973e+60   5.84803e+59   5.58042e+62  -6.58236e+66             0             0   6.58236e+66  -6.58236e+66             0             0             0             0            -0
  -2.87973e+60   5.84803e+59   5.58042e+62  -6.58236e+66             0             0   6.58236e+66  -6.58236e+66             0             0            -0             0            -0
  -3.53477e+60   5.61619e+59   5.50245e+62  -6.58236e+66             0             0   6.58236e+66  -6.58236e+66             0             0            -0             0             0
  -3.53477e+60   5.61619e+59   5.50245e+62  -6.58236e+66             0             0   6.58236e+66  -6.58236e+66             0             0             0             0             0
  -3.53477e+60   5.61619e+59   5.50245e+62   6.58236e+66             0             0   6.58236e+66   6.58236e+66             0             0             0             0            -0
  -3.53477e+60   5.61619e+59   5.50245e+62   6.58236e+66             0             0   6.58236e+66   6.58236e+66             0             0            -0             0            -0
  -3.53477e+60   5.61619e+59   5.50245e+62   6.58236e+66             0             0   6.58236e+66   6.58236e+66             0             0            -0             0             0
  -3.53477e+60   5.61619e+59   5.50245e+62   6.58236e+66             0             0   6.58236e+66   6.58236e+66             0             0             0             0             0
  -3.53477e+60   5.61619e+59   5.50245e+62  -6.58236e+66             0             0   6.58236e+66  -6.58236e+66             0             0             0             0            -0
  -3.53477e+60   5.61619e+59   5.50245e+62  -6.58236e+66             0             0   6.58236e+66  -6.58236e+66             0             0            -0             0            -0
  -4.18981e+60   5.38435e+59   5.42448e+62  -6.58236e+66             0             0   6.58236e+66  -6.58236e+66             0             0            -0             0             0
  -4.18981e+60   5.38435e+59   5.42448e+62  -6.58236e+66             0             0   6.58236e+66  -6.58236e+66             0             0             0             0             0
  -4.18981e+60   5.38435e+59   5.42448e+62   6.58236e+66             0             0   6.58236e+66   6.58236e+66             0             0             0             0            -0
  -4.18981e+60   5.38435e+59   5.42448e+62   6.58236e+66             0             0   6.58236e+66   6.58236e+66             0             0            -0             0            -0
  -4.18981e+60   5.38435e+59   5.42448e+62   6.58236e+66             0             0   6.58236e+66   6.58236e+66             0             0            -0             0             0
  -4.18981e+60   5.38435e+59   5.42448e+62   6.58236e+66             0             0   6.58236e+66   6.58236e+66             0             0             0             0             0
  -4.18981e+60   5.38435e+59   5.42448e+62  -6.58236e+66             0             0   6.58236e+66  -6.58236e+66             0             0             0             0            -0
  -4.18981e+60   5.38435e+59   5.42448e+62  -6.58236e+66             0             0   6.58236e+66  -6.58236e+66             0             0            -0             0            -0
  -4.84486e+60   5.15251e+59   5.34652e+62  -6.58236e+66             0             0   6.58236e+66  -6.58236e+66             0             0            -0             0             0
  -4.84486e+60   5.15251e+59   5.34652e+62  -6.58236e+66             0             0   6.58236e+66  -6.58236e+66             0             0             0             0             0
  -4.84486e+60   5.15251e+59   5.34652e+62   6.58236e+66             0             0   6.58236e+66   6.58236e+66             0             0             0             0            -0
  -4.84486e+60   5.15251e+59   5.34652e+62   6.58236e+66             0             0   6.58236e+66   6.58236e+66             0             0            -0             0            -0
  -4.84486e+60   5.15251e+59   5.34652e+62   6.58236e+66             0             0   6.58236e+66   6.58236e+66             0             0            -0             0             0
  -4.84486e+60   5.15251e+59   5.34652e+62   6.58236e+66             0             0   6.58236e+66   6.58236e+66             0             0             0             0             0
  -4.84486e+60   5.15251e+59   5.34652e+62  -6.58236e+66             0             0   6.58236e+66  -6.58236e+66             0             0             0             0            -0
  -4.84486e+60   5.15251e+59   5.34652e+62  -6.58236e+66             0             0   6.58236e+66  -6.58236e+66             0             0            -0             0            -0
   -5.4999e+60   4.92067e+59   5.26855e+62  -6.58236e+66             0             0   6.58236e+66  -6.58236e+66             0             0            -0             0             0
   -5.4999e+60   4.92067e+59   5.26855e+62  -6.58236e+66             0             0   6.58236e+66  -6.58236e+66             0             0             0             0             0
   -5.4999e+60   4.92067e+59   5.26855e+62   6.58236e+66             0             0   6.58236e+66   6.58236e+66             0             0             0             0            -0
   -5.4999e+60   4.92067e+59   5.26855e+62   6.58236e+66             0             0   6.58236e+66   6.58236e+66             0             0            -0             0            -0
   -5.4999e+60   4.92067e+59   5.26855e+62   6.58237e+66             0             0   6.58237e+66   6.58237e+66             0             0            -0             0             0
   -5.4999e+60   4.92067e+59   5.26855e+62   6.58237e+66             0             0   6.58237e+66   6.58237e+66             0             0             0             0             0
   -5.4999e+60   4.92067e+59   5.26855e+62  -6.58237e+66             0             0   6.58237e+66  -6.58237e+66             0             0             0             0            -0
   -5.4999e+60   4.92067e+59   5.26855e+62  -6.58237e+66             0             0   6.58237e+66  -6.58237e+66             0             0            -0             0            -0
  -6.15494e+60   4.68883e+59   5.19059e+62  -6.58237e+66             0             0   6.58237e+66  -6.58237e+66             0             0            -0             0             0
  -6.15494e+60   4.68883e+59   5.19059e+62  -6.58237e+66             0             0   6.58237e+66  -6.58237e+66             0             0             0             0             0
  -6.15494e+60   4.68883e+59   5.19059e+62   6.58237e+66             0             0   6.58237e+66   6.58237e+66             0             0             0             0            -0
  -6.15494e+60   4.68883e+59   5.19059e+62   6.58237e+66             0             0   6.58237e+66   6.58237e+66             0             0            -0             0            -0
  -6.15494e+60   4.68883e+59   5.19059e+62   6.58234e+66             0             0   6.58234e+66   6.58234e+66             0             0            -0             0             0
  -6.15494e+60   4.68883e+59   5.19059e+62   6.58234e+66             0             0   6.58234e+66   6.58234e+66             0             0             0             0             0
  -6.15494e+60   4.68883e+59   5.19059e+62  -6.58234e+66             0             0   6.58234e+66  -6.58234e+66             0             0             0             0            -0
  -6.15494e+60   4.68883e+59   5.19059e+62  -6.58234e+66             0             0   6.58234e+66  -6.58234e+66             0             0            -0             0            -0
  -6.80999e+60     4.457e+59   5.11262e+62  -6.58234e+66             0             0   6.58234e+66  -6.58234e+66             0             0            -0             0             0
  -6.80999e+60     4.457e+59   5.11262e+62  -6.58234e+66             0             0   6.58234e+66  -6.58234e+66             0             0             0             0             0
  -6.80999e+60     4.457e+59   5.11262e+62   6.58234e+66             0             0   6.58234e+66   6.58234e+66             0             0             0             0            -0
  -6.80999e+60     4.457e+59   5.11262e+62   6.58234e+66             0             0   6.58234e+66   6.58234e+66             0             0            -0             0            -0
  -6.80999e+60     4.457e+59   5.11262e+62   6.58237e+66             0             0   6.58237e+66   6.58237e+66             0             0            -0             0             0
  -6.80999e+60     4.457e+59   5.11262e+62   6.58237e+66             0             0   6.58237e+66   6.58237e+66             0             0             0             0             0
  -6.80999e+60     4.457e+59   5.11262e+62  -6.58237e+66             0             0   6.58237e+66  -6.58237e+66             0             0             0             0            -0
  -6.80999e+60     4.457e+59   5.11262e+62  -6.58237e+66             0             0   6.58237e+66  -6.58237e+66             0             0            -0             0            -0
  -7.46503e+60   4.22516e+59   5.03465e+62  -6.58237e+66             0             0   6.58237e+66  -6.58237e+66             0             0            -0             0             0
  -7.46503e+60   4.22516e+59   5.03465e+62  -6.58237e+66             0             0   6.58237e+66  -6.58237e+66             0             0             0             0             0
  -7.46503e+60   4.22516e+59   5.03465e+62   6.58237e+66             0             0   6.58237e+66   6.58237e+66             0             0             0             0            -0
  -7.46503e+60   4.22516e+59   5.03465e+62   6.58237e+66             0             0   6.58237e+66   6.58237e+66             0             0            -0             0            -0
  -7.46503e+60   4.22516e+59   5.03465e+62   6.58234e+66             0             0   6.58234e+66   6.58234e+66             0             0            -0             0             0
  -7.46503e+60   4.22516e+59   5.03465e+62   6.58234e+66             0             0   6.58234e+66   6.58234e+66             0             0             0             0             0
  -7.46503e+60   4.22516e+59   5.03465e+62  -6.58234e+66             0             0   6.58234e+66  -6.58234e+66             0             0             0             0            -0
  -7.46503e+60   4.22516e+59   5.03465e+62  -6.58234e+66             0             0   6.58234e+66  -6.58234e+66             0             0            -0             0            -0
  -8.12007e+60   3.99332e+59   4.95669e+62  -6.58234e+66             0             0   6.58234e+66  -6.58234e+66             0             0            -0             0             0
  -8.12007e+60   3.99332e+59   4.95669e+62  -6.58234e+66             0             0   6.58234e+66  -6.58234e+66             0             0             0             0             0
  -8.12007e+60   3.99332e+59   4.95669e+62   6.58234e+66             0             0   6.58234e+66   6.58234e+66             0             0             0             0            -0
  -8.12007e+60   3.99332e+59   4.95669e+62   6.58234e+66             0             0   6.58234e+66   6.58234e+66             0             0            -0             0            -0
  -8.12007e+60   3.99332e+59   4.95669e+62   6.58237e+66             0             0   6.58237e+66   6.58237e+66             0             0            -0             0             0
  -8.12007e+60   3.99332e+59   4.95669e+62   6.58237e+66             0             0   6.58237e+66   6.58237e+66             0             0             0             0             0
  -8.12007e+60   3.99332e+59   4.95669e+62  -6.58237e+66             0             0   6.58237e+66  -6.58237e+66             0             0             0             0            -0
  -8.12007e+60   3.99332e+59   4.95669e+62  -6.58237e+66             0             0   6.58237e+66  -6.58237e+66             0             0            -0             0            -0
  -8.77512e+60   3.76148e+59   4.87872e+62  -6.58237e+66             0             0   6.58237e+66  -6.58237e+66             0             0            -0             0             0
  -8.77512e+60   3.76148e+59   4.87872e+62  -6.58237e+66             0             0   6.58237e+66  -6.58237e+66             0             0             0             0             0
  -8.77512e+60   3.76148e+59   4.87872e+62   6.58237e+66             0             0   6.58237e+66   6.58237e+66             0             0             0             0            -0
  -8.77512e+60   3.76148e+59   4.87872e+62   6.58237e+66             0             0   6.58237e+66   6.58237e+66             0             0            -0             0            -0
  -8.77512e+60   3.76148e+59   4.87872e+62   6.58234e+66             0             0   6.58234e+66   6.58234e+66             0             0            -0             0             0
  -8.77512e+60   3.76148e+59   4.87872e+62   6.58234e+66             0             0   6.58234e+66   6.58234e+66             0             0             0             0             0
  -8.77512e+60   3.76148e+59   4.87872e+62  -6.58234e+66             0             0   6.58234e+66  -6.58234e+66             0             0             0             0            -0
  -8.77512e+60   3.76148e+59   4.87872e+62  -6.58234e+66             0             0   6.58234e+66  -6.58234e+66             0             0            -0             0            -0
  -9.43016e+60   3.52964e+59   4.80075e+62  -6.58234e+66             0             0   6.58234e+66  -6.58234e+66             0             0            -0             0             0
  -9.43016e+60   3.52964e+59   4.80075e+62  -6.58234e+66             0             0   6.58234e+66  -6.58234e+66             0             0             0             0             0
  -9.43016e+60   3.52964e+59   4.80075e+62   6.58234e+66             0             0   6.58234e+66   6.58234e+66             0             0             0             0            -0
  -9.43016e+60   3.52964e+59   4.80075e+62   6.58234e+66             0             0   6.58234e+66   6.58234e+66             0             0            -0             0            -0
  -9.43016e+60   3.52964e+59   4.80075e+62   6.58237e+66             0             0   6.58237e+66   6.58237e+66             0             0            -0             0             0
  -9.43016e+60   3.52964e+59   4.80075e+62   6.58237e+66             0             0   6.58237e+66   6.58237e+66             0             0             0             0             0
  -9.43016e+60   3.52964e+59   4.80075e+62  -6.58237e+66             0             0   6.58237e+66  -6.58237e+66             0             0             0             0            -0
  -9.43016e+60   3.52964e+59   4.80075e+62  -6.58237e+66             0             0   6.58237e+66  -6.58237e+66             0             0            -0             0            -0
  -1.00852e+61    3.2978e+59   4.72279e+62  -6.58237e+66             0             0   6.58237e+66  -6.58237e+66             0             0            -0             0             0
  -1.00852e+61    3.2978e+59   4.72279e+62  -6.58237e+66             0             0   6.58237e+66  -6.58237e+66             0             0             0             0             0
  -1.00852e+61    3.2978e+59   4.72279e+62   6.58237e+66             0             0   6.58237e+66   6.58237e+66             0             0             0             0            -0
  -1.00852e+61    3.2978e+59   4.72279e+62   6.58237e+66             0             0   6.58237e+66   6.58237e+66             0             0            -0             0            -0
   1.57221e+60   8.25481e+59   6.24527e+62  -5.52889e+68             0             0   5.52889e+68  -5.52889e+68             0             0            -0             0             0
   1.57221e+60   8.25481e+59   6.24527e+62  -5.52889e+68             0             0   5.52889e+68  -5.52889e+68             0             0             0             0             0
   1.57221e+60   8.25481e+59   6.24527e+62   5.52889e+68             0             0   5.52889e+68   5.52889e+68             0             0             0             0            -0
   1.57221e+60   8.25481e+59   6.24527e+62   5.52889e+68             0             0   5.52889e+68   5.52889e+68             0             0            -0             0            -0
   3.41316e+60   8.35719e+59   6.25134e+62   5.52889e+68             0             0   5.52889e+68   5.52889e+68             0             0            -0             0             0
   3.41316e+60   8.35719e+59   6.25134e+62   5.52889e+68             0             0   5.52889e+68   5.52889e+68             0             0             0             0             0
   3.41316e+60   8.35719e+59   6.25134e+62  -5.52889e+68             0             0   5.52889e+68  -5.52889e+68             0             0             0             0            -0
   3.41316e+60   8.35719e+59   6.25134e+62  -5.52889e+68             0             0   5.52889e+68  -5.52889e+68             0             0            -0             0            -0
   3.41316e+60   8.35719e+59   6.25134e+62  -5.52889e+68             0             0   5.52889e+68  -5.52889e+68             0             0            -0             0             0
   3.41316e+60   8.35719e+59   6.25134e+62  -5.52889e+68             0             0   5.52889e+68  -5.52889e+68             0             0             0             0             0
   3.41316e+60   8.35719e+59   6.25134e+62   5.52889e+68             0             0   5.52889e+68   5.52889e+68             0             0             0             0            -0
   3.41316e+60   8.35719e+59   6.25134e+62   5.52889e+68             0             0   5.52889e+68   5.52889e+68             0             0            -0             0            -0
   5.25412e+60   8.45956e+59   6.25741e+62   5.52889e+68             0             0   5.52889e+68   5.52889e+68             0             0            -0             0             0
   5.25412e+60   8.45956e+59   6.25741e+62   5.52889e+68             0             0   5.52889e+68   5.52889e+68             0             0             0             0             0
   5.25412e+60   8.45956e+59   6.25741e+62  -5.52889e+68             0             0   5.52889e+68  -5.52889e+68             0             0             0             0            -0
   5.25412e+60   8.45956e+59   6.25741e+62  -5.52889e+68             0             0   5.52889e+68  -5.52889e+68             0             0            -0             0            -0
   5.25412e+60   8.45956e+59   6.25741e+62  -5.52889e+68             0             0   5.52889e+68  -5.52889e+68             0             0            -0             0             0
   5.25412e+60   8.45956e+59   6.25741e+62  -5.52889e+68             0             0   5.52889e+68  -5.52889e+68             0             0             0             0             0
   5.25412e+60   8.45956e+59   6.25741e+62   5.52889e+68             0             0   5.52889e+68   5.52889e+68             0             0             0             0            -0
   5.25412e+60   8.45956e+59   6.25741e+62   5.52889e+68             0             0   5.52889e+68   5.52889e+68             0             0            -0             0            -0
   7.09507e+60   8.56194e+59   6.26348e+62   5.52889e+68             0             0   5.52889e+68   5.52889e+68             0             0            -0             0             0
   7.09507e+60   8.56194e+59   6.26348e+62   5.52889e+68             0             0   5.52889e+68   5.52889e+68             0             0             0             0             0
   7.09507e+60   8.56194e+59   6.26348e+62  -5.52889e+68             0             0   5.52889e+68  -5.52889e+68             0             0             0             0            -0
   7.09507e+60   8.56194e+59   6.26348e+62  -5.52889e+68             0             0   5.52889e+68  -5.52889e+68             0             0            -0             0            -0
   7.09507e+60   8.56194e+59   6.26348e+62  -5.52889e+68             0             0   5.52889e+68  -5.52889e+68             0             0            -0             0             0
   7.09507e+60   8.56194e+59   6.26348e+62  -5.52889e+68             0             0   5.52889e+68  -5.52889e+68             0             0             0             0             0
   7.09507e+60   8.56194e+59   6.26348e+62   5.52889e+68             0             0   5.52889e+68   5.52889e+68             0             0             0             0            -0
   7.09507e+60   8.56194e+59   6.26348e+62   5.52889e+68             0             0   5.52889e+68   5.52889e+68             0             0            -0             0            -0
   8.93602e+60   8.66432e+59   6.26955e+62   5.52889e+68             0             0   5.52889e+68   5.52889e+68             0             0            -0             0             0
   8.93602e+60   8.66432e+59   6.26955e+62   5.52889e+68             0             0   5.52889e+68   5.52889e+68             0             0             0             0             0
   8.93602e+60   8.66432e+59   6.26955e+62  -5.52889e+68             0             0   5.52889e+68  -5.52889e+68             0             0             0             0            -0
   8.93602e+60   8.66432e+59   6.26955e+62  -5.52889e+68             0             0   5.52889e+68  -5.52889e+68             0             0            -0             0            -0
   8.93602e+60   8.66432e+59   6.26955e+62  -5.52889e+68             0             0   5.52889e+68  -5.52889e+68             0             0            -0             0             0
   8.93602e+60   8.66432e+59   6.26955e+62  -5.52889e+68             0             0   5.52889e+68  -5.52889e+68             0             0             0             0             0
   8.93602e+60   8.66432e+59   6.26955e+62   5.52889e+68             0             0   5.52889e+68   5.52889e+68             0             0             0             0            -0
   8.93602e+60   8.66432e+59   6.26955e+62   5.52889e+68             0             0   5.52889e+68   5.52889e+68             0             0            -0             0            -0
    1.0777e+61   8.76669e+59   6.27562e+62   5.52889e+68             0             0   5.52889e+68   5.52889e+68             0             0            -0             0             0
    1.0777e+61   8.76669e+59   6.27562e+62   5.52889e+68             0             0   5.52889e+68   5.52889e+68             0             0             0             0             0
    1.0777e+61   8.76669e+59   6.27562e+62  -5.52889e+68             0             0   5.52889e+68  -5.52889e+68             0             0             0             0            -0
    1.0777e+61   8.76669e+59   6.27562e+62  -5.52889e+68             0             0   5.52889e+68  -5.52889e+68             0             0            -0             0            -0
    1.0777e+61   8.76669e+59   6.27562e+62  -5.52889e+68             0             0   5.52889e+68  -5.52889e+68             0             0            -0             0             0
    1.0777e+61   8.76669e+59   6.27562e+62  -5.52889e+68             0             0   5.52889e+68  -5.52889e+68             0             0             0             0             0
    1.0777e+61   8.76669e+59   6.27562e+62   5.52889e+68             0             0   5.52889e+68   5.52889e+68             0             0             0             0            -0
    1.0777e+61   8.76669e+59   6.27562e+62   5.52889e+68             0             0   5.52889e+68   5.52889e+68             0             0            -0             0            -0
   1.26179e+61   8.86907e+59   6.28169e+62   5.52889e+68             0             0   5.52889e+68   5.52889e+68             0             0            -0             0             0
   1.26179e+61   8.86907e+59   6.28169e+62   5.52889e+68             0             0   5.52889e+68   5.52889e+68             0             0             0             0             0
   1.26179e+61   8.86907e+59   6.28169e+62  -5.52889e+68             0             0   5.52889e+68  -5.52889e+68             0             0             0             0            -0
   1.26179e+61   8.86907e+59   6.28169e+62  -5.52889e+68             0             0   5.52889e+68  -5.52889e+68             0             0            -0             0            -0
   1.26179e+61   8.86907e+59   6.28169e+62  -5.52889e+68             0             0   5.52889e+68  -5.52889e+68             0             0            -0             0             0
   1.26179e+61   8.86907e+59   6.28169e+62  -5.52889e+68             0             0   5.52889e+68  -5.52889e+68             0             0             0             0             0
   1.26179e+61   8.86907e+59   6.28169e+62   5.52889e+68             0             0   5.52889e+68   5.52889e+68             0             0             0             0            -0
   1.26179e+61   8.86907e+59   6.28169e+62   5.52889e+68             0             0   5.52889e+68   5.52889e+68             0             0            -0             0            -0
   1.44589e+61   8.97144e+59   6.28776e+62   5.52889e+68             0             0   5.52889e+68   5.52889e+68             0             0            -0             0             0
   1.44589e+61   8.97144e+59   6.28776e+62   5.52889e+68             0             0   5.52889e+68   5.52889e+68             0             0             0             0             0
   1.44589e+61   8.97144e+59   6.28776e+62  -5.52889e+68             0             0   5.52889e+68  -5.52889e+68             0             0             0             0            -0
   1.44589e+61   8.97144e+59   6.28776e+62  -5.52889e+68             0             0   5.52889e+68  -5.52889e+68             0             0            -0             0            -0
   1.44589e+61   8.97144e+59   6.28776e+62  -5.52889e+68             0             0   5.52889e+68  -5.52889e+68             0             0            -0             0             0
   1.44589e+61   8.97144e+59   6.28776e+62  -5.52889e+68             0             0   5.52889e+68  -5.52889e+68             0             0             0             0             0
   1.44589e+61   8.97144e+59   6.28776e+62   5.52889e+68             0             0   5.52889e+68   5.52889e+68             0             0             0             0            -0
   1.44589e+61   8.97144e+59   6.28776e+62   5.52889e+68             0             0   5.52889e+68   5.52889e+68             0             0            -0             0            -0
   1.62998e+61   9.07382e+59   6.29383e+62   5.52889e+68             0             0   5.52889e+68   5.52889e+68             0             0            -0             0             0
   1.62998e+61   9.07382e+59   6.29383e+62   5.52889e+68             0             0   5.52889e+68   5.52889e+68             0             0             0             0             0
   1.62998e+61   9.07382e+59   6.29383e+62  -5.52889e+68             0             0   5.52889e+68  -5.52889e+68             0             0             0             0            -0
   1.62998e+61   9.07382e+59   6.29383e+62  -5.52889e+68             0             0   5.52889e+68  -5.52889e+68             0             0            -0             0            -0
    3.1391e+61   6.92246e+59   5.76451e+62  -3.88689e+68             0             0   3.88689e+68  -3.88689e+68             0             0            -0             0             0
    3.1391e+61   6.92246e+59   5.76451e+62  -3.88689e+68             0             0   3.88689e+68  -3.88689e+68             0             0             0             0             0
    3.1391e+61   6.92246e+59   5.76451e+62   3.88689e+68             0             0   3.88689e+68   3.88689e+68             0             0             0             0            -0
    3.1391e+61   6.92246e+59   5.76451e+62   3.88689e+68             0             0   3.88689e+68   3.88689e+68             0             0            -0             0            -0
   2.86259e+61   6.68081e+59   5.69506e+62   3.88689e+68             0             0   3.88689e+68   3.88689e+68             0             0            -0             0             0
   2.86259e+61   6.68081e+59   5.69506e+62   3.88689e+68             0             0   3.88689e+68   3.88689e+68             0             0             0             0             0
   2.86259e+61   6.68081e+59   5.69506e+62  -3.88689e+68             0             0   3.88689e+68  -3.88689e+68             0             0             0             0            -0
   2.86259e+61   6.68081e+59   5.69506e+62  -3.88689e+68             0             0   3.88689e+68  -3.88689e+68             0             0            -0             0            -0
   2.86259e+61   6.68081e+59   5.69506e+62  -3.88688e+68             0             0   3.88688e+68  -3.88688e+68             0             0            -0             0             0
   2.86259e+61   6.68081e+59   5.69506e+62  -3.88688e+68             0             0   3.88688e+68  -3.88688e+68             0             0             0             0             0
   2.86259e+61   6.68081e+59   5.69506e+62   3.88688e+68             0             0   3.88688e+68   3.88688e+68             0             0             0             0            -0
   2.86259e+61   6.68081e+59   5.69506e+62   3.88688e+68             0             0   3.88688e+68   3.88688e+68             0             0            -0             0            -0
   2.58608e+61   6.43917e+59   5.62561e+62   3.88688e+68             0             0   3.88688e+68   3.88688e+68             0             0            -0             0             0
   2.58608e+61   6.43917e+59   5.62561e+62   3.88688e+68             0             0   3.88688e+68   3.88688e+68             0             0             0             0             0
   2.58608e+61   6.43917e+59   5.62561e+62  -3.88688e+68             0             0   3.88688e+68  -3.88688e+68             0             0             0             0            -0
   2.58608e+61   6.43917e+59   5.62561e+62  -3.88688e+68             0             0   3.88688e+68  -3.88688e+68             0             0            -0             0            -0
   2.58608e+61   6.43917e+59   5.62561e+62  -3.88689e+68             0             0   3.88689e+68  -3.88689e+68             0             0            -0             0             0
   2.58608e+61   6.43917e+59   5.62561e+62  -3.88689e+68             0             0   3.88689e+68  -3.88689e+68             0             0             0             0             0
   2.58608e+61   6.43917e+59   5.62561e+62   3.88689e+68             0             0   3.88689e+68   3.88689e+68             0             0             0             0            -0
   2.58608e+61   6.43917e+59   5.62561e+62   3.88689e+68             0             0   3.88689e+68   3.88689e+68             0             0            -0             0            -0
   2.30957e+61   6.19753e+59   5.55616e+62   3.88689e+68             0             0   3.88689e+68   3.88689e+68             0             0            -0             0             0
   2.30957e+61   6.19753e+59   5.55616e+62   3.88689e+68             0             0   3.88689e+68   3.88689e+68             0             0             0             0             0
   2.30957e+61   6.19753e+59   5.55616e+62  -3.88689e+68             0             0   3.88689e+68  -3.88689e+68             0             0             0             0            -0
   2.30957e+61   6.19753e+59   5.55616e+62  -3.88689e+68             0             0   3.88689e+68  -3.88689e+68             0             0            -0             0            -0
   2.30957e+61   6.19753e+59   5.55616e+62  -3.88689e+68             0             0   3.88689e+68  -3.88689e+68             0             0            -0             0             0
   2.30957e+61   6.19753e+59   5.55616e+62  -3.88689e+68             0             0   3.88689e+68  -3.88689e+68             0             0             0             0             0
   2.30957e+61   6.19753e+59   5.55616e+62   3.88689e+68             0             0   3.88689e+68   3.88689e+68             0             0             0             0            -0
   2.30957e+61   6.19753e+59   5.55616e+62   3.88689e+68             0             0   3.88689e+68   3.88689e+68             0             0            -0             0            -0
   2.03307e+61   5.95588e+59   5.48671e+62   3.88689e+68             0             0   3.88689e+68   3.88689e+68             0             0            -0             0             0
   2.03307e+61   5.95588e+59   5.48671e+62   3.88689e+68             0             0   3.88689e+68   3.88689e+68             0             0             0             0             0
   2.03307e+61   5.95588e+59   5.48671e+62  -3.88689e+68             0             0   3.88689e+68  -3.88689e+68             0             0             0             0            -0
   2.03307e+61   5.95588e+59   5.48671e+62  -3.88689e+68             0             0   3.88689e+68  -3.88689e+68             0             0            -0             0            -0
   2.03307e+61   5.95588e+59   5.48671e+62  -3.88688e+68             0             0   3.88688e+68  -3.88688e+68             0             0            -0             0             0
   2.03307e+61   5.95588e+59   5.48671e+62  -3.88688e+68             0             0   3.88688e+68  -3.88688e+68             0             0             0             0             0
   2.03307e+61   5.95588e+59   5.48671e+62   3.88688e+68             0             0   3.88688e+68   3.88688e+68             0             0             0             0            -0
   2.03307e+61   5.95588e+59   5.48671e+62   3.88688e+68             0             0   3.88688e+68   3.88688e+68             0             0            -0             0            -0
   1.75656e+61   5.71424e+59   5.41727e+62   3.88688e+68             0             0   3.88688e+68   3.88688e+68             0             0            -0             0             0
   1.75656e+61   5.71424e+59   5.41727e+62   3.88688e+68             0             0   3.88688e+68   3.88688e+68             0             0             0             0             0
   1.75656e+61   5.71424e+59   5.41727e+62  -3.88688e+68             0             0   3.88688e+68  -3.88688e+68             0             0             0             0            -0
   1.75656e+61   5.71424e+59   5.41727e+62  -3.88688e+68             0             0   3.88688e+68  -3.88688e+68             0             0            -0             0            -0
   1.75656e+61   5.71424e+59   5.41727e+62  -3.88689e+68             0             0   3.88689e+68  -3.88689e+68             0             0            -0             0             0
   1.75656e+61   5.71424e+59   5.41727e+62  -3.88689e+68             0             0   3.88689e+68  -3.88689e+68             0             0             0             0             0
   1.75656e+61   5.71424e+59   5.41727e+62   3.88689e+68             0             0   3.88689e+68   3.88689e+68             0             0             0             0            -0
   1.75656e+61   5.71424e+59   5.41727e+62   3.88689e+68             0             0   3.88689e+68   3.88689e+68             0             0            -0             0            -0
   1.48005e+61    5.4726e+59   5.34782e+62   3.88689e+68             0             0   3.88689e+68   3.88689e+68             0             0            -0             0             0
   1.48005e+61    5.4726e+59   5.34782e+62   3.88689e+68             0             0   3.88689e+68   3.88689e+68             0             0             0             0             0
   1.48005e+61    5.4726e+59   5.34782e+62  -3.88689e+68             0             0   3.88689e+68  -3.88689e+68             0             0             0             0            -0
   1.48005e+61    5.4726e+59   5.34782e+62  -3.88689e+68             0             0   3.88689e+68  -3.88689e+68             0             0            -0             0            -0
   1.48005e+61    5.4726e+59   5.34782e+62  -3.88689e+68             0             0   3.88689e+68  -3.88689e+68             0             0            -0             0             0
   1.48005e+61    5.4726e+59   5.34782e+62  -3.88689e+68             0             0   3.88689e+68  -3.88689e+68             0             0             0             0             0
   1.48005e+61    5.4726e+59   5.34782e+62   3.88689e+68             0             0   3.88689e+68   3.88689e+68             0             0             0             0            -0
   1.48005e+61    5.4726e+59   5.34782e+62   3.88689e+68             0             0   3.88689e+68   3.88689e+68             0             0            -0             0            -0
   1.20354e+61   5.23095e+59   5.27837e+62   3.88689e+68             0             0   3.88689e+68   3.88689e+68             0             0            -0             0             0
   1.20354e+61   5.23095e+59   5.27837e+62   3.88689e+68             0             0   3.88689e+68   3.88689e+68             0             0             0             0             0
   1.20354e+61   5.23095e+59   5.27837e+62  -3.88689e+68             0             0   3.88689e+68  -3.88689e+68             0             0             0             0            -0
   1.20354e+61   5.23095e+59   5.27837e+62  -3.88689e+68             0             0   3.88689e+68  -3.88689e+68             0             0            -0             0            -0
   1.20354e+61   5.23095e+59   5.27837e+62  -3.88688e+68             0             0   3.88688e+68  -3.88688e+68             0             0            -0             0             0
   1.20354e+61   5.23095e+59   5.27837e+62  -3.88688e+68             0             0   3.88688e+68  -3.88688e+68             0             0             0             0             0
   1.20354e+61   5.23095e+59   5.27837e+62   3.88688e+68             0             0   3.88688e+68   3.88688e+68             0             0             0             0            -0
   1.20354e+61   5.23095e+59   5.27837e+62   3.88688e+68             0             0   3.88688e+68   3.88688e+68             0             0            -0             0            -0
   9.27036e+60   4.98931e+59   5.20892e+62   3.88688e+68             0             0   3.88688e+68   3.88688e+68             0             0            -0             0             0
   9.27036e+60   4.98931e+59   5.20892e+62   3.88688e+68             0             0   3.88688e+68   3.88688e+68             0             0             0             0             0
   9.27036e+60   4.98931e+59   5.20892e+62  -3.88688e+68             0             0   3.88688e+68  -3.88688e+68             0             0             0             0            -0
   9.27036e+60   4.98931e+59   5.20892e+62  -3.88688e+68             0             0   3.88688e+68  -3.88688e+68             0             0            -0             0            -0
   9.27036e+60   4.98931e+59   5.20892e+62  -3.88689e+68             0             0   3.88689e+68  -3.88689e+68             0             0            -0             0             0
   9.27036e+60   4.98931e+59   5.20892e+62  -3.88689e+68             0             0   3.88689e+68  -3.88689e+68             0             0             0             0             0
   9.27036e+60   4.98931e+59   5.20892e+62   3.88689e+68             0             0   3.88689e+68   3.88689e+68             0             0             0             0            -0
   9.27036e+60   4.98931e+59   5.20892e+62   3.88689e+68             0             0   3.88689e+68   3.88689e+68             0             0            -0             0            -0
   6.50527e+60   4.74767e+59   5.13948e+62   3.88689e+68             0             0   3.88689e+68   3.88689e+68             0             0            -0             0             0
   6.50527e+60   4.74767e+59   5.13948e+62   3.88689e+68             0             0   3.88689e+68   3.88689e+68             0             0             0             0             0
   6.50527e+60   4.74767e+59   5.13948e+62  -3.88689e+68             0             0   3.88689e+68  -3.88689e+68             0             0             0             0            -0
   6.50527e+60   4.74767e+59   5.13948e+62  -3.88689e+68             0             0   3.88689e+68  -3.88689e+68             0             0            -0             0            -0
   6.50527e+60   4.74767e+59   5.13948e+62  -3.88688e+68             0             0   3.88688e+68  -3.88688e+68             0             0            -0             0             0
   6.50527e+60   4.74767e+59   5.13948e+62  -3.88688e+68             0             0   3.88688e+68  -3.88688e+68             0             0             0             0             0
   6.50527e+60   4.74767e+59   5.13948e+62   3.88688e+68             0             0   3.88688e+68   3.88688e+68             0             0             0             0            -0
   6.50527e+60   4.74767e+59   5.13948e+62   3.88688e+68             0             0   3.88688e+68   3.88688e+68             0             0            -0             0            -0
    3.7402e+60   4.50602e+59   5.07003e+62   3.88688e+68             0             0   3.88688e+68   3.88688e+68             0             0            -0             0             0
    3.7402e+60   4.50602e+59   5.07003e+62   3.88688e+68             0             0   3.88688e+68   3.88688e+68             0             0             0             0             0
    3.7402e+60   4.50602e+59   5.07003e+62  -3.88688e+68             0             0   3.88688e+68  -3.88688e+68             0             0             0             0            -0
    3.7402e+60   4.50602e+59   5.07003e+62  -3.88688e+68             0             0   3.88688e+68  -3.88688e+68             0             0            -0             0            -0
    3.7402e+60   4.50602e+59   5.07003e+62   -3.8869e+68             0             0    3.8869e+68   -3.8869e+68             0             0            -0             0             0
    3.7402e+60   4.50602e+59   5.07003e+62   -3.8869e+68             0             0    3.8869e+68   -3.8869e+68             0             0             0             0             0
    3.7402e+60   4.50602e+59   5.07003e+62    3.8869e+68             0             0    3.8869e+68    3.8869e+68             0             0             0             0            -0
    3.7402e+60   4.50602e+59   5.07003e+62    3.8869e+68             0             0    3.8869e+68    3.8869e+68             0             0            -0             0            -0
   9.75101e+59   4.26438e+59   5.00058e+62    3.8869e+68             0             0    3.8869e+68    3.8869e+68             0             0            -0             0             0
   9.75101e+59   4.26438e+59   5.00058e+62    3.8869e+68             0             0    3.8869e+68    3.8869e+68             0             0             0             0             0
   9.75101e+59   4.26438e+59   5.00058e+62   -3.8869e+68             0             0    3.8869e+68   -3.8869e+68             0             0             0             0            -0
   9.75101e+59   4.26438e+59   5.00058e+62   -3.8869e+68             0             0    3.8869e+68   -3.8869e+68             0             0            -0             0            -0
   9.75101e+59   4.26438e+59   5.00058e+62  -3.88688e+68             0             0   3.88688e+68  -3.88688e+68             0             0            -0             0             0
   9.75101e+59   4.26438e+59   5.00058e+62  -3.88688e+68             0             0   3.88688e+68  -3.88688e+68             0             0             0             0             0
   9.75101e+59   4.26438e+59   5.00058e+62   3.88688e+68             0             0   3.88688e+68   3.88688e+68             0             0             0             0            -0
   9.75101e+59   4.26438e+59   5.00058e+62   3.88688e+68             0             0   3.88688e+68   3.88688e+68             0             0            -0             0            -0
  -1.78997e+60   4.02274e+59   4.93113e+62   3.88688e+68             0             0   3.88688e+68   3.88688e+68             0             0            -0             0             0
  -1.78997e+60   4.02274e+59   4.93113e+62   3.88688e+68             0             0   3.88688e+68   3.88688e+68             0             0             0             0             0
  -1.78997e+60   4.02274e+59   4.93113e+62  -3.88688e+68             0             0   3.88688e+68  -3.88688e+68             0             0             0             0            -0
  -1.78997e+60   4.02274e+59   4.93113e+62  -3.88688e+68             0             0   3.88688e+68  -3.88688e+68             0             0            -0             0            -0
  -1.78997e+60   4.02274e+59   4.93113e+62  -3.88688e+68             0             0   3.88688e+68  -3.88688e+68             0             0            -0             0             0
  -1.78997e+60   4.02274e+59   4.93113e+62  -3.88688e+68             0             0   3.88688e+68  -3.88688e+68             0             0             0             0             0
  -1.78997e+60   4.02274e+59   4.93113e+62   3.88688e+68             0             0   3.88688e+68   3.88688e+68             0             0             0             0            -0
  -1.78997e+60   4.02274e+59   4.93113e+62   3.88688e+68             0             0   3.88688e+68   3.88688e+68             0             0            -0             0            -0
  -4.55503e+60   3.78109e+59   4.86168e+62   3.88688e+68             0             0   3.88688e+68   3.88688e+68             0             0            -0             0             0
  -4.55503e+60   3.78109e+59   4.86168e+62   3.88688e+68             0             0   3.88688e+68   3.88688e+68             0             0             0             0             0
  -4.55503e+60   3.78109e+59   4.86168e+62  -3.88688e+68             0             0   3.88688e+68  -3.88688e+68             0             0             0             0            -0
  -4.55503e+60   3.78109e+59   4.86168e+62  -3.88688e+68             0             0   3.88688e+68  -3.88688e+68             0             0            -0             0            -0
  -4.55503e+60   3.78109e+59   4.86168e+62   -3.8869e+68             0             0    3.8869e+68   -3.8869e+68             0             0            -0             0             0
  -4.55503e+60   3.78109e+59   4.86168e+62   -3.8869e+68             0             0    3.8869e+68   -3.8869e+68             0             0             0             0             0
  -4.55503e+60   3.78109e+59   4.86168e+62    3.8869e+68             0             0    3.8869e+68    3.8869e+68             0             0             0             0            -0
  -4.55503e+60   3.78109e+59   4.86168e+62    3.8869e+68             0             0    3.8869e+68    3.8869e+68             0             0            -0             0            -0
  -7.32014e+60   3.53945e+59   4.79224e+62    3.8869e+68             0             0    3.8869e+68    3.8869e+68             0             0            -0             0             0
  -7.32014e+60   3.53945e+59   4.79224e+62    3.8869e+68             0             0    3.8869e+68    3.8869e+68             0             0             0             0             0
  -7.32014e+60   3.53945e+59   4.79224e+62   -3.8869e+68             0             0    3.8869e+68   -3.8869e+68             0             0             0             0            -0
  -7.32014e+60   3.53945e+59   4.79224e+62   -3.8869e+68             0             0    3.8869e+68   -3.8869e+68             0             0            -0             0            -0
  -7.32014e+60   3.53945e+59   4.79224e+62  -3.88688e+68             0             0   3.88688e+68  -3.88688e+68             0             0            -0             0             0
  -7.32014e+60   3.53945e+59   4.79224e+62  -3.88688e+68             0             0   3.88688e+68  -3.88688e+68             0             0             0             0             0
  -7.32014e+60   3.53945e+59   4.79224e+62   3.88688e+68             0             0   3.88688e+68   3.88688e+68             0             0             0             0            -0
  -7.32014e+60   3.53945e+59   4.79224e+62   3.88688e+68             0             0   3.88688e+68   3.88688e+68             0             0            -0             0            -0
  -1.00852e+61    3.2978e+59   4.72279e+62   3.88688e+68             0             0   3.88688e+68   3.88688e+68             0             0            -0             0             0
  -1.00852e+61    3.2978e+59   4.72279e+62   3.88688e+68             0             0   3.88688e+68   3.88688e+68             0             0             0             0             0
  -1.00852e+61    3.2978e+59   4.72279e+62  -3.88688e+68             0             0   3.88688e+68  -3.88688e+68             0             0             0             0            -0
  -1.00852e+61    3.2978e+59   4.72279e+62  -3.88688e+68             0             0   3.88688e+68  -3.88688e+68             0             0            -0             0            -0
  -1.00852e+61    3.2978e+59   4.72279e+62   6.09145e+66             0             0   6.09145e+66   6.09145e+66             0             0            -0             0             0
  -1.00852e+61    3.2978e+59   4.72279e+62   6.09145e+66             0             0   6.09145e+66   6.09145e+66             0             0             0             0             0
  -1.00852e+61    3.2978e+59   4.72279e+62  -6.09145e+66             0             0   6.09145e+66  -6.09145e+66             0             0             0             0            -0
  -1.00852e+61    3.2978e+59   4.72279e+62  -6.09145e+66             0             0   6.09145e+66  -6.09145e+66             0             0            -0             0            -0
  -9.36264e+60   3.08326e+59   4.57124e+62  -6.09145e+66             0             0   6.09145e+66  -6.09145e+66             0             0            -0             0             0
  -9.36264e+60   3.08326e+59   4.57124e+62  -6.09145e+66             0             0   6.09145e+66  -6.09145e+66             0             0             0             0             0
  -9.36264e+60   3.08326e+59   4.57124e+62   6.09145e+66             0             0   6.09145e+66   6.09145e+66             0             0             0             0            -0
  -9.36264e+60   3.08326e+59   4.57124e+62   6.09145e+66             0             0   6.09145e+66   6.09145e+66             0             0            -0             0            -0
  -9.36264e+60   3.08326e+59   4.57124e+62   6.09143e+66             0             0   6.09143e+66   6.09143e+66             0             0            -0             0             0
  -9.36264e+60   3.08326e+59   4.57124e+62   6.09143e+66             0             0   6.09143e+66   6.09143e+66             0             0             0             0             0
  -9.36264e+60   3.08326e+59   4.57124e+62  -6.09143e+66             0             0   6.09143e+66  -6.09143e+66             0             0             0             0            -0
  -9.36264e+60   3.08326e+59   4.57124e+62  -6.09143e+66             0             0   6.09143e+66  -6.09143e+66             0             0            -0             0            -0
  -8.64008e+60   2.86871e+59   4.41969e+62  -6.09143e+66             0             0   6.09143e+66  -6.09143e+66             0             0            -0             0             0
  -8.64008e+60   2.86871e+59   4.41969e+62  -6.09143e+66             0             0   6.09143e+66  -6.09143e+66             0             0             0             0             0
  -8.64008e+60   2.86871e+59   4.41969e+62   6.09143e+66             0             0   6.09143e+66   6.09143e+66             0             0             0             0            -0
  -8.64008e+60   2.86871e+59   4.41969e+62   6.09143e+66             0             0   6.09143e+66   6.09143e+66             0             0            -0             0            -0
  -8.64008e+60   2.86871e+59   4.41969e+62   6.09145e+66             0             0   6.09145e+66   6.09145e+66             0             0            -0             0             0
  -8.64008e+60   2.86871e+59   4.41969e+62   6.09145e+66             0             0   6.09145e+66   6.09145e+66             0             0             0             0             0
  -8.64008e+60   2.86871e+59   4.41969e+62  -6.09145e+66             0             0   6.09145e+66  -6.09145e+66             0             0             0             0            -0
  -8.64008e+60   2.86871e+59   4.41969e+62  -6.09145e+66             0             0   6.09145e+66  -6.09145e+66             0             0            -0             0            -0
  -7.91752e+60   2.65416e+59   4.26814e+62  -6.09145e+66             0             0   6.09145e+66  -6.09145e+66             0             0            -0             0             0
  -7.91752e+60   2.65416e+59   4.26814e+62  -6.09145e+66             0             0   6.09145e+66  -6.09145e+66             0             0             0             0             0
  -7.91752e+60   2.65416e+59   4.26814e+62   6.09145e+66             0             0   6.09145e+66   6.09145e+66             0             0             0             0            -0
  -7.91752e+60   2.65416e+59   4.26814e+62   6.09145e+66             0             0   6.09145e+66   6.09145e+66             0             0            -0             0            -0
  -7.91752e+60   2.65416e+59   4.26814e+62   6.09143e+66             0             0   6.09143e+66   6.09143e+66             0             0            -0             0             0
  -7.91752e+60   2.65416e+59   4.26814e+62   6.09143e+66             0             0   6.09143e+66   6.09143e+66             0             0             0             0             0
  -7.91752e+60   2.65416e+59   4.26814e+62  -6.09143e+66             0             0   6.09143e+66  -6.09143e+66             0             0             0             0            -0
  -7.91752e+60   2.65416e+59   4.26814e+62  -6.09143e+66             0             0   6.09143e+66  -6.09143e+66             0             0            -0             0            -0
  -7.19496e+60   2.43961e+59   4.11659e+62  -6.09143e+66             0             0   6.09143e+66  -6.09143e+66             0             0            -0             0             0
  -7.19496e+60   2.43961e+59   4.11659e+62  -6.09143e+66             0             0   6.09143e+66  -6.09143e+66             0             0             0             0             0
  -7.19496e+60   2.43961e+59   4.11659e+62   6.09143e+66             0             0   6.09143e+66   6.09143e+66             0             0             0             0            -0
  -7.19496e+60   2.43961e+59   4.11659e+62   6.09143e+66             0             0   6.09143e+66   6.09143e+66             0             0            -0             0            -0
  -7.19496e+60   2.43961e+59   4.11659e+62   6.09145e+66             0             0   6.09145e+66   6.09145e+66             0             0            -0             0             0
  -7.19496e+60   2.43961e+59   4.11659e+62   6.09145e+66             0             0   6.09145e+66   6.09145e+66             0             0             0             0             0
  -7.19496e+60   2.43961e+59   4.11659e+62  -6.09145e+66             0             0   6.09145e+66  -6.09145e+66             0             0             0             0            -0
  -7.19496e+60   2.43961e+59   4.11659e+62  -6.09145e+66             0             0   6.09145e+66  -6.09145e+66             0             0            -0             0            -0
   -6.4724e+60   2.22506e+59   3.96504e+62  -6.09145e+66             0             0   6.09145e+66  -6.09145e+66             0             0            -0             0             0
   -6.4724e+60   2.22506e+59   3.96504e+62  -6.09145e+66             0             0   6.09145e+66  -6.09145e+66             0             0             0             0             0
   -6.4724e+60   2.22506e+59   3.96504e+62   6.09145e+66             0             0   6.09145e+66   6.09145e+66             0             0             0             0            -0
   -6.4724e+60   2.22506e+59   3.96504e+62   6.09145e+66             0             0   6.09145e+66   6.09145e+66             0             0            -0             0            -0
   -6.4724e+60   2.22506e+59   3.96504e+62   6.09143e+66             0             0   6.09143e+66   6.09143e+66             0             0            -0             0             0
   -6.4724e+60   2.22506e+59   3.96504e+62   6.09143e+66             0             0   6.09143e+66   6.09143e+66             0             0             0             0             0
   -6.4724e+60   2.22506e+59   3.96504e+62  -6.09143e+66             0             0   6.09143e+66  -6.09143e+66             0             0             0             0            -0
   -6.4724e+60   2.22506e+59   3.96504e+62  -6.09143e+66             0             0   6.09143e+66  -6.09143e+66             0             0            -0             0            -0
  -5.74984e+60   2.01052e+59    3.8135e+62  -6.09143e+66             0             0   6.09143e+66  -6.09143e+66             0             0            -0             0             0
  -5.74984e+60   2.01052e+59    3.8135e+62  -6.09143e+66             0             0   6.09143e+66  -6.09143e+66             0             0             0             0             0
  -5.74984e+60   2.01052e+59    3.8135e+62   6.09143e+66             0             0   6.09143e+66   6.09143e+66             0             0             0             0            -0
  -5.74984e+60   2.01052e+59    3.8135e+62   6.09143e+66             0             0   6.09143e+66   6.09143e+66             0             0            -0             0            -0
  -5.74984e+60   2.01052e+59    3.8135e+62   6.09145e+66             0             0   6.09145e+66   6.09145e+66             0             0            -0             0             0
  -5.74984e+60   2.01052e+59    3.8135e+62   6.09145e+66             0             0   6.09145e+66   6.09145e+66             0             0             0             0             0
  -5.74984e+60   2.01052e+59    3.8135e+62  -6.09145e+66             0             0   6.09145e+66  -6.09145e+66             0             0             0             0            -0
  -5.74984e+60   2.01052e+59    3.8135e+62  -6.09145e+66             0             0   6.09145e+66  -6.09145e+66             0             0            -0             0            -0
  -5.02727e+60   1.79597e+59   3.66195e+62  -6.09145e+66             0             0   6.09145e+66  -6.09145e+66             0             0            -0             0             0
  -5.02727e+60   1.79597e+59   3.66195e+62  -6.09145e+66             0             0   6.09145e+66  -6.09145e+66             0             0             0             0             0
  -5.02727e+60   1.79597e+59   3.66195e+62   6.09145e+66             0             0   6.09145e+66   6.09145e+66             0             0             0             0            -0
  -5.02727e+60   1.79597e+59   3.66195e+62   6.09145e+66             0             0   6.09145e+66   6.09145e+66             0             0            -0             0            -0
  -5.02727e+60   1.79597e+59   3.66195e+62   6.09143e+66             0             0   6.09143e+66   6.09143e+66             0             0            -0             0             0
  -5.02727e+60   1.79597e+59   3.66195e+62   6.09143e+66             0             0   6.09143e+66   6.09143e+66             0             0             0             0             0
  -5.02727e+60   1.79597e+59   3.66195e+62  -6.09143e+66             0             0   6.09143e+66  -6.09143e+66             0             0             0             0            -0
  -5.02727e+60   1.79597e+59   3.66195e+62  -6.09143e+66             0             0   6.09143e+66  -6.09143e+66             0             0            -0             0            -0
  -4.30471e+60   1.58142e+59    3.5104e+62  -6.09143e+66             0             0   6.09143e+66  -6.09143e+66             0             0            -0             0             0
  -4.30471e+60   1.58142e+59    3.5104e+62  -6.09143e+66             0             0   6.09143e+66  -6.09143e+66             0             0             0             0             0
  -4.30471e+60   1.58142e+59    3.5104e+62   6.09143e+66             0             0   6.09143e+66   6.09143e+66             0             0             0             0            -0
  -4.30471e+60   1.58142e+59    3.5104e+62   6.09143e+66             0             0   6.09143e+66   6.09143e+66             0             0            -0             0            -0
  -4.30471e+60   1.58142e+59    3.5104e+62   6.09145e+66             0             0   6.09145e+66   6.09145e+66             0             0            -0             0             0
  -4.30471e+60   1.58142e+59    3.5104e+62   6.09145e+66             0             0   6.09145e+66   6.09145e+66             0             0             0             0             0
  -4.30471e+60   1.58142e+59    3.5104e+62  -6.09145e+66             0             0   6.09145e+66  -6.09145e+66             0             0             0             0            -0
  -4.30471e+60   1.58142e+59    3.5104e+62  -6.09145e+66             0             0   6.09145e+66  -6.09145e+66             0             0            -0             0            -0
  -3.58215e+60   1.36687e+59   3.35885e+62  -6.09145e+66             0             0   6.09145e+66  -6.09145e+66             0             0            -0             0             0
  -3.58215e+60   1.36687e+59   3.35885e+62  -6.09145e+66             0             0   6.09145e+66  -6.09145e+66             0             0             0             0             0
  -3.58215e+60   1.36687e+59   3.35885e+62   6.09145e+66             0             0   6.09145e+66   6.09145e+66             0             0             0             0            -0
  -3.58215e+60   1.36687e+59   3.35885e+62   6.09145e+66             0             0   6.09145e+66   6.09145e+66             0             0            -0             0            -0
  -3.58215e+60   1.36687e+59   3.35885e+62   6.09143e+66             0             0   6.09143e+66   6.09143e+66             0             0            -0             0             0
  -3.58215e+60   1.36687e+59   3.35885e+62   6.09143e+66             0             0   6.09143e+66   6.09143e+66             0             0             0             0             0
  -3.58215e+60   1.36687e+59   3.35885e+62  -6.09143e+66             0             0   6.09143e+66  -6.09143e+66             0             0             0             0            -0
  -3.58215e+60   1.36687e+59   3.35885e+62  -6.09143e+66             0             0   6.09143e+66  -6.09143e+66             0             0            -0             0            -0
  -2.85959e+60   1.15233e+59    3.2073e+62  -6.09143e+66             0             0   6.09143e+66  -6.09143e+66             0             0            -0             0             0
  -2.85959e+60   1.15233e+59    3.2073e+62  -6.09143e+66             0             0   6.09143e+66  -6.09143e+66             0             0             0             0             0
  -2.85959e+60   1.15233e+59    3.2073e+62   6.09143e+66             0             0   6.09143e+66   6.09143e+66             0             0             0             0            -0
  -2.85959e+60   1.15233e+59    3.2073e+62   6.09143e+66             0             0   6.09143e+66   6.09143e+66             0             0            -0             0            -0
  -2.85959e+60   1.15233e+59    3.2073e+62   6.09145e+66             0             0   6.09145e+66   6.09145e+66             0             0            -0             0             0
  -2.85959e+60   1.15233e+59    3.2073e+62   6.09145e+66             0             0   6.09145e+66   6.09145e+66             0             0             0             0             0
  -2.85959e+60   1.15233e+59    3.2073e+62  -6.09145e+66             0             0   6.09145e+66  -6.09145e+66             0             0             0             0            -0
  -2.85959e+60   1.15233e+59    3.2073e+62  -6.09145e+66             0             0   6.09145e+66  -6.09145e+66             0             0            -0             0            -0
  -2.13703e+60   9.37779e+58   3.05575e+62  -6.09145e+66             0             0   6.09145e+66  -6.09145e+66             0             0            -0             0             0
  -2.13703e+60   9.37779e+58   3.05575e+62  -6.09145e+66             0             0   6.09145e+66  -6.09145e+66             0             0             0             0             0
  -2.13703e+60   9.37779e+58   3.05575e+62   6.09145e+66             0             0   6.09145e+66   6.09145e+66             0             0             0             0            -0
  -2.13703e+60   9.37779e+58   3.05575e+62   6.09145e+66             0             0   6.09145e+66   6.09145e+66             0             0            -0             0            -0
  -2.13703e+60   9.37779e+58   3.05575e+62   6.09143e+66             0             0   6.09143e+66   6.09143e+66             0             0            -0             0             0
  -2.13703e+60   9.37779e+58   3.05575e+62   6.09143e+66             0             0   6.09143e+66   6.09143e+66             0             0             0             0             0
  -2.13703e+60   9.37779e+58   3.05575e+62  -6.09143e+66             0             0   6.09143e+66  -6.09143e+66             0             0             0             0            -0
  -2.13703e+60   9.37779e+58   3.05575e+62  -6.09143e+66             0             0   6.09143e+66  -6.09143e+66             0             0            -0             0            -0
  -1.41447e+60   7.23233e+58   2.90421e+62  -6.09143e+66             0             0   6.09143e+66  -6.09143e+66             0             0            -0             0             0
  -1.41447e+60   7.23233e+58   2.90421e+62  -6.09143e+66             0             0   6.09143e+66  -6.09143e+66             0             0             0             0             0
  -1.41447e+60   7.23233e+58   2.90421e+62   6.09143e+66             0             0   6.09143e+66   6.09143e+66             0             0             0             0            -0
  -1.41447e+60   7.23233e+58   2.90421e+62   6.09143e+66             0             0   6.09143e+66   6.09143e+66             0             0            -0             0            -0
  -1.41447e+60   7.23233e+58   2.90421e+62   6.09145e+66             0             0   6.09145e+66   6.09145e+66             0             0            -0             0             0
  -1.41447e+60   7.23233e+58   2.90421e+62   6.09145e+66             0             0   6.09145e+66   6.09145e+66             0             0             0             0             0
  -1.41447e+60   7.23233e+58   2.90421e+62  -6.09145e+66             0             0   6.09145e+66  -6.09145e+66             0             0             0             0            -0
  -1.41447e+60   7.23233e+58   2.90421e+62  -6.09145e+66             0             0   6.09145e+66  -6.09145e+66             0             0            -0             0            -0
  -6.91909e+59   5.08684e+58   2.75266e+62  -6.09145e+66             0             0   6.09145e+66  -6.09145e+66             0             0            -0             0             0
  -6.91909e+59   5.08684e+58   2.75266e+62  -6.09145e+66             0             0   6.09145e+66  -6.09145e+66             0             0             0             0             0
  -6.91909e+59   5.08684e+58   2.75266e+62   6.09145e+66             0             0   6.09145e+66   6.09145e+66             0             0             0             0            -0
  -6.91909e+59   5.08684e+58   2.75266e+62   6.09145e+66             0             0   6.09145e+66   6.09145e+66             0             0            -0             0            -0
  -1.00852e+61    3.2978e+59   4.72279e+62  -7.01558e+68             0             0   7.01558e+68  -7.01558e+68             0             0            -0             0             0
  -1.00852e+61    3.2978e+59   4.72279e+62  -7.01558e+68             0             0   7.01558e+68  -7.01558e+68             0             0             0             0             0
  -1.00852e+61    3.2978e+59   4.72279e+62   7.01558e+68             0             0   7.01558e+68   7.01558e+68             0             0             0             0            -0
  -1.00852e+61    3.2978e+59   4.72279e+62   7.01558e+68             0             0   7.01558e+68   7.01558e+68             0             0            -0             0            -0
  -5.02937e+60   2.52693e+59   4.59412e+62   7.01558e+68             0             0   7.01558e+68   7.01558e+68             0             0            -0             0             0
  -5.02937e+60   2.52693e+59   4.59412e+62   7.01558e+68             0             0   7.01558e+68   7.01558e+68             0             0             0             0             0
  -5.02937e+60   2.52693e+59   4.59412e+62  -7.01558e+68             0             0   7.01558e+68  -7.01558e+68             0             0             0             0            -0
  -5.02937e+60   2.52693e+59   4.59412e+62  -7.01558e+68             0             0   7.01558e+68  -7.01558e+68             0             0            -0             0            -0
  -5.02937e+60   2.52693e+59   4.59412e+62  -7.01561e+68             0             0   7.01561e+68  -7.01561e+68             0             0            -0             0             0
  -5.02937e+60   2.52693e+59   4.59412e+62  -7.01561e+68             0             0   7.01561e+68  -7.01561e+68             0             0             0             0             0
  -5.02937e+60   2.52693e+59   4.59412e+62   7.01561e+68             0             0   7.01561e+68   7.01561e+68             0             0             0             0            -0
  -5.02937e+60   2.52693e+59   4.59412e+62   7.01561e+68             0             0   7.01561e+68   7.01561e+68             0             0            -0             0            -0
    2.6532e+58   1.75604e+59   4.46545e+62   7.01561e+68             0             0   7.01561e+68   7.01561e+68             0             0            -0             0             0
    2.6532e+58   1.75604e+59   4.46545e+62   7.01561e+68             0             0   7.01561e+68   7.01561e+68             0             0             0             0             0
    2.6532e+58   1.75604e+59   4.46545e+62  -7.01561e+68             0             0   7.01561e+68  -7.01561e+68             0             0             0             0            -0
    2.6532e+58   1.75604e+59   4.46545e+62  -7.01561e+68             0             0   7.01561e+68  -7.01561e+68             0             0            -0             0            -0
    2.6532e+58   1.75604e+59   4.46545e+62  -7.01558e+68             0             0   7.01558e+68  -7.01558e+68             0             0            -0             0             0
    2.6532e+58   1.75604e+59   4.46545e+62  -7.01558e+68             0             0   7.01558e+68  -7.01558e+68             0             0             0             0             0
    2.6532e+58   1.75604e+59   4.46545e+62   7.01558e+68             0             0   7.01558e+68   7.01558e+68             0             0             0             0            -0
    2.6532e+58   1.75604e+59   4.46545e+62   7.01558e+68             0             0   7.01558e+68   7.01558e+68             0             0            -0             0            -0
   5.08236e+60   9.85159e+58   4.33678e+62   7.01558e+68             0             0   7.01558e+68   7.01558e+68             0             0            -0             0             0
   5.08236e+60   9.85159e+58   4.33678e+62   7.01558e+68             0             0   7.01558e+68   7.01558e+68             0             0             0             0             0
   5.08236e+60   9.85159e+58   4.33678e+62  -7.01558e+68             0             0   7.01558e+68  -7.01558e+68             0             0             0             0            -0
   5.08236e+60   9.85159e+58   4.33678e+62  -7.01558e+68             0             0   7.01558e+68  -7.01558e+68             0             0            -0             0            -0
   5.08236e+60   9.85159e+58   4.33678e+62  -7.01558e+68             0             0   7.01558e+68  -7.01558e+68             0             0            -0             0             0
   5.08236e+60   9.85159e+58   4.33678e+62  -7.01558e+68             0             0   7.01558e+68  -7.01558e+68             0             0             0             0             0
   5.08236e+60   9.85159e+58   4.33678e+62   7.01558e+68             0             0   7.01558e+68   7.01558e+68             0             0             0             0            -0
   5.08236e+60   9.85159e+58   4.33678e+62   7.01558e+68             0             0   7.01558e+68   7.01558e+68             0             0            -0             0            -0
   1.01382e+61    2.1428e+58   4.20811e+62   7.01558e+68             0             0   7.01558e+68   7.01558e+68             0             0            -0             0             0
   1.01382e+61    2.1428e+58   4.20811e+62   7.01558e+68             0             0   7.01558e+68   7.01558e+68             0             0             0             0             0
   1.01382e+61    2.1428e+58   4.20811e+62  -7.01558e+68             0             0   7.01558e+68  -7.01558e+68             0             0             0             0            -0
   1.01382e+61    2.1428e+58   4.20811e+62  -7.01558e+68             0             0   7.01558e+68  -7.01558e+68             0             0            -0             0            -0
   1.01382e+61    2.1428e+58   4.20811e+62  -7.01561e+68             0             0   7.01561e+68  -7.01561e+68             0             0            -0             0             0
   1.01382e+61    2.1428e+58   4.20811e+62  -7.01561e+68             0             0   7.01561e+68  -7.01561e+68             0             0             0             0             0
   1.01382e+61    2.1428e+58   4.20811e+62   7.01561e+68             0             0   7.01561e+68   7.01561e+68             0             0             0             0            -0
   1.01382e+61    2.1428e+58   4.20811e+62   7.01561e+68             0             0   7.01561e+68   7.01561e+68             0             0            -0             0            -0
   1.51941e+61  -5.56608e+58   4.07944e+62   7.01561e+68             0             0   7.01561e+68   7.01561e+68             0             0            -0             0             0
   1.51941e+61  -5.56608e+58   4.07944e+62   7.01561e+68             0             0   7.01561e+68   7.01561e+68             0             0             0             0             0
   1.51941e+61  -5.56608e+58   4.07944e+62  -7.01561e+68             0             0   7.01561e+68  -7.01561e+68             0             0             0             0            -0
   1.51941e+61  -5.56608e+58   4.07944e+62  -7.01561e+68             0             0   7.01561e+68  -7.01561e+68             0             0            -0             0            -0
   1.51941e+61  -5.56608e+58   4.07944e+62  -7.01558e+68             0             0   7.01558e+68  -7.01558e+68             0             0            -0             0             0
   1.51941e+61  -5.56608e+58   4.07944e+62  -7.01558e+68             0             0   7.01558e+68  -7.01558e+68             0             0             0             0             0
   1.51941e+61  -5.56608e+58   4.07944e+62   7.01558e+68             0             0   7.01558e+68   7.01558e+68             0             0             0             0            -0
   1.51941e+61  -5.56608e+58   4.07944e+62   7.01558e+68             0             0   7.01558e+68   7.01558e+68             0             0            -0             0            -0
   2.02499e+61  -1.32749e+59   3.95078e+62   7.01558e+68             0             0   7.01558e+68   7.01558e+68             0             0            -0             0             0
   2.02499e+61  -1.32749e+59   3.95078e+62   7.01558e+68             0             0   7.01558e+68   7.01558e+68             0             0             0             0             0
   2.02499e+61  -1.32749e+59   3.95078e+62  -7.01558e+68             0             0   7.01558e+68  -7.01558e+68             0             0             0             0            -0
   2.02499e+61  -1.32749e+59   3.95078e+62  -7.01558e+68             0             0   7.01558e+68  -7.01558e+68             0             0            -0             0            -0
   2.02499e+61  -1.32749e+59   3.95078e+62  -7.01558e+68             0             0   7.01558e+68  -7.01558e+68             0             0            -0             0             0
   2.02499e+61  -1.32749e+59   3.95078e+62  -7.01558e+68             0             0   7.01558e+68  -7.01558e+68             0             0             0             0             0
   2.02499e+61  -1.32749e+59   3.95078e+62   7.01558e+68             0             0   7.01558e+68   7.01558e+68             0             0             0             0            -0
   2.02499e+61  -1.32749e+59   3.95078e+62   7.01558e+68             0             0   7.01558e+68   7.01558e+68             0             0            -0             0            -0
   2.53058e+61  -2.09837e+59   3.82211e+62   7.01558e+68             0             0   7.01558e+68   7.01558e+68             0             0            -0             0             0
   2.53058e+61  -2.09837e+59   3.82211e+62   7.01558e+68             0             0   7.01558e+68   7.01558e+68             0             0             0             0             0
   2.53058e+61  -2.09837e+59   3.82211e+62  -7.01558e+68             0             0   7.01558e+68  -7.01558e+68             0             0             0             0            -0
   2.53058e+61  -2.09837e+59   3.82211e+62  -7.01558e+68             0             0   7.01558e+68  -7.01558e+68             0             0            -0             0            -0
   2.53058e+61  -2.09837e+59   3.82211e+62  -7.01561e+68             0             0   7.01561e+68  -7.01561e+68             0             0            -0             0             0
   2.53058e+61  -2.09837e+59   3.82211e+62  -7.01561e+68             0             0   7.01561e+68  -7.01561e+68             0             0             0             0             0
   2.53058e+61  -2.09837e+59   3.82211e+62   7.01561e+68             0             0   7.01561e+68   7.01561e+68             0             0             0             0            -0
   2.53058e+61  -2.09837e+59   3.82211e+62   7.01561e+68             0             0   7.01561e+68   7.01561e+68             0             0            -0             0            -0
   3.03617e+61  -2.86925e+59   3.69344e+62   7.01561e+68             0             0   7.01561e+68   7.01561e+68             0             0            -0             0             0
   3.03617e+61  -2.86925e+59   3.69344e+62   7.01561e+68             0             0   7.01561e+68   7.01561e+68             0             0             0             0             0
   3.03617e+61  -2.86925e+59   3.69344e+62  -7.01561e+68             0             0   7.01561e+68  -7.01561e+68             0             0             0             0            -0
   3.03617e+61  -2.86925e+59   3.69344e+62  -7.01561e+68             0             0   7.01561e+68  -7.01561e+68             0             0            -0             0            -0
   3.03617e+61  -2.86925e+59   3.69344e+62  -7.01558e+68             0             0   7.01558e+68  -7.01558e+68             0             0            -0             0             0
   3.03617e+61  -2.86925e+59   3.69344e+62  -7.01558e+68             0             0   7.01558e+68  -7.01558e+68             0             0             0             0             0
   3.03617e+61  -2.86925e+59   3.69344e+62   7.01558e+68             0             0   7.01558e+68   7.01558e+68             0             0             0             0            -0
   3.03617e+61  -2.86925e+59   3.69344e+62   7.01558e+68             0             0   7.01558e+68   7.01558e+68             0             0            -0             0            -0
   3.54175e+61  -3.64013e+59   3.56477e+62   7.01558e+68             0             0   7.01558e+68   7.01558e+68             0             0            -0             0             0
   3.54175e+61  -3.64013e+59   3.56477e+62   7.01558e+68             0             0   7.01558e+68   7.01558e+68             0             0             0             0             0
   3.54175e+61  -3.64013e+59   3.56477e+62  -7.01558e+68             0             0   7.01558e+68  -7.01558e+68             0             0             0             0            -0
   3.54175e+61  -3.64013e+59   3.56477e+62  -7.01558e+68             0             0   7.01558e+68  -7.01558e+68             0             0            -0             0            -0
   3.54175e+61  -3.64013e+59   3.56477e+62  -7.01558e+68             0             0   7.01558e+68  -7.01558e+68             0             0            -0             0             0
   3.54175e+61  -3.64013e+59   3.56477e+62  -7.01558e+68             0             0   7.01558e+68  -7.01558e+68             0             0             0             0             0
   3.54175e+61  -3.64013e+59   3.56477e+62   7.01558e+68             0             0   7.01558e+68   7.01558e+68             0             0             0             0            -0
   3.54175e+61  -3.64013e+59   3.56477e+62   7.01558e+68             0             0   7.01558e+68   7.01558e+68             0             0            -0             0            -0
   4.04733e+61  -4.41101e+59    3.4361e+62   7.01558e+68             0             0   7.01558e+68   7.01558e+68             0             0            -0             0             0
   4.04733e+61  -4.41101e+59    3.4361e+62   7.01558e+68             0             0   7.01558e+68   7.01558e+68             0             0             0             0             0
   4.04733e+61  -4.41101e+59    3.4361e+62  -7.01558e+68             0             0   7.01558e+68  -7.01558e+68             0             0             0             0            -0
   4.04733e+61  -4.41101e+59    3.4361e+62  -7.01558e+68             0             0   7.01558e+68  -7.01558e+68             0             0            -0             0            -0
   4.04733e+61  -4.41101e+59    3.4361e+62  -7.01561e+68             0             0   7.01561e+68  -7.01561e+68             0             0            -0             0             0
   4.04733e+61  -4.41101e+59    3.4361e+62  -7.01561e+68             0             0   7.01561e+68  -7.01561e+68             0             0             0             0             0
   4.04733e+61  -4.41101e+59    3.4361e+62   7.01561e+68             0             0   7.01561e+68   7.01561e+68             0             0             0             0            -0
   4.04733e+61  -4.41101e+59    3.4361e+62   7.01561e+68             0             0   7.01561e+68   7.01561e+68             0             0            -0             0            -0
   4.55292e+61   -5.1819e+59   3.30743e+62   7.01561e+68             0             0   7.01561e+68   7.01561e+68             0             0            -0             0             0
   4.55292e+61   -5.1819e+59   3.30743e+62   7.01561e+68             0             0   7.01561e+68   7.01561e+68             0             0             0             0             0
   4.55292e+61   -5.1819e+59   3.30743e+62  -7.01561e+68             0             0   7.01561e+68  -7.01561e+68             0             0             0             0            -0
   4.55292e+61   -5.1819e+59   3.30743e+62  -7.01561e+68             0             0   7.01561e+68  -7.01561e+68             0             0            -0             0            -0
   4.55292e+61   -5.1819e+59   3.30743e+62  -7.01558e+68             0             0   7.01558e+68  -7.01558e+68             0             0            -0             0             0
   4.55292e+61   -5.1819e+59   3.30743e+62  -7.01558e+68             0             0   7.01558e+68  -7.01558e+68             0             0             0             0             0
   4.55292e+61   -5.1819e+59   3.30743e+62   7.01558e+68             0             0   7.01558e+68   7.01558e+68             0             0             0             0            -0
   4.55292e+61   -5.1819e+59   3.30743e+62   7.01558e+68             0             0   7.01558e+68   7.01558e+68             0             0            -0             0            -0
   5.05851e+61  -5.95278e+59   3.17877e+62   7.01558e+68             0             0   7.01558e+68   7.01558e+68             0             0            -0             0             0
   5.05851e+61  -5.95278e+59   3.17877e+62   7.01558e+68             0             0   7.01558e+68   7.01558e+68             0             0             0             0             0
   5.05851e+61  -5.95278e+59   3.17877e+62  -7.01558e+68             0             0   7.01558e+68  -7.01558e+68             0             0             0             0            -0
   5.05851e+61  -5.95278e+59   3.17877e+62  -7.01558e+68             0             0   7.01558e+68  -7.01558e+68             0             0            -0             0            -0
   5.05851e+61  -5.95278e+59   3.17877e+62  -7.01558e+68             0             0   7.01558e+68  -7.01558e+68             0             0            -0             0             0
   5.05851e+61  -5.95278e+59   3.17877e+62  -7.01558e+68             0             0   7.01558e+68  -7.01558e+68             0             0             0             0             0
   5.05851e+61  -5.95278e+59   3.17877e+62   7.01558e+68             0             0   7.01558e+68   7.01558e+68             0             0             0             0            -0
   5.05851e+61  -5.95278e+59   3.17877e+62   7.01558e+68             0             0   7.01558e+68   7.01558e+68             0             0            -0             0            -0
   5.56409e+61  -6.72366e+59    3.0501e+62   7.01558e+68             0             0   7.01558e+68   7.01558e+68             0             0            -0             0             0
   5.56409e+61  -6.72366e+59    3.0501e+62   7.01558e+68             0             0   7.01558e+68   7.01558e+68             0             0             0             0             0
   5.56409e+61  -6.72366e+59    3.0501e+62  -7.01558e+68             0             0   7.01558e+68  -7.01558e+68             0             0             0             0            -0
   5.56409e+61  -6.72366e+59    3.0501e+62  -7.01558e+68             0             0   7.01558e+68  -7.01558e+68             0             0            -0             0            -0
   5.56409e+61  -6.72366e+59    3.0501e+62  -7.01561e+68             0             0   7.01561e+68  -7.01561e+68             0             0            -0             0             0
   5.56409e+61  -6.72366e+59    3.0501e+62  -7.01561e+68             0             0   7.01561e+68  -7.01561e+68             0             0             0             0             0
   5.56409e+61  -6.72366e+59    3.0501e+62   7.01561e+68             0             0   7.01561e+68   7.01561e+68             0             0             0             0            -0
   5.56409e+61  -6.72366e+59    3.0501e+62   7.01561e+68             0             0   7.01561e+68   7.01561e+68             0             0            -0             0            -0
   6.06968e+61  -7.49454e+59   2.92143e+62   7.01561e+68             0             0   7.01561e+68   7.01561e+68             0             0            -0             0             0
   6.06968e+61  -7.49454e+59   2.92143e+62   7.01561e+68             0             0   7.01561e+68   7.01561e+68             0             0             0             0             0
   6.06968e+61  -7.49454e+59   2.92143e+62  -7.01561e+68             0             0   7.01561e+68  -7.01561e+68             0             0             0             0            -0
   6.06968e+61  -7.49454e+59   2.92143e+62  -7.01561e+68             0             0   7.01561e+68  -7.01561e+68             0             0            -0             0            -0
   6.06968e+61  -7.49454e+59   2.92143e+62  -7.01558e+68             0             0   7.01558e+68  -7.01558e+68             0             0            -0             0             0
   6.06968e+61  -7.49454e+59   2.92143e+62  -7.01558e+68             0             0   7.01558e+68  -7.01558e+68             0             0             0             0             0
   6.06968e+61  -7.49454e+59   2.92143e+62   7.01558e+68             0             0   7.01558e+68   7.01558e+68             0             0             0             0            -0
   6.06968e+61  -7.49454e+59   2.92143e+62   7.01558e+68             0             0   7.01558e+68   7.01558e+68             0             0            -0             0            -0
   6.57526e+61  -8.26542e+59   2.79276e+62   7.01558e+68             0             0   7.01558e+68   7.01558e+68             0             0            -0             0             0
   6.57526e+61  -8.26542e+59   2.79276e+62   7.01558e+68             0             0   7.01558e+68   7.01558e+68             0             0             0             0             0
   6.57526e+61  -8.26542e+59   2.79276e+62  -7.01558e+68             0             0   7.01558e+68  -7.01558e+68             0             0             0             0            -0
   6.57526e+61  -8.26542e+59   2.79276e+62  -7.01558e+68             0             0   7.01558e+68  -7.01558e+68             0             0            -0             0            -0
   6.57526e+61  -8.26542e+59   2.79276e+62  -2.51335e+69             0             0   2.51335e+69  -2.51335e+69             0             0            -0             0             0
   6.57526e+61  -8.26542e+59   2.79276e+62  -2.51335e+69             0             0   2.51335e+69  -2.51335e+69             0             0             0             0             0
   6.57526e+61  -8.26542e+59   2.79276e+62   2.51335e+69             0             0   2.51335e+69   2.51335e+69             0             0             0             0            -0
   6.57526e+61  -8.26542e+59   2.79276e+62   2.51335e+69             0             0   2.51335e+69   2.51335e+69             0             0            -0             0            -0
   5.74471e+61  -7.16866e+59   2.78775e+62   2.51335e+69             0             0   2.51335e+69   2.51335e+69             0             0            -0             0             0
   5.74471e+61  -7.16866e+59   2.78775e+62   2.51335e+69             0             0   2.51335e+69   2.51335e+69             0             0             0             0             0
   5.74471e+61  -7.16866e+59   2.78775e+62  -2.51335e+69             0             0   2.51335e+69  -2.51335e+69             0             0             0             0            -0
   5.74471e+61  -7.16866e+59   2.78775e+62  -2.51335e+69             0             0   2.51335e+69  -2.51335e+69             0             0            -0             0            -0
   5.74471e+61  -7.16866e+59   2.78775e+62  -2.51335e+69             0             0   2.51335e+69  -2.51335e+69             0             0            -0             0             0
   5.74471e+61  -7.16866e+59   2.78775e+62  -2.51335e+69             0             0   2.51335e+69  -2.51335e+69             0             0             0             0             0
   5.74471e+61  -7.16866e+59   2.78775e+62   2.51335e+69             0             0   2.51335e+69   2.51335e+69             0             0             0             0            -0
   5.74471e+61  -7.16866e+59   2.78775e+62   2.51335e+69             0             0   2.51335e+69   2.51335e+69             0             0            -0             0            -0
   4.91415e+61   -6.0719e+59   2.78273e+62   2.51335e+69             0             0   2.51335e+69   2.51335e+69             0             0            -0             0             0
   4.91415e+61   -6.0719e+59   2.78273e+62   2.51335e+69             0             0   2.51335e+69   2.51335e+69             0             0             0             0             0
   4.91415e+61   -6.0719e+59   2.78273e+62  -2.51335e+69             0             0   2.51335e+69  -2.51335e+69             0             0             0             0            -0
   4.91415e+61   -6.0719e+59   2.78273e+62  -2.51335e+69             0             0   2.51335e+69  -2.51335e+69             0             0            -0             0            -0
   4.91415e+61   -6.0719e+59   2.78273e+62  -2.51335e+69             0             0   2.51335e+69  -2.51335e+69             0             0            -0             0             0
   4.91415e+61   -6.0719e+59   2.78273e+62  -2.51335e+69             0             0   2.51335e+69  -2.51335e+69             0             0             0             0             0
   4.91415e+61   -6.0719e+59   2.78273e+62   2.51335e+69             0             0   2.51335e+69   2.51335e+69             0             0             0             0            -0
   4.91415e+61   -6.0719e+59   2.78273e+62   2.51335e+69             0             0   2.51335e+69   2.51335e+69             0             0            -0             0            -0
   4.08359e+61  -4.97513e+59   2.77772e+62   2.51335e+69             0             0   2.51335e+69   2.51335e+69             0             0            -0             0             0
   4.08359e+61  -4.97513e+59   2.77772e+62   2.51335e+69             0             0   2.51335e+69   2.51335e+69             0             0             0             0             0
   4.08359e+61  -4.97513e+59   2.77772e+62  -2.51335e+69             0             0   2.51335e+69  -2.51335e+69             0             0             0             0            -0
   4.08359e+61  -4.97513e+59   2.77772e+62  -2.51335e+69             0             0   2.51335e+69  -2.51335e+69             0             0            -0             0            -0
   4.08359e+61  -4.97513e+59   2.77772e+62  -2.51335e+69             0             0   2.51335e+69  -2.51335e+69             0             0            -0             0             0
   4.08359e+61  -4.97513e+59   2.77772e+62  -2.51335e+69             0             0   2.51335e+69  -2.51335e+69             0             0             0             0             0
   4.08359e+61  -4.97513e+59   2.77772e+62   2.51335e+69             0             0   2.51335e+69   2.51335e+69             0             0             0             0            -0
   4.08359e+61  -4.97513e+59   2.77772e+62   2.51335e+69             0             0   2.51335e+69   2.51335e+69             0             0            -0             0            -0
   3.25304e+61  -3.87837e+59   2.77271e+62   2.51335e+69             0             0   2.51335e+69   2.51335e+69             0             0            -0             0             0
   3.25304e+61  -3.87837e+59   2.77271e+62   2.51335e+69             0             0   2.51335e+69   2.51335e+69             0             0             0             0             0
   3.25304e+61  -3.87837e+59   2.77271e+62  -2.51335e+69             0             0   2.51335e+69  -2.51335e+69             0             0             0             0            -0
   3.25304e+61  -3.87837e+59   2.77271e+62  -2.51335e+69             0             0   2.51335e+69  -2.51335e+69             0             0            -0             0            -0
   3.25304e+61  -3.87837e+59   2.77271e+62  -2.51335e+69             0             0   2.51335e+69  -2.51335e+69             0             0            -0             0             0
   3.25304e+61  -3.87837e+59   2.77271e+62  -2.51335e+69             0             0   2.51335e+69  -2.51335e+69             0             0             0             0             0
   3.25304e+61  -3.87837e+59   2.77271e+62   2.51335e+69             0             0   2.51335e+69   2.51335e+69             0             0             0             0            -0
   3.25304e+61  -3.87837e+59   2.77271e+62   2.51335e+69             0             0   2.51335e+69   2.51335e+69             0             0            -0             0            -0
   2.42248e+61  -2.78161e+59    2.7677e+62   2.51335e+69             0             0   2.51335e+69   2.51335e+69             0             0            -0             0             0
   2.42248e+61  -2.78161e+59    2.7677e+62   2.51335e+69             0             0   2.51335e+69   2.51335e+69             0             0             0             0             0
   2.42248e+61  -2.78161e+59    2.7677e+62  -2.51335e+69             0             0   2.51335e+69  -2.51335e+69             0             0             0             0            -0
   2.42248e+61  -2.78161e+59    2.7677e+62  -2.51335e+69             0             0   2.51335e+69  -2.51335e+69             0             0            -0             0            -0
   2.42248e+61  -2.78161e+59    2.7677e+62  -2.51335e+69             0             0   2.51335e+69  -2.51335e+69             0             0            -0             0             0
   2.42248e+61  -2.78161e+59    2.7677e+62  -2.51335e+69             0             0   2.51335e+69  -2.51335e+69             0             0             0             0             0
   2.42248e+61  -2.78161e+59    2.7677e+62   2.51335e+69             0             0   2.51335e+69   2.51335e+69             0             0             0             0            -0
   2.42248e+61  -2.78161e+59    2.7677e+62   2.51335e+69             0             0   2.51335e+69   2.51335e+69             0             0            -0             0            -0
   1.59192e+61  -1.68484e+59   2.76268e+62   2.51335e+69             0             0   2.51335e+69   2.51335e+69             0             0            -0             0             0
   1.59192e+61  -1.68484e+59   2.76268e+62   2.51335e+69             0             0   2.51335e+69   2.51335e+69             0             0             0             0             0
   1.59192e+61  -1.68484e+59   2.76268e+62  -2.51335e+69             0             0   2.51335e+69  -2.51335e+69             0             0             0             0            -0
   1.59192e+61  -1.68484e+59   2.76268e+62  -2.51335e+69             0             0   2.51335e+69  -2.51335e+69             0             0            -0             0            -0
   1.59192e+61  -1.68484e+59   2.76268e+62  -2.51335e+69             0             0   2.51335e+69  -2.51335e+69             0             0            -0             0             0
   1.59192e+61  -1.68484e+59   2.76268e+62  -2.51335e+69             0             0   2.51335e+69  -2.51335e+69             0             0             0             0             0
   1.59192e+61  -1.68484e+59   2.76268e+62   2.51335e+69             0             0   2.51335e+69   2.51335e+69             0             0             0             0            -0
   1.59192e+61  -1.68484e+59   2.76268e+62   2.51335e+69             0             0   2.51335e+69   2.51335e+69             0             0            -0             0            -0
   7.61366e+60  -5.88079e+58   2.75767e+62   2.51335e+69             0             0   2.51335e+69   2.51335e+69             0             0            -0             0             0
   7.61366e+60  -5.88079e+58   2.75767e+62   2.51335e+69             0             0   2.51335e+69   2.51335e+69             0             0             0             0             0
   7.61366e+60  -5.88079e+58   2.75767e+62  -2.51335e+69             0             0   2.51335e+69  -2.51335e+69             0             0             0             0            -0
   7.61366e+60  -5.88079e+58   2.75767e+62  -2.51335e+69             0             0   2.51335e+69  -2.51335e+69             0             0            -0             0            -0
   7.61366e+60  -5.88079e+58   2.75767e+62  -2.51335e+69             0             0   2.51335e+69  -2.51335e+69             0             0            -0             0             0
   7.61366e+60  -5.88079e+58   2.75767e+62  -2.51335e+69             0             0   2.51335e+69  -2.51335e+69             0             0             0             0             0
   7.61366e+60  -5.88079e+58   2.75767e+62   2.51335e+69             0             0   2.51335e+69   2.51335e+69             0             0             0             0            -0
   7.61366e+60  -5.88079e+58   2.75767e+62   2.51335e+69             0             0   2.51335e+69   2.51335e+69             0             0            -0             0            -0
  -6.91909e+59   5.08684e+58   2.75266e+62   2.51335e+69             0             0   2.51335e+69   2.51335e+69             0             0            -0             0             0
  -6.91909e+59   5.08684e+58   2.75266e+62   2.51335e+69             0             0   2.51335e+69   2.51335e+69             0             0             0             0             0
  -6.91909e+59   5.08684e+58   2.75266e+62  -2.51335e+69             0             0   2.51335e+69  -2.51335e+69             0             0             0             0            -0
  -6.91909e+59   5.08684e+58   2.75266e+62  -2.51335e+69             0             0   2.51335e+69  -2.51335e+69             0             0            -0             0            -0
  -6.91909e+59   5.08684e+58   2.75266e+62  -2.75052e+67             0             0   2.75052e+67  -2.75052e+67             0             0            -0             0             0
  -6.91909e+59   5.08684e+58   2.75266e+62  -2.75052e+67             0             0   2.75052e+67  -2.75052e+67             0             0             0             0             0
  -6.91909e+59   5.08684e+58   2.75266e+62   2.75052e+67             0             0   2.75052e+67   2.75052e+67             0             0             0             0            -0
  -6.91909e+59   5.08684e+58   2.75266e+62   2.75052e+67             0             0   2.75052e+67   2.75052e+67             0             0            -0             0            -0
  -8.02634e+59   1.47745e+59   2.54582e+62   2.75052e+67             0             0   2.75052e+67   2.75052e+67             0             0            -0             0             0
  -8.02634e+59   1.47745e+59   2.54582e+62   2.75052e+67             0             0   2.75052e+67   2.75052e+67             0             0             0             0             0
  -8.02634e+59   1.47745e+59   2.54582e+62  -2.75052e+67             0             0   2.75052e+67  -2.75052e+67             0             0             0             0            -0
  -8.02634e+59   1.47745e+59   2.54582e+62  -2.75052e+67             0             0   2.75052e+67  -2.75052e+67             0             0            -0             0            -0
  -8.02634e+59   1.47745e+59   2.54582e+62  -2.75051e+67             0             0   2.75051e+67  -2.75051e+67             0             0            -0             0             0
  -8.02634e+59   1.47745e+59   2.54582e+62  -2.75051e+67             0             0   2.75051e+67  -2.75051e+67             0             0             0             0             0
  -8.02634e+59   1.47745e+59   2.54582e+62   2.75051e+67             0             0   2.75051e+67   2.75051e+67             0             0             0             0            -0
  -8.02634e+59   1.47745e+59   2.54582e+62   2.75051e+67             0             0   2.75051e+67   2.75051e+67             0             0            -0             0            -0
   -9.1336e+59   2.44621e+59   2.33898e+62   2.75051e+67             0             0   2.75051e+67   2.75051e+67             0             0            -0             0             0
   -9.1336e+59   2.44621e+59   2.33898e+62   2.75051e+67             0             0   2.75051e+67   2.75051e+67             0             0             0             0             0
   -9.1336e+59   2.44621e+59   2.33898e+62  -2.75051e+67             0             0   2.75051e+67  -2.75051e+67             0             0             0             0            -0
   -9.1336e+59   2.44621e+59   2.33898e+62  -2.75051e+67             0             0   2.75051e+67  -2.75051e+67             0             0            -0             0            -0
   -9.1336e+59   2.44621e+59   2.33898e+62  -2.75052e+67             0             0   2.75052e+67  -2.75052e+67             0             0            -0             0             0
   -9.1336e+59   2.44621e+59   2.33898e+62  -2.75052e+67             0             0   2.75052e+67  -2.75052e+67             0             0             0             0             0
   -9.1336e+59   2.44621e+59   2.33898e+62   2.75052e+67             0             0   2.75052e+67   2.75052e+67             0             0             0             0            -0
   -9.1336e+59   2.44621e+59   2.33898e+62   2.75052e+67             0             0   2.75052e+67   2.75052e+67             0             0            -0             0            -0
  -1.02409e+60   3.41498e+59   2.13214e+62   2.75052e+67             0             0   2.75052e+67   2.75052e+67             0             0            -0             0             0
  -1.02409e+60   3.41498e+59   2.13214e+62   2.75052e+67             0             0   2.75052e+67   2.75052e+67             0             0             0             0             0
  -1.02409e+60   3.41498e+59   2.13214e+62  -2.75052e+67             0             0   2.75052e+67  -2.75052e+67             0             0             0             0            -0
  -1.02409e+60   3.41498e+59   2.13214e+62  -2.75052e+67             0             0   2.75052e+67  -2.75052e+67             0             0            -0             0            -0
  -1.02409e+60   3.41498e+59   2.13214e+62  -2.75051e+67             0             0   2.75051e+67  -2.75051e+67             0             0            -0             0             0
  -1.02409e+60   3.41498e+59   2.13214e+62  -2.75051e+67             0             0   2.75051e+67  -2.75051e+67             0             0             0             0             0
  -1.02409e+60   3.41498e+59   2.13214e+62   2.75051e+67             0             0   2.75051e+67   2.75051e+67             0             0             0             0            -0
  -1.02409e+60   3.41498e+59   2.13214e+62   2.75051e+67             0             0   2.75051e+67   2.75051e+67             0             0            -0             0            -0
  -1.13481e+60   4.38374e+59    1.9253e+62   2.75051e+67             0             0   2.75051e+67   2.75051e+67             0             0            -0             0             0
  -1.13481e+60   4.38374e+59    1.9253e+62   2.75051e+67             0             0   2.75051e+67   2.75051e+67             0             0             0             0             0
  -1.13481e+60   4.38374e+59    1.9253e+62  -2.75051e+67             0             0   2.75051e+67  -2.75051e+67             0             0             0             0            -0
  -1.13481e+60   4.38374e+59    1.9253e+62  -2.75051e+67             0             0   2.75051e+67  -2.75051e+67             0             0            -0             0            -0
  -1.13481e+60   4.38374e+59    1.9253e+62  -2.75052e+67             0             0   2.75052e+67  -2.75052e+67             0             0            -0             0             0
  -1.13481e+60   4.38374e+59    1.9253e+62  -2.75052e+67             0             0   2.75052e+67  -2.75052e+67             0             0             0             0             0
  -1.13481e+60   4.38374e+59    1.9253e+62   2.75052e+67             0             0   2.75052e+67   2.75052e+67             0             0             0             0            -0
  -1.13481e+60   4.38374e+59    1.9253e+62   2.75052e+67             0             0   2.75052e+67   2.75052e+67             0             0            -0             0            -0
  -1.24554e+60   5.35251e+59   1.71846e+62   2.75052e+67             0             0   2.75052e+67   2.75052e+67             0             0            -0             0             0
  -1.24554e+60   5.35251e+59   1.71846e+62   2.75052e+67             0             0   2.75052e+67   2.75052e+67             0             0             0             0             0
  -1.24554e+60   5.35251e+59   1.71846e+62  -2.75052e+67             0             0   2.75052e+67  -2.75052e+67             0             0             0             0            -0
  -1.24554e+60   5.35251e+59   1.71846e+62  -2.75052e+67             0             0   2.75052e+67  -2.75052e+67             0             0            -0             0            -0
  -1.24554e+60   5.35251e+59   1.71846e+62  -2.75051e+67             0             0   2.75051e+67  -2.75051e+67             0             0            -0             0             0
  -1.24554e+60   5.35251e+59   1.71846e+62  -2.75051e+67             0             0   2.75051e+67  -2.75051e+67             0             0             0             0             0
  -1.24554e+60   5.35251e+59   1.71846e+62   2.75051e+67             0             0   2.75051e+67   2.75051e+67             0             0             0             0            -0
  -1.24554e+60   5.35251e+59   1.71846e+62   2.75051e+67             0             0   2.75051e+67   2.75051e+67             0             0            -0             0            -0
  -1.35626e+60   6.32126e+59   1.51163e+62   2.75051e+67             0             0   2.75051e+67   2.75051e+67             0             0            -0             0             0
  -1.35626e+60   6.32126e+59   1.51163e+62   2.75051e+67             0             0   2.75051e+67   2.75051e+67             0             0             0             0             0
  -1.35626e+60   6.32126e+59   1.51163e+62  -2.75051e+67             0             0   2.75051e+67  -2.75051e+67             0             0             0             0            -0
  -1.35626e+60   6.32126e+59   1.51163e+62  -2.75051e+67             0             0   2.75051e+67  -2.75051e+67             0             0            -0             0            -0
  -1.35626e+60   6.32126e+59   1.51163e+62  -2.75052e+67             0             0   2.75052e+67  -2.75052e+67             0             0            -0             0             0
  -1.35626e+60   6.32126e+59   1.51163e+62  -2.75052e+67             0             0   2.75052e+67  -2.75052e+67             0             0             0             0             0
  -1.35626e+60   6.32126e+59   1.51163e+62   2.75052e+67             0             0   2.75052e+67   2.75052e+67             0             0             0             0            -0
  -1.35626e+60   6.32126e+59   1.51163e+62   2.75052e+67             0             0   2.75052e+67   2.75052e+67             0             0            -0             0            -0
  -1.46699e+60   7.29003e+59   1.30479e+62   2.75052e+67             0             0   2.75052e+67   2.75052e+67             0             0            -0             0             0
  -1.46699e+60   7.29003e+59   1.30479e+62   2.75052e+67             0             0   2.75052e+67   2.75052e+67             0             0             0             0             0
  -1.46699e+60   7.29003e+59   1.30479e+62  -2.75052e+67             0             0   2.75052e+67  -2.75052e+67             0             0             0             0            -0
  -1.46699e+60   7.29003e+59   1.30479e+62  -2.75052e+67             0             0   2.75052e+67  -2.75052e+67             0             0            -0             0            -0
  -1.46699e+60   7.29003e+59   1.30479e+62  -2.75051e+67             0             0   2.75051e+67  -2.75051e+67             0             0            -0             0             0
  -1.46699e+60   7.29003e+59   1.30479e+62  -2.75051e+67             0             0   2.75051e+67  -2.75051e+67             0             0             0             0             0
  -1.46699e+60   7.29003e+59   1.30479e+62   2.75051e+67             0             0   2.75051e+67   2.75051e+67             0             0             0             0            -0
  -1.46699e+60   7.29003e+59   1.30479e+62   2.75051e+67             0             0   2.75051e+67   2.75051e+67             0             0            -0             0            -0
  -1.57771e+60   8.25879e+59   1.09795e+62   2.75051e+67             0             0   2.75051e+67   2.75051e+67             0             0            -0             0             0
  -1.57771e+60   8.25879e+59   1.09795e+62   2.75051e+67             0             0   2.75051e+67   2.75051e+67             0             0             0             0             0
  -1.57771e+60   8.25879e+59   1.09795e+62  -2.75051e+67             0             0   2.75051e+67  -2.75051e+67             0             0             0             0            -0
  -1.57771e+60   8.25879e+59   1.09795e+62  -2.75051e+67             0             0   2.75051e+67  -2.75051e+67             0             0            -0             0            -0
  -1.57771e+60   8.25879e+59   1.09795e+62  -2.75052e+67             0             0   2.75052e+67  -2.75052e+67             0             0            -0             0             0
  -1.57771e+60   8.25879e+59   1.09795e+62  -2.75052e+67             0             0   2.75052e+67  -2.75052e+67             0             0             0             0             0
  -1.57771e+60   8.25879e+59   1.09795e+62   2.75052e+67             0             0   2.75052e+67   2.75052e+67             0             0             0             0            -0
  -1.57771e+60   8.25879e+59   1.09795e+62   2.75052e+67             0             0   2.75052e+67   2.75052e+67             0             0            -0             0            -0
  -1.68844e+60   9.22756e+59    8.9111e+61   2.75052e+67             0             0   2.75052e+67   2.75052e+67             0             0            -0             0             0
  -1.68844e+60   9.22756e+59    8.9111e+61   2.75052e+67             0             0   2.75052e+67   2.75052e+67             0             0             0             0             0
  -1.68844e+60   9.22756e+59    8.9111e+61  -2.75052e+67             0             0   2.75052e+67  -2.75052e+67             0             0             0             0            -0
  -1.68844e+60   9.22756e+59    8.9111e+61  -2.75052e+67             0             0   2.75052e+67  -2.75052e+67             0             0            -0             0            -0
  -1.68844e+60   9.22756e+59    8.9111e+61  -2.75051e+67             0             0   2.75051e+67  -2.75051e+67             0             0            -0             0             0
  -1.68844e+60   9.22756e+59    8.9111e+61  -2.75051e+67             0             0   2.75051e+67  -2.75051e+67             0             0             0             0             0
  -1.68844e+60   9.22756e+59    8.9111e+61   2.75051e+67             0             0   2.75051e+67   2.75051e+67             0             0             0             0            -0
  -1.68844e+60   9.22756e+59    8.9111e+61   2.75051e+67             0             0   2.75051e+67   2.75051e+67             0             0            -0             0            -0
  -1.79916e+60   1.01963e+60   6.84273e+61   2.75051e+67             0             0   2.75051e+67   2.75051e+67             0             0            -0             0             0
  -1.79916e+60   1.01963e+60   6.84273e+61   2.75051e+67             0             0   2.75051e+67   2.75051e+67             0             0             0             0             0
  -1.79916e+60   1.01963e+60   6.84273e+61  -2.75051e+67             0             0   2.75051e+67  -2.75051e+67             0             0             0             0            -0
  -1.79916e+60   1.01963e+60   6.84273e+61  -2.75051e+67             0             0   2.75051e+67  -2.75051e+67             0             0            -0             0            -0
  -1.79916e+60   1.01963e+60   6.84273e+61  -2.75052e+67             0             0   2.75052e+67  -2.75052e+67             0             0            -0             0             0
  -1.79916e+60   1.01963e+60   6.84273e+61  -2.75052e+67             0             0   2.75052e+67  -2.75052e+67             0             0             0             0             0
  -1.79916e+60   1.01963e+60   6.84273e+61   2.75052e+67             0             0   2.75052e+67   2.75052e+67             0             0             0             0            -0
  -1.79916e+60   1.01963e+60   6.84273e+61   2.75052e+67             0             0   2.75052e+67   2.75052e+67             0             0            -0             0            -0
  -1.90989e+60   1.11651e+60   4.77434e+61   2.75052e+67             0             0   2.75052e+67   2.75052e+67             0             0            -0             0             0
  -1.90989e+60   1.11651e+60   4.77434e+61   2.75052e+67             0             0   2.75052e+67   2.75052e+67             0             0             0             0             0
  -1.90989e+60   1.11651e+60   4.77434e+61  -2.75052e+67             0             0   2.75052e+67  -2.75052e+67             0             0             0             0            -0
  -1.90989e+60   1.11651e+60   4.77434e+61  -2.75052e+67             0             0   2.75052e+67  -2.75052e+67             0             0            -0             0            -0
  -1.90989e+60   1.11651e+60   4.77434e+61  -2.75051e+67             0             0   2.75051e+67  -2.75051e+67             0             0            -0             0             0
  -1.90989e+60   1.11651e+60   4.77434e+61  -2.75051e+67             0             0   2.75051e+67  -2.75051e+67             0             0             0             0             0
  -1.90989e+60   1.11651e+60   4.77434e+61   2.75051e+67             0             0   2.75051e+67   2.75051e+67             0             0             0             0            -0
  -1.90989e+60   1.11651e+60   4.77434e+61   2.75051e+67             0             0   2.75051e+67   2.75051e+67             0             0            -0             0            -0
  -2.02061e+60   1.21338e+60   2.70596e+61   2.75051e+67             0             0   2.75051e+67   2.75051e+67             0             0            -0             0             0
  -2.02061e+60   1.21338e+60   2.70596e+61   2.75051e+67             0             0   2.75051e+67   2.75051e+67             0             0             0             0             0
  -2.02061e+60   1.21338e+60   2.70596e+61  -2.75051e+67             0             0   2.75051e+67  -2.75051e+67             0             0             0             0            -0
  -2.02061e+60   1.21338e+60   2.70596e+61  -2.75051e+67             0             0   2.75051e+67  -2.75051e+67             0             0            -0             0            -0
  -2.02061e+60   1.21338e+60   2.70596e+61  -2.75052e+67             0             0   2.75052e+67  -2.75052e+67             0             0            -0             0             0
  -2.02061e+60   1.21338e+60   2.70596e+61  -2.75052e+67             0             0   2.75052e+67  -2.75052e+67             0             0             0             0             0
  -2.02061e+60   1.21338e+60   2.70596e+61   2.75052e+67             0             0   2.75052e+67   2.75052e+67             0             0             0             0            -0
  -2.02061e+60   1.21338e+60   2.70596e+61   2.75052e+67             0             0   2.75052e+67   2.75052e+67             0             0            -0             0            -0
  -2.13134e+60   1.31026e+60   6.37566e+60   2.75052e+67             0             0   2.75052e+67   2.75052e+67             0             0            -0             0             0
  -2.13134e+60   1.31026e+60   6.37566e+60   2.75052e+67             0             0   2.75052e+67   2.75052e+67             0             0             0             0             0
  -2.13134e+60   1.31026e+60   6.37566e+60  -2.75052e+67             0             0   2.75052e+67  -2.75052e+67             0             0             0             0            -0
  -2.13134e+60   1.31026e+60   6.37566e+60  -2.75052e+67             0             0   2.75052e+67  -2.75052e+67             0             0            -0             0            -0
  -1.00852e+61    3.2978e+59   4.72279e+62  -1.82004e+69             0             0   1.82004e+69  -1.82004e+69             0             0            -0             0             0
  -1.00852e+61    3.2978e+59   4.72279e+62  -1.82004e+69             0             0   1.82004e+69  -1.82004e+69             0             0             0             0             0
  -1.00852e+61    3.2978e+59   4.72279e+62   1.82004e+69             0             0   1.82004e+69   1.82004e+69             0             0             0             0            -0
  -1.00852e+61    3.2978e+59   4.72279e+62   1.82004e+69             0             0   1.82004e+69   1.82004e+69             0             0            -0             0            -0
  -4.03721e+60   3.75689e+59   4.73954e+62   1.82004e+69             0             0   1.82004e+69   1.82004e+69             0             0            -0             0             0
  -4.03721e+60   3.75689e+59   4.73954e+62   1.82004e+69             0             0   1.82004e+69   1.82004e+69             0             0             0             0             0
  -4.03721e+60   3.75689e+59   4.73954e+62  -1.82004e+69             0             0   1.82004e+69  -1.82004e+69             0             0             0             0            -0
  -4.03721e+60   3.75689e+59   4.73954e+62  -1.82004e+69             0             0   1.82004e+69  -1.82004e+69             0             0            -0             0            -0
  -4.03721e+60   3.75689e+59   4.73954e+62  -1.82004e+69             0             0   1.82004e+69  -1.82004e+69             0             0            -0             0             0
  -4.03721e+60   3.75689e+59   4.73954e+62  -1.82004e+69             0             0   1.82004e+69  -1.82004e+69             0             0             0             0             0
  -4.03721e+60   3.75689e+59   4.73954e+62   1.82004e+69             0             0   1.82004e+69   1.82004e+69             0             0             0             0            -0
  -4.03721e+60   3.75689e+59   4.73954e+62   1.82004e+69             0             0   1.82004e+69   1.82004e+69             0             0            -0             0            -0
   2.01077e+60   4.21599e+59    4.7563e+62   1.82004e+69             0             0   1.82004e+69   1.82004e+69             0             0            -0             0             0
   2.01077e+60   4.21599e+59    4.7563e+62   1.82004e+69             0             0   1.82004e+69   1.82004e+69             0             0             0             0             0
   2.01077e+60   4.21599e+59    4.7563e+62  -1.82004e+69             0             0   1.82004e+69  -1.82004e+69             0             0             0             0            -0
   2.01077e+60   4.21599e+59    4.7563e+62  -1.82004e+69             0             0   1.82004e+69  -1.82004e+69             0             0            -0             0            -0
   2.01077e+60   4.21599e+59    4.7563e+62  -1.82004e+69             0             0   1.82004e+69  -1.82004e+69             0             0            -0             0             0
   2.01077e+60   4.21599e+59    4.7563e+62  -1.82004e+69             0             0   1.82004e+69  -1.82004e+69             0             0             0             0             0
   2.01077e+60   4.21599e+59    4.7563e+62   1.82004e+69             0             0   1.82004e+69   1.82004e+69             0             0             0             0            -0
   2.01077e+60   4.21599e+59    4.7563e+62   1.82004e+69             0             0   1.82004e+69   1.82004e+69             0             0            -0             0            -0
   8.05876e+60   4.67508e+59   4.77306e+62   1.82004e+69             0             0   1.82004e+69   1.82004e+69             0             0            -0             0             0
   8.05876e+60   4.67508e+59   4.77306e+62   1.82004e+69             0             0   1.82004e+69   1.82004e+69             0             0             0             0             0
   8.05876e+60   4.67508e+59   4.77306e+62  -1.82004e+69             0             0   1.82004e+69  -1.82004e+69             0             0             0             0            -0
   8.05876e+60   4.67508e+59   4.77306e+62  -1.82004e+69             0             0   1.82004e+69  -1.82004e+69             0             0            -0             0            -0
   8.05876e+60   4.67508e+59   4.77306e+62  -1.82004e+69             0             0   1.82004e+69  -1.82004e+69             0             0            -0             0             0
   8.05876e+60   4.67508e+59   4.77306e+62  -1.82004e+69             0             0   1.82004e+69  -1.82004e+69             0             0             0             0             0
   8.05876e+60   4.67508e+59   4.77306e+62   1.82004e+69             0             0   1.82004e+69   1.82004e+69             0             0             0             0            -0
   8.05876e+60   4.67508e+59   4.77306e+62   1.82004e+69             0             0   1.82004e+69   1.82004e+69             0             0            -0             0            -0
   1.41067e+61   5.13417e+59   4.78981e+62   1.82004e+69             0             0   1.82004e+69   1.82004e+69             0             0            -0             0             0
   1.41067e+61   5.13417e+59   4.78981e+62   1.82004e+69             0             0   1.82004e+69   1.82004e+69             0             0             0             0             0
   1.41067e+61   5.13417e+59   4.78981e+62  -1.82004e+69             0             0   1.82004e+69  -1.82004e+69             0             0             0             0            -0
   1.41067e+61   5.13417e+59   4.78981e+62  -1.82004e+69             0             0   1.82004e+69  -1.82004e+69             0             0            -0             0            -0
   1.41067e+61   5.13417e+59   4.78981e+62  -1.82004e+69             0             0   1.82004e+69  -1.82004e+69             0             0            -0             0             0
   1.41067e+61   5.13417e+59   4.78981e+62  -1.82004e+69             0             0   1.82004e+69  -1.82004e+69             0             0             0             0             0
   1.41067e+61   5.13417e+59   4.78981e+62   1.82004e+69             0             0   1.82004e+69   1.82004e+69             0             0             0             0            -0
   1.41067e+61   5.13417e+59   4.78981e+62   1.82004e+69             0             0   1.82004e+69   1.82004e+69             0             0            -0             0            -0
   2.01547e+61   5.59326e+59   4.80657e+62   1.82004e+69             0             0   1.82004e+69   1.82004e+69             0             0            -0             0             0
   2.01547e+61   5.59326e+59   4.80657e+62   1.82004e+69             0             0   1.82004e+69   1.82004e+69             0             0             0             0             0
   2.01547e+61   5.59326e+59   4.80657e+62  -1.82004e+69             0             0   1.82004e+69  -1.82004e+69             0             0             0             0            -0
   2.01547e+61   5.59326e+59   4.80657e+62  -1.82004e+69             0             0   1.82004e+69  -1.82004e+69             0             0            -0             0            -0
   2.01547e+61   5.59326e+59   4.80657e+62  -1.82004e+69             0             0   1.82004e+69  -1.82004e+69             0             0            -0             0             0
   2.01547e+61   5.59326e+59   4.80657e+62  -1.82004e+69             0             0   1.82004e+69  -1.82004e+69             0             0             0             0             0
   2.01547e+61   5.59326e+59   4.80657e+62   1.82004e+69             0             0   1.82004e+69   1.82004e+69             0             0             0             0            -0
   2.01547e+61   5.59326e+59   4.80657e+62   1.82004e+69             0             0   1.82004e+69   1.82004e+69             0             0            -0             0            -0
   2.62027e+61   6.05235e+59   4.82332e+62   1.82004e+69             0             0   1.82004e+69   1.82004e+69             0             0            -0             0             0
   2.62027e+61   6.05235e+59   4.82332e+62   1.82004e+69             0             0   1.82004e+69   1.82004e+69             0             0             0             0             0
   2.62027e+61   6.05235e+59   4.82332e+62  -1.82004e+69             0             0   1.82004e+69  -1.82004e+69             0             0             0             0            -0
   2.62027e+61   6.05235e+59   4.82332e+62  -1.82004e+69             0             0   1.82004e+69  -1.82004e+69             0             0            -0             0            -0
   2.62027e+61   6.05235e+59   4.82332e+62  -1.82004e+69             0             0   1.82004e+69  -1.82004e+69             0             0            -0             0             0
   2.62027e+61   6.05235e+59   4.82332e+62  -1.82004e+69             0             0   1.82004e+69  -1.82004e+69             0             0             0             0             0
   2.62027e+61   6.05235e+59   4.82332e+62   1.82004e+69             0             0   1.82004e+69   1.82004e+69             0             0             0             0            -0
   2.62027e+61   6.05235e+59   4.82332e+62   1.82004e+69             0             0   1.82004e+69   1.82004e+69             0             0            -0             0            -0
   3.22507e+61   6.51144e+59   4.84008e+62   1.82004e+69             0             0   1.82004e+69   1.82004e+69             0             0            -0             0             0
   3.22507e+61   6.51144e+59   4.84008e+62   1.82004e+69             0             0   1.82004e+69   1.82004e+69             0             0             0             0             0
   3.22507e+61   6.51144e+59   4.84008e+62  -1.82004e+69             0             0   1.82004e+69  -1.82004e+69             0             0             0             0            -0
   3.22507e+61   6.51144e+59   4.84008e+62  -1.82004e+69             0             0   1.82004e+69  -1.82004e+69             0             0            -0             0            -0
   3.22507e+61   6.51144e+59   4.84008e+62  -1.82004e+69             0             0   1.82004e+69  -1.82004e+69             0             0            -0             0             0
   3.22507e+61   6.51144e+59   4.84008e+62  -1.82004e+69             0             0   1.82004e+69  -1.82004e+69             0             0             0             0             0
   3.22507e+61   6.51144e+59   4.84008e+62   1.82004e+69             0             0   1.82004e+69   1.82004e+69             0             0             0             0            -0
   3.22507e+61   6.51144e+59   4.84008e+62   1.82004e+69             0             0   1.82004e+69   1.82004e+69             0             0            -0             0            -0
   3.82987e+61   6.97053e+59   4.85683e+62   1.82004e+69             0             0   1.82004e+69   1.82004e+69             0             0            -0             0             0
   3.82987e+61   6.97053e+59   4.85683e+62   1.82004e+69             0             0   1.82004e+69   1.82004e+69             0             0             0             0             0
   3.82987e+61   6.97053e+59   4.85683e+62  -1.82004e+69             0             0   1.82004e+69  -1.82004e+69             0             0             0             0            -0
   3.82987e+61   6.97053e+59   4.85683e+62  -1.82004e+69             0             0   1.82004e+69  -1.82004e+69             0             0            -0             0            -0
   6.57526e+61  -8.26542e+59   2.79276e+62  -6.86749e+68             0             0   6.86749e+68  -6.86749e+68             0             0            -0             0             0
   6.57526e+61  -8.26542e+59   2.79276e+62  -6.86749e+68             0             0   6.86749e+68  -6.86749e+68             0             0             0             0             0
   6.57526e+61  -8.26542e+59   2.79276e+62   6.86749e+68             0             0   6.86749e+68   6.86749e+68             0             0             0             0            -0
   6.57526e+61  -8.26542e+59   2.79276e+62   6.86749e+68             0             0   6.86749e+68   6.86749e+68             0             0            -0             0            -0
   6.12271e+61  -6.84089e+59   2.61083e+62   6.86749e+68             0             0   6.86749e+68   6.86749e+68             0             0            -0             0             0
   6.12271e+61  -6.84089e+59   2.61083e+62   6.86749e+68             0             0   6.86749e+68   6.86749e+68             0             0             0             0             0
   6.12271e+61  -6.84089e+59   2.61083e+62  -6.86749e+68             0             0   6.86749e+68  -6.86749e+68             0             0             0             0            -0
   6.12271e+61  -6.84089e+59   2.61083e+62  -6.86749e+68             0             0   6.86749e+68  -6.86749e+68             0             0            -0             0            -0
   6.12271e+61  -6.84089e+59   2.61083e+62  -6.86758e+68             0             0   6.86758e+68  -6.86758e+68             0             0            -0             0             0
   6.12271e+61  -6.84089e+59   2.61083e+62  -6.86758e+68             0             0   6.86758e+68  -6.86758e+68             0             0             0             0             0
   6.12271e+61  -6.84089e+59   2.61083e+62   6.86758e+68             0             0   6.86758e+68   6.86758e+68             0             0             0             0            -0
   6.12271e+61  -6.84089e+59   2.61083e+62   6.86758e+68             0             0   6.86758e+68   6.86758e+68             0             0            -0             0            -0
   5.67014e+61  -5.41635e+59   2.42889e+62   6.86758e+68             0             0   6.86758e+68   6.86758e+68             0             0            -0             0             0
   5.67014e+61  -5.41635e+59   2.42889e+62   6.86758e+68             0             0   6.86758e+68   6.86758e+68             0             0             0             0             0
   5.67014e+61  -5.41635e+59   2.42889e+62  -6.86758e+68             0             0   6.86758e+68  -6.86758e+68             0             0             0             0            -0
   5.67014e+61  -5.41635e+59   2.42889e+62  -6.86758e+68             0             0   6.86758e+68  -6.86758e+68             0             0            -0             0            -0
   5.67014e+61  -5.41635e+59   2.42889e+62  -6.86749e+68             0             0   6.86749e+68  -6.86749e+68             0             0            -0             0             0
   5.67014e+61  -5.41635e+59   2.42889e+62  -6.86749e+68             0             0   6.86749e+68  -6.86749e+68             0             0             0             0             0
   5.67014e+61  -5.41635e+59   2.42889e+62   6.86749e+68             0             0   6.86749e+68   6.86749e+68             0             0             0             0            -0
   5.67014e+61  -5.41635e+59   2.42889e+62   6.86749e+68             0             0   6.86749e+68   6.86749e+68             0             0            -0             0            -0
   5.21758e+61  -3.99182e+59   2.24696e+62   6.86749e+68             0             0   6.86749e+68   6.86749e+68             0             0            -0             0             0
   5.21758e+61  -3.99182e+59   2.24696e+62   6.86749e+68             0             0   6.86749e+68   6.86749e+68             0             0             0             0             0
   5.21758e+61  -3.99182e+59   2.24696e+62  -6.86749e+68             0             0   6.86749e+68  -6.86749e+68             0             0             0             0            -0
   5.21758e+61  -3.99182e+59   2.24696e+62  -6.86749e+68             0             0   6.86749e+68  -6.86749e+68             0             0            -0             0            -0
   5.21758e+61  -3.99182e+59   2.24696e+62  -6.86749e+68             0             0   6.86749e+68  -6.86749e+68             0             0            -0             0             0
   5.21758e+61  -3.99182e+59   2.24696e+62  -6.86749e+68             0             0   6.86749e+68  -6.86749e+68             0             0             0             0             0
   5.21758e+61  -3.99182e+59   2.24696e+62   6.86749e+68             0             0   6.86749e+68   6.86749e+68             0             0             0             0            -0
   5.21758e+61  -3.99182e+59   2.24696e+62   6.86749e+68             0             0   6.86749e+68   6.86749e+68             0             0            -0             0            -0
   4.76503e+61  -2.56728e+59   2.06503e+62   6.86749e+68             0             0   6.86749e+68   6.86749e+68             0             0            -0             0             0
   4.76503e+61  -2.56728e+59   2.06503e+62   6.86749e+68             0             0   6.86749e+68   6.86749e+68             0             0             0             0             0
   4.76503e+61  -2.56728e+59   2.06503e+62  -6.86749e+68             0             0   6.86749e+68  -6.86749e+68             0             0             0             0            -0
   4.76503e+61  -2.56728e+59   2.06503e+62  -6.86749e+68             0             0   6.86749e+68  -6.86749e+68             0             0            -0             0            -0
   4.76503e+61  -2.56728e+59   2.06503e+62  -6.86758e+68             0             0   6.86758e+68  -6.86758e+68             0             0            -0             0             0
   4.76503e+61  -2.56728e+59   2.06503e+62  -6.86758e+68             0             0   6.86758e+68  -6.86758e+68             0             0             0             0             0
   4.76503e+61  -2.56728e+59   2.06503e+62   6.86758e+68             0             0   6.86758e+68   6.86758e+68             0             0             0             0            -0
   4.76503e+61  -2.56728e+59   2.06503e+62   6.86758e+68             0             0   6.86758e+68   6.86758e+68             0             0            -0             0            -0
   4.31246e+61  -1.14274e+59   1.88309e+62   6.86758e+68             0             0   6.86758e+68   6.86758e+68             0             0            -0             0             0
   4.31246e+61  -1.14274e+59   1.88309e+62   6.86758e+68             0             0   6.86758e+68   6.86758e+68             0             0             0             0             0
   4.31246e+61  -1.14274e+59   1.88309e+62  -6.86758e+68             0             0   6.86758e+68  -6.86758e+68             0             0             0             0            -0
   4.31246e+61  -1.14274e+59   1.88309e+62  -6.86758e+68             0             0   6.86758e+68  -6.86758e+68             0             0            -0             0            -0
   4.31246e+61  -1.14274e+59   1.88309e+62  -6.86749e+68             0             0   6.86749e+68  -6.86749e+68             0             0            -0             0             0
   4.31246e+61  -1.14274e+59   1.88309e+62  -6.86749e+68             0             0   6.86749e+68  -6.86749e+68             0             0             0             0             0
   4.31246e+61  -1.14274e+59   1.88309e+62   6.86749e+68             0             0   6.86749e+68   6.86749e+68             0             0             0             0            -0
   4.31246e+61  -1.14274e+59   1.88309e+62   6.86749e+68             0             0   6.86749e+68   6.86749e+68             0             0            -0             0            -0
    3.8599e+61   2.81792e+58   1.70116e+62   6.86749e+68             0             0   6.86749e+68   6.86749e+68             0             0            -0             0             0
    3.8599e+61   2.81792e+58   1.70116e+62   6.86749e+68             0             0   6.86749e+68   6.86749e+68             0             0             0             0             0
    3.8599e+61   2.81792e+58   1.70116e+62  -6.86749e+68             0             0   6.86749e+68  -6.86749e+68             0             0             0             0            -0
    3.8599e+61   2.81792e+58   1.70116e+62  -6.86749e+68             0             0   6.86749e+68  -6.86749e+68             0             0            -0             0            -0
    3.8599e+61   2.81792e+58   1.70116e+62  -6.86749e+68             0             0   6.86749e+68  -6.86749e+68             0             0            -0             0             0
    3.8599e+61   2.81792e+58   1.70116e+62  -6.86749e+68             0             0   6.86749e+68  -6.86749e+68             0             0             0             0             0
    3.8599e+61   2.81792e+58   1.70116e+62   6.86749e+68             0             0   6.86749e+68   6.86749e+68             0             0             0             0            -0
    3.8599e+61   2.81792e+58   1.70116e+62   6.86749e+68             0             0   6.86749e+68   6.86749e+68             0             0            -0             0            -0
   3.40735e+61   1.70632e+59   1.51923e+62   6.86749e+68             0             0   6.86749e+68   6.86749e+68             0             0            -0             0             0
   3.40735e+61   1.70632e+59   1.51923e+62   6.86749e+68             0             0   6.86749e+68   6.86749e+68             0             0             0             0             0
   3.40735e+61   1.70632e+59   1.51923e+62  -6.86749e+68             0             0   6.86749e+68  -6.86749e+68             0             0             0             0            -0
   3.40735e+61   1.70632e+59   1.51923e+62  -6.86749e+68             0             0   6.86749e+68  -6.86749e+68             0             0            -0             0            -0
   3.40735e+61   1.70632e+59   1.51923e+62  -6.86758e+68             0             0   6.86758e+68  -6.86758e+68             0             0            -0             0             0
   3.40735e+61   1.70632e+59   1.51923e+62  -6.86758e+68             0             0   6.86758e+68  -6.86758e+68             0             0             0             0             0
   3.40735e+61   1.70632e+59   1.51923e+62   6.86758e+68             0             0   6.86758e+68   6.86758e+68             0             0             0             0            -0
   3.40735e+61   1.70632e+59   1.51923e+62   6.86758e+68             0             0   6.86758e+68   6.86758e+68             0             0            -0             0            -0
   2.95478e+61   3.13087e+59   1.33729e+62   6.86758e+68             0             0   6.86758e+68   6.86758e+68             0             0            -0             0             0
   2.95478e+61   3.13087e+59   1.33729e+62   6.86758e+68             0             0   6.86758e+68   6.86758e+68             0             0             0             0             0
   2.95478e+61   3.13087e+59   1.33729e+62  -6.86758e+68             0             0   6.86758e+68  -6.86758e+68             0             0             0             0            -0
   2.95478e+61   3.13087e+59   1.33729e+62  -6.86758e+68             0             0   6.86758e+68  -6.86758e+68             0             0            -0             0            -0
   2.95478e+61   3.13087e+59   1.33729e+62  -6.86749e+68             0             0   6.86749e+68  -6.86749e+68             0             0            -0             0             0
   2.95478e+61   3.13087e+59   1.33729e+62  -6.86749e+68             0             0   6.86749e+68  -6.86749e+68             0             0             0             0             0
   2.95478e+61   3.13087e+59   1.33729e+62   6.86749e+68             0             0   6.86749e+68   6.86749e+68             0             0             0             0            -0
   2.95478e+61   3.13087e+59   1.33729e+62   6.86749e+68             0             0   6.86749e+68   6.86749e+68             0             0            -0             0            -0
   2.50222e+61    4.5554e+59   1.15536e+62   6.86749e+68             0             0   6.86749e+68   6.86749e+68             0             0            -0             0             0
   2.50222e+61    4.5554e+59   1.15536e+62   6.86749e+68             0             0   6.86749e+68   6.86749e+68             0             0             0             0             0
   2.50222e+61    4.5554e+59   1.15536e+62  -6.86749e+68             0             0   6.86749e+68  -6.86749e+68             0             0             0             0            -0
   2.50222e+61    4.5554e+59   1.15536e+62  -6.86749e+68             0             0   6.86749e+68  -6.86749e+68             0             0            -0             0            -0
   2.50222e+61    4.5554e+59   1.15536e+62  -6.86749e+68             0             0   6.86749e+68  -6.86749e+68             0             0            -0             0             0
   2.50222e+61    4.5554e+59   1.15536e+62  -6.86749e+68             0             0   6.86749e+68  -6.86749e+68             0             0             0             0             0
   2.50222e+61    4.5554e+59   1.15536e+62   6.86749e+68             0             0   6.86749e+68   6.86749e+68             0             0             0             0            -0
   2.50222e+61    4.5554e+59   1.15536e+62   6.86749e+68             0             0   6.86749e+68   6.86749e+68             0             0            -0             0            -0
   2.04967e+61   5.97993e+59   9.73425e+61   6.86749e+68             0             0   6.86749e+68   6.86749e+68             0             0            -0             0             0
   2.04967e+61   5.97993e+59   9.73425e+61   6.86749e+68             0             0   6.86749e+68   6.86749e+68             0             0             0             0             0
   2.04967e+61   5.97993e+59   9.73425e+61  -6.86749e+68             0             0   6.86749e+68  -6.86749e+68             0             0             0             0            -0
   2.04967e+61   5.97993e+59   9.73425e+61  -6.86749e+68             0             0   6.86749e+68  -6.86749e+68             0             0            -0             0            -0
   2.04967e+61   5.97993e+59   9.73425e+61  -6.86758e+68             0             0   6.86758e+68  -6.86758e+68             0             0            -0             0             0
   2.04967e+61   5.97993e+59   9.73425e+61  -6.86758e+68             0             0   6.86758e+68  -6.86758e+68             0             0             0             0             0
   2.04967e+61   5.97993e+59   9.73425e+61   6.86758e+68             0             0   6.86758e+68   6.86758e+68             0             0             0             0            -0
   2.04967e+61   5.97993e+59   9.73425e+61   6.86758e+68             0             0   6.86758e+68   6.86758e+68             0             0            -0             0            -0
    1.5971e+61   7.40448e+59    7.9149e+61   6.86758e+68             0             0   6.86758e+68   6.86758e+68             0             0            -0             0             0
    1.5971e+61   7.40448e+59    7.9149e+61   6.86758e+68             0             0   6.86758e+68   6.86758e+68             0             0             0             0             0
    1.5971e+61   7.40448e+59    7.9149e+61  -6.86758e+68             0             0   6.86758e+68  -6.86758e+68             0             0             0             0            -0
    1.5971e+61   7.40448e+59    7.9149e+61  -6.86758e+68             0             0   6.86758e+68  -6.86758e+68             0             0            -0             0            -0
    1.5971e+61   7.40448e+59    7.9149e+61  -6.86749e+68             0             0   6.86749e+68  -6.86749e+68             0             0            -0             0             0
    1.5971e+61   7.40448e+59    7.9149e+61  -6.86749e+68             0             0   6.86749e+68  -6.86749e+68             0             0             0             0             0
    1.5971e+61   7.40448e+59    7.9149e+61   6.86749e+68             0             0   6.86749e+68   6.86749e+68             0             0             0             0            -0
    1.5971e+61   7.40448e+59    7.9149e+61   6.86749e+68             0             0   6.86749e+68   6.86749e+68             0             0            -0             0            -0
   1.14455e+61   8.82901e+59   6.09557e+61   6.86749e+68             0             0   6.86749e+68   6.86749e+68             0             0            -0             0             0
   1.14455e+61   8.82901e+59   6.09557e+61   6.86749e+68             0             0   6.86749e+68   6.86749e+68             0             0             0             0             0
   1.14455e+61   8.82901e+59   6.09557e+61  -6.86749e+68             0             0   6.86749e+68  -6.86749e+68             0             0             0             0            -0
   1.14455e+61   8.82901e+59   6.09557e+61  -6.86749e+68             0             0   6.86749e+68  -6.86749e+68             0             0            -0             0            -0
   1.14455e+61   8.82901e+59   6.09557e+61  -6.86749e+68             0             0   6.86749e+68  -6.86749e+68             0             0            -0             0             0
   1.14455e+61   8.82901e+59   6.09557e+61  -6.86749e+68             0             0   6.86749e+68  -6.86749e+68             0             0             0             0             0
   1.14455e+61   8.82901e+59   6.09557e+61   6.86749e+68             0             0   6.86749e+68   6.86749e+68             0             0             0             0            -0
   1.14455e+61   8.82901e+59   6.09557e+61   6.86749e+68             0             0   6.86749e+68   6.86749e+68             0             0            -0             0            -0
   6.91989e+60   1.02535e+60   4.27625e+61   6.86749e+68             0             0   6.86749e+68   6.86749e+68             0             0            -0             0             0
   6.91989e+60   1.02535e+60   4.27625e+61   6.86749e+68             0             0   6.86749e+68   6.86749e+68             0             0             0             0             0
   6.91989e+60   1.02535e+60   4.27625e+61  -6.86749e+68             0             0   6.86749e+68  -6.86749e+68             0             0             0             0            -0
   6.91989e+60   1.02535e+60   4.27625e+61  -6.86749e+68             0             0   6.86749e+68  -6.86749e+68             0             0            -0             0            -0
   6.91989e+60   1.02535e+60   4.27625e+61  -6.86758e+68             0             0   6.86758e+68  -6.86758e+68             0             0            -0             0             0
   6.91989e+60   1.02535e+60   4.27625e+61  -6.86758e+68             0             0   6.86758e+68  -6.86758e+68             0             0             0             0             0
   6.91989e+60   1.02535e+60   4.27625e+61   6.86758e+68             0             0   6.86758e+68   6.86758e+68             0             0             0             0            -0
   6.91989e+60   1.02535e+60   4.27625e+61   6.86758e+68             0             0   6.86758e+68   6.86758e+68             0             0            -0             0            -0
   2.39422e+60   1.16781e+60   2.45689e+61   6.86758e+68             0             0   6.86758e+68   6.86758e+68             0             0            -0             0             0
   2.39422e+60   1.16781e+60   2.45689e+61   6.86758e+68             0             0   6.86758e+68   6.86758e+68             0             0             0             0             0
   2.39422e+60   1.16781e+60   2.45689e+61  -6.86758e+68             0             0   6.86758e+68  -6.86758e+68             0             0             0             0            -0
   2.39422e+60   1.16781e+60   2.45689e+61  -6.86758e+68             0             0   6.86758e+68  -6.86758e+68             0             0            -0             0            -0
   2.39422e+60   1.16781e+60   2.45689e+61  -6.86749e+68             0             0   6.86749e+68  -6.86749e+68             0             0            -0             0             0
   2.39422e+60   1.16781e+60   2.45689e+61  -6.86749e+68             0             0   6.86749e+68  -6.86749e+68             0             0             0             0             0
   2.39422e+60   1.16781e+60   2.45689e+61   6.86749e+68             0             0   6.86749e+68   6.86749e+68             0             0             0             0            -0
   2.39422e+60   1.16781e+60   2.45689e+61   6.86749e+68             0             0   6.86749e+68   6.86749e+68             0             0            -0             0            -0
  -2.13134e+60   1.31026e+60   6.37566e+60   6.86749e+68             0             0   6.86749e+68   6.86749e+68             0             0            -0             0             0
  -2.13134e+60   1.31026e+60   6.37566e+60   6.86749e+68             0             0   6.86749e+68   6.86749e+68             0             0             0             0             0
  -2.13134e+60   1.31026e+60   6.37566e+60  -6.86749e+68             0             0   6.86749e+68  -6.86749e+68             0             0             0             0            -0
  -2.13134e+60   1.31026e+60   6.37566e+60  -6.86749e+68             0             0   6.86749e+68  -6.86749e+68             0             0            -0             0            -0
   6.91909e+59  -5.08684e+58   2.75266e+62   2.75052e+67             0             0   2.75052e+67   2.75052e+67             0             0            -0             0             0
   6.91909e+59  -5.08684e+58   2.75266e+62   2.75052e+67             0             0   2.75052e+67   2.75052e+67             0             0             0             0             0
   6.91909e+59  -5.08684e+58   2.75266e+62  -2.75052e+67             0             0   2.75052e+67  -2.75052e+67             0             0             0             0            -0
   6.91909e+59  -5.08684e+58   2.75266e+62  -2.75052e+67             0             0   2.75052e+67  -2.75052e+67             0             0            -0             0            -0
   8.02634e+59  -1.47745e+59   2.54582e+62  -2.75052e+67             0             0   2.75052e+67  -2.75052e+67             0             0            -0             0             0
   8.02634e+59  -1.47745e+59   2.54582e+62  -2.75052e+67             0             0   2.75052e+67  -2.75052e+67             0             0             0             0             0
   8.02634e+59  -1.47745e+59   2.54582e+62   2.75052e+67             0             0   2.75052e+67   2.75052e+67             0             0             0             0            -0
   8.02634e+59  -1.47745e+59   2.54582e+62   2.75052e+67             0             0   2.75052e+67   2.75052e+67             0             0            -0             0            -0
   8.02634e+59  -1.47745e+59   2.54582e+62   2.75051e+67             0             0   2.75051e+67   2.75051e+67             0             0            -0             0             0
   8.02634e+59  -1.47745e+59   2.54582e+62   2.75051e+67             0             0   2.75051e+67   2.75051e+67             0             0             0             0             0
   8.02634e+59  -1.47745e+59   2.54582e+62  -2.75051e+67             0             0   2.75051e+67  -2.75051e+67             0             0             0             0            -0
   8.02634e+59  -1.47745e+59   2.54582e+62  -2.75051e+67             0             0   2.75051e+67  -2.75051e+67             0             0            -0             0            -0
    9.1336e+59  -2.44621e+59   2.33898e+62  -2.75051e+67             0             0   2.75051e+67  -2.75051e+67             0             0            -0             0             0
    9.1336e+59  -2.44621e+59   2.33898e+62  -2.75051e+67             0             0   2.75051e+67  -2.75051e+67             0             0             0             0             0
    9.1336e+59  -2.44621e+59   2.33898e+62   2.75051e+67             0             0   2.75051e+67   2.75051e+67             0             0             0             0            -0
    9.1336e+59  -2.44621e+59   2.33898e+62   2.75051e+67             0             0   2.75051e+67   2.75051e+67             0             0            -0             0            -0
    9.1336e+59  -2.44621e+59   2.33898e+62   2.75052e+67             0             0   2.75052e+67   2.75052e+67             0             0            -0             0             0
    9.1336e+59  -2.44621e+59   2.33898e+62   2.75052e+67             0             0   2.75052e+67   2.75052e+67             0             0             0             0             0
    9.1336e+59  -2.44621e+59   2.33898e+62  -2.75052e+67             0             0   2.75052e+67  -2.75052e+67             0             0             0             0            -0
    9.1336e+59  -2.44621e+59   2.33898e+62  -2.75052e+67             0             0   2.75052e+67  -2.75052e+67             0             0            -0             0            -0
   1.02409e+60  -3.41498e+59   2.13214e+62  -2.75052e+67             0             0   2.75052e+67  -2.75052e+67             0             0            -0             0             0
   1.02409e+60  -3.41498e+59   2.13214e+62  -2.75052e+67             0             0   2.75052e+67  -2.75052e+67             0             0             0             0             0
   1.02409e+60  -3.41498e+59   2.13214e+62   2.75052e+67             0             0   2.75052e+67   2.75052e+67             0             0             0             0            -0
   1.02409e+60  -3.41498e+59   2.13214e+62   2.75052e+67             0             0   2.75052e+67   2.75052e+67             0             0            -0             0            -0
   1.02409e+60  -3.41498e+59   2.13214e+62   2.75051e+67             0             0   2.75051e+67   2.75051e+67             0             0            -0             0             0
   1.02409e+60  -3.41498e+59   2.13214e+62   2.75051e+67             0             0   2.75051e+67   2.75051e+67             0             0             0             0             0
   1.02409e+60  -3.41498e+59   2.13214e+62  -2.75051e+67             0             0   2.75051e+67  -2.75051e+67             0             0             0             0            -0
   1.02409e+60  -3.41498e+59   2.13214e+62  -2.75051e+67             0             0   2.75051e+67  -2.75051e+67             0             0            -0             0            -0
   1.13481e+60  -4.38374e+59    1.9253e+62  -2.75051e+67             0             0   2.75051e+67  -2.75051e+67             0             0            -0             0             0
   1.13481e+60  -4.38374e+59    1.9253e+62  -2.75051e+67             0             0   2.75051e+67  -2.75051e+67             0             0             0             0             0
   1.13481e+60  -4.38374e+59    1.9253e+62   2.75051e+67             0             0   2.75051e+67   2.75051e+67             0             0             0             0            -0
   1.13481e+60  -4.38374e+59    1.9253e+62   2.75051e+67             0             0   2.75051e+67   2.75051e+67             0             0            -0             0            -0
   1.13481e+60  -4.38374e+59    1.9253e+62   2.75052e+67             0             0   2.75052e+67   2.75052e+67             0             0            -0             0             0
   1.13481e+60  -4.38374e+59    1.9253e+62   2.75052e+67             0             0   2.75052e+67   2.75052e+67             0             0             0             0             0
   1.13481e+60  -4.38374e+59    1.9253e+62  -2.75052e+67             0             0   2.75052e+67  -2.75052e+67             0             0             0             0            -0
   1.13481e+60  -4.38374e+59    1.9253e+62  -2.75052e+67             0             0   2.75052e+67  -2.75052e+67             0             0            -0             0            -0
   1.24554e+60  -5.35251e+59   1.71846e+62  -2.75052e+67             0             0   2.75052e+67  -2.75052e+67             0             0            -0             0             0
   1.24554e+60  -5.35251e+59   1.71846e+62  -2.75052e+67             0             0   2.75052e+67  -2.75052e+67             0             0             0             0             0
   1.24554e+60  -5.35251e+59   1.71846e+62   2.75052e+67             0             0   2.75052e+67   2.75052e+67             0             0             0             0            -0
   1.24554e+60  -5.35251e+59   1.71846e+62   2.75052e+67             0             0   2.75052e+67   2.75052e+67             0             0            -0             0            -0
   1.24554e+60  -5.35251e+59   1.71846e+62   2.75051e+67             0             0   2.75051e+67   2.75051e+67             0             0            -0             0             0
   1.24554e+60  -5.35251e+59   1.71846e+62   2.75051e+67             0             0   2.75051e+67   2.75051e+67             0             0             0             0             0
   1.24554e+60  -5.35251e+59   1.71846e+62  -2.75051e+67             0             0   2.75051e+67  -2.75051e+67             0             0             0             0            -0
   1.24554e+60  -5.35251e+59   1.71846e+62  -2.75051e+67             0             0   2.75051e+67  -2.75051e+67             0             0            -0             0            -0
   1.35626e+60  -6.32126e+59   1.51163e+62  -2.75051e+67             0             0   2.75051e+67  -2.75051e+67             0             0            -0             0             0
   1.35626e+60  -6.32126e+59   1.51163e+62  -2.75051e+67             0             0   2.75051e+67  -2.75051e+67             0             0             0             0             0
   1.35626e+60  -6.32126e+59   1.51163e+62   2.75051e+67             0             0   2.75051e+67   2.75051e+67             0             0             0             0            -0
   1.35626e+60  -6.32126e+59   1.51163e+62   2.75051e+67             0             0   2.75051e+67   2.75051e+67             0             0            -0             0            -0
   1.35626e+60  -6.32126e+59   1.51163e+62   2.75052e+67             0             0   2.75052e+67   2.75052e+67             0             0            -0             0             0
   1.35626e+60  -6.32126e+59   1.51163e+62   2.75052e+67             0             0   2.75052e+67   2.75052e+67             0             0             0             0             0
   1.35626e+60  -6.32126e+59   1.51163e+62  -2.75052e+67             0             0   2.75052e+67  -2.75052e+67             0             0             0             0            -0
   1.35626e+60  -6.32126e+59   1.51163e+62  -2.75052e+67             0             0   2.75052e+67  -2.75052e+67             0             0            -0             0            -0
   1.46699e+60  -7.29003e+59   1.30479e+62  -2.75052e+67             0             0   2.75052e+67  -2.75052e+67             0             0            -0             0             0
   1.46699e+60  -7.29003e+59   1.30479e+62  -2.75052e+67             0             0   2.75052e+67  -2.75052e+67             0             0             0             0             0
   1.46699e+60  -7.29003e+59   1.30479e+62   2.75052e+67             0             0   2.75052e+67   2.75052e+67             0             0             0             0            -0
   1.46699e+60  -7.29003e+59   1.30479e+62   2.75052e+67             0             0   2.75052e+67   2.75052e+67             0             0            -0             0            -0
   1.46699e+60  -7.29003e+59   1.30479e+62   2.75051e+67             0             0   2.75051e+67   2.75051e+67             0             0            -0             0             0
   1.46699e+60  -7.29003e+59   1.30479e+62   2.75051e+67             0             0   2.75051e+67   2.75051e+67             0             0             0             0             0
   1.46699e+60  -7.29003e+59   1.30479e+62  -2.75051e+67             0             0   2.75051e+67  -2.75051e+67             0             0             0             0            -0
   1.46699e+60  -7.29003e+59   1.30479e+62  -2.75051e+67             0             0   2.75051e+67  -2.75051e+67             0             0            -0             0            -0
   1.57771e+60  -8.25879e+59   1.09795e+62  -2.75051e+67             0             0   2.75051e+67  -2.75051e+67             0             0            -0             0             0
   1.57771e+60  -8.25879e+59   1.09795e+62  -2.75051e+67             0             0   2.75051e+67  -2.75051e+67             0             0             0             0             0
   1.57771e+60  -8.25879e+59   1.09795e+62   2.75051e+67             0             0   2.75051e+67   2.75051e+67             0             0             0             0            -0
   1.57771e+60  -8.25879e+59   1.09795e+62   2.75051e+67             0             0   2.75051e+67   2.75051e+67             0             0            -0             0            -0
   1.57771e+60  -8.25879e+59   1.09795e+62   2.75052e+67             0             0   2.75052e+67   2.75052e+67             0             0            -0             0             0
   1.57771e+60  -8.25879e+59   1.09795e+62   2.75052e+67             0             0   2.75052e+67   2.75052e+67             0             0             0             0             0
   1.57771e+60  -8.25879e+59   1.09795e+62  -2.75052e+67             0             0   2.75052e+67  -2.75052e+67             0             0             0             0            -0
   1.57771e+60  -8.25879e+59   1.09795e+62  -2.75052e+67             0             0   2.75052e+67  -2.75052e+67             0             0            -0             0            -0
   1.68844e+60  -9.22756e+59    8.9111e+61  -2.75052e+67             0             0   2.75052e+67  -2.75052e+67             0             0            -0             0             0
   1.68844e+60  -9.22756e+59    8.9111e+61  -2.75052e+67             0             0   2.75052e+67  -2.75052e+67             0             0             0             0             0
   1.68844e+60  -9.22756e+59    8.9111e+61   2.75052e+67             0             0   2.75052e+67   2.75052e+67             0             0             0             0            -0
   1.68844e+60  -9.22756e+59    8.9111e+61   2.75052e+67             0             0   2.75052e+67   2.75052e+67             0             0            -0             0            -0
   1.68844e+60  -9.22756e+59    8.9111e+61   2.75051e+67             0             0   2.75051e+67   2.75051e+67             0             0            -0             0             0
   1.68844e+60  -9.22756e+59    8.9111e+61   2.75051e+67             0             0   2.75051e+67   2.75051e+67             0             0             0             0             0
   1.68844e+60  -9.22756e+59    8.9111e+61  -2.75051e+67             0             0   2.75051e+67  -2.75051e+67             0             0             0             0            -0
   1.68844e+60  -9.22756e+59    8.9111e+61  -2.75051e+67             0             0   2.75051e+67  -2.75051e+67             0             0            -0             0            -0
   1.79916e+60  -1.01963e+60   6.84273e+61  -2.75051e+67             0             0   2.75051e+67  -2.75051e+67             0             0            -0             0             0
   1.79916e+60  -1.01963e+60   6.84273e+61  -2.75051e+67             0             0   2.75051e+67  -2.75051e+67             0             0             0             0             0
   1.79916e+60  -1.01963e+60   6.84273e+61   2.75051e+67             0             0   2.75051e+67   2.75051e+67             0             0             0             0            -0
   1.79916e+60  -1.01963e+60   6.84273e+61   2.75051e+67             0             0   2.75051e+67   2.75051e+67             0             0            -0             0            -0
   1.79916e+60  -1.01963e+60   6.84273e+61   2.75052e+67             0             0   2.75052e+67   2.75052e+67             0             0            -0             0             0
   1.79916e+60  -1.01963e+60   6.84273e+61   2.75052e+67             0             0   2.75052e+67   2.75052e+67             0             0             0             0             0
   1.79916e+60  -1.01963e+60   6.84273e+61  -2.75052e+67             0             0   2.75052e+67  -2.75052e+67             0             0             0             0            -0
   1.79916e+60  -1.01963e+60   6.84273e+61  -2.75052e+67             0             0   2.75052e+67  -2.75052e+67             0             0            -0             0            -0
   1.90989e+60  -1.11651e+60   4.77434e+61  -2.75052e+67             0             0   2.75052e+67  -2.75052e+67             0             0            -0             0             0
   1.90989e+60  -1.11651e+60   4.77434e+61  -2.75052e+67             0             0   2.75052e+67  -2.75052e+67             0             0             0             0             0
   1.90989e+60  -1.11651e+60   4.77434e+61   2.75052e+67             0             0   2.75052e+67   2.75052e+67             0             0             0             0            -0
   1.90989e+60  -1.11651e+60   4.77434e+61   2.75052e+67             0             0   2.75052e+67   2.75052e+67             0             0            -0             0            -0
   1.90989e+60  -1.11651e+60   4.77434e+61   2.75051e+67             0             0   2.75051e+67   2.75051e+67             0             0            -0             0             0
   1.90989e+60  -1.11651e+60   4.77434e+61   2.75051e+67             0             0   2.75051e+67   2.75051e+67             0             0             0             0             0
   1.90989e+60  -1.11651e+60   4.77434e+61  -2.75051e+67             0             0   2.75051e+67  -2.75051e+67             0             0             0             0            -0
   1.90989e+60  -1.11651e+60   4.77434e+61  -2.75051e+67             0             0   2.75051e+67  -2.75051e+67             0             0            -0             0            -0
   2.02061e+60  -1.21338e+60   2.70596e+61  -2.75051e+67             0             0   2.75051e+67  -2.75051e+67             0             0            -0             0             0
   2.02061e+60  -1.21338e+60   2.70596e+61  -2.75051e+67             0             0   2.75051e+67  -2.75051e+67             0             0             0             0             0
   2.02061e+60  -1.21338e+60   2.70596e+61   2.75051e+67             0             0   2.75051e+67   2.75051e+67             0             0             0             0            -0
   2.02061e+60  -1.21338e+60   2.70596e+61   2.75051e+67             0             0   2.75051e+67   2.75051e+67             0             0            -0             0            -0
   2.02061e+60  -1.21338e+60   2.70596e+61   2.75052e+67             0             0   2.75052e+67   2.75052e+67             0             0            -0             0             0
   2.02061e+60  -1.21338e+60   2.70596e+61   2.75052e+67             0             0   2.75052e+67   2.75052e+67             0             0             0             0             0
   2.02061e+60  -1.21338e+60   2.70596e+61  -2.75052e+67             0             0   2.75052e+67  -2.75052e+67             0             0             0             0            -0
   2.02061e+60  -1.21338e+60   2.70596e+61  -2.75052e+67             0             0   2.75052e+67  -2.75052e+67             0             0            -0             0            -0
   2.13134e+60  -1.31026e+60   6.37566e+60  -2.75052e+67             0             0   2.75052e+67  -2.75052e+67             0             0            -0             0             0
   2.13134e+60  -1.31026e+60   6.37566e+60  -2.75052e+67             0             0   2.75052e+67  -2.75052e+67             0             0             0             0             0
   2.13134e+60  -1.31026e+60   6.37566e+60   2.75052e+67             0             0   2.75052e+67   2.75052e+67             0             0             0             0            -0
   2.13134e+60  -1.31026e+60   6.37566e+60   2.75052e+67             0             0   2.75052e+67   2.75052e+67             0             0            -0             0            -0
  -6.57526e+61   8.26542e+59   2.79276e+62   6.86749e+68             0             0   6.86749e+68   6.86749e+68             0             0            -0             0             0
  -6.57526e+61   8.26542e+59   2.79276e+62   6.86749e+68             0             0   6.86749e+68   6.86749e+68             0             0             0             0             0
  -6.57526e+61   8.26542e+59   2.79276e+62  -6.86749e+68             0             0   6.86749e+68  -6.86749e+68             0             0             0             0            -0
  -6.57526e+61   8.26542e+59   2.79276e+62  -6.86749e+68             0             0   6.86749e+68  -6.86749e+68             0             0            -0             0            -0
  -6.12271e+61   6.84089e+59   2.61083e+62  -6.86749e+68             0             0   6.86749e+68  -6.86749e+68             0             0            -0             0             0
  -6.12271e+61   6.84089e+59   2.61083e+62  -6.86749e+68             0             0   6.86749e+68  -6.86749e+68             0             0             0             0             0
  -6.12271e+61   6.84089e+59   2.61083e+62   6.86749e+68             0             0   6.86749e+68   6.86749e+68             0             0             0             0            -0
  -6.12271e+61   6.84089e+59   2.61083e+62   6.86749e+68             0             0   6.86749e+68   6.86749e+68             0             0            -0             0            -0
  -6.12271e+61   6.84089e+59   2.61083e+62   6.86758e+68             0             0   6.86758e+68   6.86758e+68             0             0            -0             0             0
  -6.12271e+61   6.84089e+59   2.61083e+62   6.86758e+68             0             0   6.86758e+68   6.86758e+68             0             0             0             0             0
  -6.12271e+61   6.84089e+59   2.61083e+62  -6.86758e+68             0             0   6.86758e+68  -6.86758e+68             0             0             0             0            -0
  -6.12271e+61   6.84089e+59   2.61083e+62  -6.86758e+68             0             0   6.86758e+68  -6.86758e+68             0             0            -0             0            -0
  -5.67014e+61   5.41635e+59   2.42889e+62  -6.86758e+68             0             0   6.86758e+68  -6.86758e+68             0             0            -0             0             0
  -5.67014e+61   5.41635e+59   2.42889e+62  -6.86758e+68             0             0   6.86758e+68  -6.86758e+68             0             0             0             0             0
  -5.67014e+61   5.41635e+59   2.42889e+62   6.86758e+68             0             0   6.86758e+68   6.86758e+68             0             0             0             0            -0
  -5.67014e+61   5.41635e+59   2.42889e+62   6.86758e+68             0             0   6.86758e+68   6.86758e+68             0             0            -0             0            -0
  -5.67014e+61   5.41635e+59   2.42889e+62   6.86749e+68             0             0   6.86749e+68   6.86749e+68             0             0            -0             0             0
  -5.67014e+61   5.41635e+59   2.42889e+62   6.86749e+68             0             0   6.86749e+68   6.86749e+68             0             0             0             0             0
  -5.67014e+61   5.41635e+59   2.42889e+62  -6.86749e+68             0             0   6.86749e+68  -6.86749e+68             0             0             0             0            -0
  -5.67014e+61   5.41635e+59   2.42889e+62  -6.86749e+68             0             0   6.86749e+68  -6.86749e+68             0             0            -0             0            -0
  -5.21758e+61   3.99182e+59   2.24696e+62  -6.86749e+68             0             0   6.86749e+68  -6.86749e+68             0             0            -0             0             0
  -5.21758e+61   3.99182e+59   2.24696e+62  -6.86749e+68             0             0   6.86749e+68  -6.86749e+68             0             0             0             0             0
  -5.21758e+61   3.99182e+59   2.24696e+62   6.86749e+68             0             0   6.86749e+68   6.86749e+68             0             0             0             0            -0
  -5.21758e+61   3.99182e+59   2.24696e+62   6.86749e+68             0             0   6.86749e+68   6.86749e+68             0             0            -0             0            -0
  -5.21758e+61   3.99182e+59   2.24696e+62   6.86749e+68             0             0   6.86749e+68   6.86749e+68             0             0            -0             0             0
  -5.21758e+61   3.99182e+59   2.24696e+62   6.86749e+68             0             0   6.86749e+68   6.86749e+68             0             0             0             0             0
  -5.21758e+61   3.99182e+59   2.24696e+62  -6.86749e+68             0             0   6.86749e+68  -6.86749e+68             0             0             0             0            -0
  -5.21758e+61   3.99182e+59   2.24696e+62  -6.86749e+68             0             0   6.86749e+68  -6.86749e+68             0             0            -0             0            -0
  -4.76503e+61   2.56728e+59   2.06503e+62  -6.86749e+68             0             0   6.86749e+68  -6.86749e+68             0             0            -0             0             0
  -4.76503e+61   2.56728e+59   2.06503e+62  -6.86749e+68             0             0   6.86749e+68  -6.86749e+68             0             0             0             0             0
  -4.76503e+61   2.56728e+59   2.06503e+62   6.86749e+68             0             0   6.86749e+68   6.86749e+68             0             0             0             0            -0
  -4.76503e+61   2.56728e+59   2.06503e+62   6.86749e+68             0             0   6.86749e+68   6.86749e+68             0             0            -0             0            -0
  -4.76503e+61   2.56728e+59   2.06503e+62   6.86758e+68             0             0   6.86758e+68   6.86758e+68             0             0            -0             0             0
  -4.76503e+61   2.56728e+59   2.06503e+62   6.86758e+68             0             0   6.86758e+68   6.86758e+68             0             0             0             0             0
  -4.76503e+61   2.56728e+59   2.06503e+62  -6.86758e+68             0             0   6.86758e+68  -6.86758e+68             0             0             0             0            -0
  -4.76503e+61   2.56728e+59   2.06503e+62  -6.86758e+68             0             0   6.86758e+68  -6.86758e+68             0             0            -0             0            -0
  -4.31246e+61   1.14274e+59   1.88309e+62  -6.86758e+68             0             0   6.86758e+68  -6.86758e+68             0             0            -0             0             0
  -4.31246e+61   1.14274e+59   1.88309e+62  -6.86758e+68             0             0   6.86758e+68  -6.86758e+68             0             0             0             0             0
  -4.31246e+61   1.14274e+59   1.88309e+62   6.86758e+68             0             0   6.86758e+68   6.86758e+68             0             0             0             0            -0
  -4.31246e+61   1.14274e+59   1.88309e+62   6.86758e+68             0             0   6.86758e+68   6.86758e+68             0             0            -0             0            -0
  -4.31246e+61   1.14274e+59   1.88309e+62   6.86749e+68             0             0   6.86749e+68   6.86749e+68             0             0            -0             0             0
  -4.31246e+61   1.14274e+59   1.88309e+62   6.86749e+68             0             0   6.86749e+68   6.86749e+68             0             0             0             0             0
  -4.31246e+61   1.14274e+59   1.88309e+62  -6.86749e+68             0             0   6.86749e+68  -6.86749e+68             0             0             0             0            -0
  -4.31246e+61   1.14274e+59   1.88309e+62  -6.86749e+68             0             0   6.86749e+68  -6.86749e+68             0             0            -0             0            -0
   -3.8599e+61  -2.81792e+58   1.70116e+62  -6.86749e+68             0             0   6.86749e+68  -6.86749e+68             0             0            -0             0             0
   -3.8599e+61  -2.81792e+58   1.70116e+62  -6.86749e+68             0             0   6.86749e+68  -6.86749e+68             0             0             0             0             0
   -3.8599e+61  -2.81792e+58   1.70116e+62   6.86749e+68             0             0   6.86749e+68   6.86749e+68             0             0             0             0            -0
   -3.8599e+61  -2.81792e+58   1.70116e+62   6.86749e+68             0             0   6.86749e+68   6.86749e+68             0             0            -0             0            -0
   -3.8599e+61  -2.81792e+58   1.70116e+62   6.86749e+68             0             0   6.86749e+68   6.86749e+68             0             0            -0             0             0
   -3.8599e+61  -2.81792e+58   1.70116e+62   6.86749e+68             0             0   6.86749e+68   6.86749e+68             0             0             0             0             0
   -3.8599e+61  -2.81792e+58   1.70116e+62  -6.86749e+68             0             0   6.86749e+68  -6.86749e+68             0             0             0             0            -0
   -3.8599e+61  -2.81792e+58   1.70116e+62  -6.86749e+68             0             0   6.86749e+68  -6.86749e+68             0             0            -0             0            -0
  -3.40735e+61  -1.70632e+59   1.51923e+62  -6.86749e+68             0             0   6.86749e+68  -6.86749e+68             0             0            -0             0             0
  -3.40735e+61  -1.70632e+59   1.51923e+62  -6.86749e+68             0             0   6.86749e+68  -6.86749e+68             0             0             0             0             0
  -3.40735e+61  -1.70632e+59   1.51923e+62   6.86749e+68             0             0   6.86749e+68   6.86749e+68             0             0             0             0            -0
  -3.40735e+61  -1.70632e+59   1.51923e+62   6.86749e+68             0             0   6.86749e+68   6.86749e+68             0             0            -0             0            -0
  -3.40735e+61  -1.70632e+59   1.51923e+62   6.86758e+68             0             0   6.86758e+68   6.86758e+68             0             0            -0             0             0
  -3.40735e+61  -1.70632e+59   1.51923e+62   6.86758e+68             0             0   6.86758e+68   6.86758e+68             0             0             0             0             0
  -3.40735e+61  -1.70632e+59   1.51923e+62  -6.86758e+68             0             0   6.86758e+68  -6.86758e+68             0             0             0             0            -0
  -3.40735e+61  -1.70632e+59   1.51923e+62  -6.86758e+68             0             0   6.86758e+68  -6.86758e+68             0             0            -0             0            -0
  -2.95478e+61  -3.13087e+59   1.33729e+62  -6.86758e+68             0             0   6.86758e+68  -6.86758e+68             0             0            -0             0             0
  -2.95478e+61  -3.13087e+59   1.33729e+62  -6.86758e+68             0             0   6.86758e+68  -6.86758e+68             0             0             0             0             0
  -2.95478e+61  -3.13087e+59   1.33729e+62   6.86758e+68             0             0   6.86758e+68   6.86758e+68             0             0             0             0            -0
  -2.95478e+61  -3.13087e+59   1.33729e+62   6.86758e+68             0             0   6.86758e+68   6.86758e+68             0             0            -0             0            -0
  -2.95478e+61  -3.13087e+59   1.33729e+62   6.86749e+68             0             0   6.86749e+68   6.86749e+68             0             0            -0             0             0
  -2.95478e+61  -3.13087e+59   1.33729e+62   6.86749e+68             0             0   6.86749e+68   6.86749e+68             0             0             0             0             0
  -2.95478e+61  -3.13087e+59   1.33729e+62  -6.86749e+68             0             0   6.86749e+68  -6.86749e+68             0             0             0             0            -0
  -2.95478e+61  -3.13087e+59   1.33729e+62  -6.86749e+68             0             0   6.86749e+68  -6.86749e+68             0             0            -0             0            -0
  -2.50222e+61   -4.5554e+59   1.15536e+62  -6.86749e+68             0             0   6.86749e+68  -6.86749e+68             0             0            -0             0             0
  -2.50222e+61   -4.5554e+59   1.15536e+62  -6.86749e+68             0             0   6.86749e+68  -6.86749e+68             0             0             0             0             0
  -2.50222e+61   -4.5554e+59   1.15536e+62   6.86749e+68             0             0   6.86749e+68   6.86749e+68             0             0             0             0            -0
  -2.50222e+61   -4.5554e+59   1.15536e+62   6.86749e+68             0             0   6.86749e+68   6.86749e+68             0             0            -0             0            -0
  -2.50222e+61   -4.5554e+59   1.15536e+62   6.86749e+68             0             0   6.86749e+68   6.86749e+68             0             0            -0             0             0
  -2.50222e+61   -4.5554e+59   1.15536e+62   6.86749e+68             0             0   6.86749e+68   6.86749e+68             0             0             0             0             0
  -2.50222e+61   -4.5554e+59   1.15536e+62  -6.86749e+68             0             0   6.86749e+68  -6.86749e+68             0             0             0             0            -0
  -2.50222e+61   -4.5554e+59   1.15536e+62  -6.86749e+68             0             0   6.86749e+68  -6.86749e+68             0             0            -0             0            -0
  -2.04967e+61  -5.97993e+59   9.73425e+61  -6.86749e+68             0             0   6.86749e+68  -6.86749e+68             0             0            -0             0             0
  -2.04967e+61  -5.97993e+59   9.73425e+61  -6.86749e+68             0             0   6.86749e+68  -6.86749e+68             0             0             0             0             0
  -2.04967e+61  -5.97993e+59   9.73425e+61   6.86749e+68             0             0   6.86749e+68   6.86749e+68             0             0             0             0            -0
  -2.04967e+61  -5.97993e+59   9.73425e+61   6.86749e+68             0             0   6.86749e+68   6.86749e+68             0             0            -0             0            -0
  -2.04967e+61  -5.97993e+59   9.73425e+61   6.86758e+68             0             0   6.86758e+68   6.86758e+68             0             0            -0             0             0
  -2.04967e+61  -5.97993e+59   9.73425e+61   6.86758e+68             0             0   6.86758e+68   6.86758e+68             0             0             0             0             0
  -2.04967e+61  -5.97993e+59   9.73425e+61  -6.86758e+68             0             0   6.86758e+68  -6.86758e+68             0             0             0             0            -0
  -2.04967e+61  -5.97993e+59   9.73425e+61  -6.86758e+68             0             0   6.86758e+68  -6.86758e+68             0             0            -0             0            -0
   -1.5971e+61  -7.40448e+59    7.9149e+61  -6.86758e+68             0             0   6.86758e+68  -6.86758e+68             0             0            -0             0             0
   -1.5971e+61  -7.40448e+59    7.9149e+61  -6.86758e+68             0             0   6.86758e+68  -6.86758e+68             0             0             0             0             0
   -1.5971e+61  -7.40448e+59    7.9149e+61   6.86758e+68             0             0   6.86758e+68   6.86758e+68             0             0             0             0            -0
   -1.5971e+61  -7.40448e+59    7.9149e+61   6.86758e+68             0             0   6.86758e+68   6.86758e+68             0             0            -0             0            -0
   -1.5971e+61  -7.40448e+59    7.9149e+61   6.86749e+68             0             0   6.86749e+68   6.86749e+68             0             0            -0             0             0
   -1.5971e+61  -7.40448e+59    7.9149e+61   6.86749e+68             0             0   6.86749e+68   6.86749e+68             0             0             0             0             0
   -1.5971e+61  -7.40448e+59    7.9149e+61  -6.86749e+68             0             0   6.86749e+68  -6.86749e+68             0             0             0             0            -0
   -1.5971e+61  -7.40448e+59    7.9149e+61  -6.86749e+68             0             0   6.86749e+68  -6.86749e+68             0             0            -0             0            -0
  -1.14455e+61  -8.82901e+59   6.09557e+61  -6.86749e+68             0             0   6.86749e+68  -6.86749e+68             0             0            -0             0             0
  -1.14455e+61  -8.82901e+59   6.09557e+61  -6.86749e+68             0             0   6.86749e+68  -6.86749e+68             0             0             0             0             0
  -1.14455e+61  -8.82901e+59   6.09557e+61   6.86749e+68             0             0   6.86749e+68   6.86749e+68             0             0             0             0            -0
  -1.14455e+61  -8.82901e+59   6.09557e+61   6.86749e+68             0             0   6.86749e+68   6.86749e+68             0             0            -0             0            -0
  -1.14455e+61  -8.82901e+59   6.09557e+61   6.86749e+68             0             0   6.86749e+68   6.86749e+68             0             0            -0             0             0
  -1.14455e+61  -8.82901e+59   6.09557e+61   6.86749e+68             0             0   6.86749e+68   6.86749e+68             0             0             0             0             0
  -1.14455e+61  -8.82901e+59   6.09557e+61  -6.86749e+68             0             0   6.86749e+68  -6.86749e+68             0             0             0             0            -0
  -1.14455e+61  -8.82901e+59   6.09557e+61  -6.86749e+68             0             0   6.86749e+68  -6.86749e+68             0             0            -0             0            -0
  -6.91989e+60  -1.02535e+60   4.27625e+61  -6.86749e+68             0             0   6.86749e+68  -6.86749e+68             0             0            -0             0             0
  -6.91989e+60  -1.02535e+60   4.27625e+61  -6.86749e+68             0             0   6.86749e+68  -6.86749e+68             0             0             0             0             0
  -6.91989e+60  -1.02535e+60   4.27625e+61   6.86749e+68             0             0   6.86749e+68   6.86749e+68             0             0             0             0            -0
  -6.91989e+60  -1.02535e+60   4.27625e+61   6.86749e+68             0             0   6.86749e+68   6.86749e+68             0             0            -0             0            -0
  -6.91989e+60  -1.02535e+60   4.27625e+61   6.86758e+68             0             0   6.86758e+68   6.86758e+68             0             0            -0             0             0
  -6.91989e+60  -1.02535e+60   4.27625e+61   6.86758e+68             0             0   6.86758e+68   6.86758e+68             0             0             0             0             0
  -6.91989e+60  -1.02535e+60   4.27625e+61  -6.86758e+68             0             0   6.86758e+68  -6.86758e+68             0             0             0             0            -0
  -6.91989e+60  -1.02535e+60   4.27625e+61  -6.86758e+68             0             0   6.86758e+68  -6.86758e+68             0             0            -0             0            -0
  -2.39422e+60  -1.16781e+60   2.45689e+61  -6.86758e+68             0             0   6.86758e+68  -6.86758e+68             0             0            -0             0             0
  -2.39422e+60  -1.16781e+60   2.45689e+61  -6.86758e+68             0             0   6.86758e+68  -6.86758e+68             0             0             0             0             0
  -2.39422e+60  -1.16781e+60   2.45689e+61   6.86758e+68             0             0   6.86758e+68   6.86758e+68             0             0             0             0            -0
  -2.39422e+60  -1.16781e+60   2.45689e+61   6.86758e+68             0             0   6.86758e+68   6.86758e+68             0             0            -0             0            -0
  -2.39422e+60  -1.16781e+60   2.45689e+61   6.86749e+68             0             0   6.86749e+68   6.86749e+68             0             0            -0             0             0
  -2.39422e+60  -1.16781e+60   2.45689e+61   6.86749e+68             0             0   6.86749e+68   6.86749e+68             0             0             0             0             0
  -2.39422e+60  -1.16781e+60   2.45689e+61  -6.86749e+68             0             0   6.86749e+68  -6.86749e+68             0             0             0             0            -0
  -2.39422e+60  -1.16781e+60   2.45689e+61  -6.86749e+68             0             0   6.86749e+68  -6.86749e+68             0             0            -0             0            -0
   2.13134e+60  -1.31026e+60   6.37566e+60  -6.86749e+68             0             0   6.86749e+68  -6.86749e+68             0             0            -0             0             0
   2.13134e+60  -1.31026e+60   6.37566e+60  -6.86749e+68             0             0   6.86749e+68  -6.86749e+68             0             0             0             0             0
   2.13134e+60  -1.31026e+60   6.37566e+60   6.86749e+68             0             0   6.86749e+68   6.86749e+68             0             0             0             0            -0
   2.13134e+60  -1.31026e+60   6.37566e+60   6.86749e+68             0             0   6.86749e+68   6.86749e+68             0             0            -0             0            -0
   1.00852e+61   -3.2978e+59   4.72279e+62   7.01558e+68             0             0   7.01558e+68   7.01558e+68             0             0            -0             0             0
   1.00852e+61   -3.2978e+59   4.72279e+62   7.01558e+68             0             0   7.01558e+68   7.01558e+68             0             0             0             0             0
   1.00852e+61   -3.2978e+59   4.72279e+62  -7.01558e+68             0             0   7.01558e+68  -7.01558e+68             0             0             0             0            -0
   1.00852e+61   -3.2978e+59   4.72279e+62  -7.01558e+68             0             0   7.01558e+68  -7.01558e+68             0             0            -0             0            -0
   5.02937e+60  -2.52693e+59   4.59412e+62  -7.01558e+68             0             0   7.01558e+68  -7.01558e+68             0             0            -0             0             0
   5.02937e+60  -2.52693e+59   4.59412e+62  -7.01558e+68             0             0   7.01558e+68  -7.01558e+68             0             0             0             0             0
   5.02937e+60  -2.52693e+59   4.59412e+62   7.01558e+68             0             0   7.01558e+68   7.01558e+68             0             0             0             0            -0
   5.02937e+60  -2.52693e+59   4.59412e+62   7.01558e+68             0             0   7.01558e+68   7.01558e+68             0             0            -0             0            -0
   5.02937e+60  -2.52693e+59   4.59412e+62   7.01561e+68             0             0   7.01561e+68   7.01561e+68             0             0            -0             0             0
   5.02937e+60  -2.52693e+59   4.59412e+62   7.01561e+68             0             0   7.01561e+68   7.01561e+68             0             0             0             0             0
   5.02937e+60  -2.52693e+59   4.59412e+62  -7.01561e+68             0             0   7.01561e+68  -7.01561e+68             0             0             0             0            -0
   5.02937e+60  -2.52693e+59   4.59412e+62  -7.01561e+68             0             0   7.01561e+68  -7.01561e+68             0             0            -0             0            -0
   -2.6532e+58  -1.75604e+59   4.46545e+62  -7.01561e+68             0             0   7.01561e+68  -7.01561e+68             0             0            -0             0             0
   -2.6532e+58  -1.75604e+59   4.46545e+62  -7.01561e+68             0             0   7.01561e+68  -7.01561e+68             0             0             0             0             0
   -2.6532e+58  -1.75604e+59   4.46545e+62   7.01561e+68             0             0   7.01561e+68   7.01561e+68             0             0             0             0            -0
   -2.6532e+58  -1.75604e+59   4.46545e+62   7.01561e+68             0             0   7.01561e+68   7.01561e+68             0             0            -0             0            -0
   -2.6532e+58  -1.75604e+59   4.46545e+62   7.01558e+68             0             0   7.01558e+68   7.01558e+68             0             0            -0             0             0
   -2.6532e+58  -1.75604e+59   4.46545e+62   7.01558e+68             0             0   7.01558e+68   7.01558e+68             0             0             0             0             0
   -2.6532e+58  -1.75604e+59   4.46545e+62  -7.01558e+68             0             0   7.01558e+68  -7.01558e+68             0             0             0             0            -0
   -2.6532e+58  -1.75604e+59   4.46545e+62  -7.01558e+68             0             0   7.01558e+68  -7.01558e+68             0             0            -0             0            -0
  -5.08236e+60  -9.85159e+58   4.33678e+62  -7.01558e+68             0             0   7.01558e+68  -7.01558e+68             0             0            -0             0             0
  -5.08236e+60  -9.85159e+58   4.33678e+62  -7.01558e+68             0             0   7.01558e+68  -7.01558e+68             0             0             0             0             0
  -5.08236e+60  -9.85159e+58   4.33678e+62   7.01558e+68             0             0   7.01558e+68   7.01558e+68             0             0             0             0            -0
  -5.08236e+60  -9.85159e+58   4.33678e+62   7.01558e+68             0             0   7.01558e+68   7.01558e+68             0             0            -0             0            -0
  -5.08236e+60  -9.85159e+58   4.33678e+62   7.01558e+68             0             0   7.01558e+68   7.01558e+68             0             0            -0             0             0
  -5.08236e+60  -9.85159e+58   4.33678e+62   7.01558e+68             0             0   7.01558e+68   7.01558e+68             0             0             0             0             0
  -5.08236e+60  -9.85159e+58   4.33678e+62  -7.01558e+68             0             0   7.01558e+68  -7.01558e+68             0             0             0             0            -0
  -5.08236e+60  -9.85159e+58   4.33678e+62  -7.01558e+68             0             0   7.01558e+68  -7.01558e+68             0             0            -0             0            -0
  -1.01382e+61   -2.1428e+58   4.20811e+62  -7.01558e+68             0             0   7.01558e+68  -7.01558e+68             0             0            -0             0             0
  -1.01382e+61   -2.1428e+58   4.20811e+62  -7.01558e+68             0             0   7.01558e+68  -7.01558e+68             0             0             0             0             0
  -1.01382e+61   -2.1428e+58   4.20811e+62   7.01558e+68             0             0   7.01558e+68   7.01558e+68             0             0             0             0            -0
  -1.01382e+61   -2.1428e+58   4.20811e+62   7.01558e+68             0             0   7.01558e+68   7.01558e+68             0             0            -0             0            -0
  -1.01382e+61   -2.1428e+58   4.20811e+62   7.01561e+68             0             0   7.01561e+68   7.01561e+68             0             0            -0             0             0
  -1.01382e+61   -2.1428e+58   4.20811e+62   7.01561e+68             0             0   7.01561e+68   7.01561e+68             0             0             0             0             0
  -1.01382e+61   -2.1428e+58   4.20811e+62  -7.01561e+68             0             0   7.01561e+68  -7.01561e+68             0             0             0             0            -0
  -1.01382e+61   -2.1428e+58   4.20811e+62  -7.01561e+68             0             0   7.01561e+68  -7.01561e+68             0             0            -0             0            -0
  -1.51941e+61   5.56608e+58   4.07944e+62  -7.01561e+68             0             0   7.01561e+68  -7.01561e+68             0             0            -0             0             0
  -1.51941e+61   5.56608e+58   4.07944e+62  -7.01561e+68             0             0   7.01561e+68  -7.01561e+68             0             0             0             0             0
  -1.51941e+61   5.56608e+58   4.07944e+62   7.01561e+68             0             0   7.01561e+68   7.01561e+68             0             0             0             0            -0
  -1.51941e+61   5.56608e+58   4.07944e+62   7.01561e+68             0             0   7.01561e+68   7.01561e+68             0             0            -0             0            -0
  -1.51941e+61   5.56608e+58   4.07944e+62   7.01558e+68             0             0   7.01558e+68   7.01558e+68             0             0            -0             0             0
  -1.51941e+61   5.56608e+58   4.07944e+62   7.01558e+68             0             0   7.01558e+68   7.01558e+68             0             0             0             0             0
  -1.51941e+61   5.56608e+58   4.07944e+62  -7.01558e+68             0             0   7.01558e+68  -7.01558e+68             0             0             0             0            -0
  -1.51941e+61   5.56608e+58   4.07944e+62  -7.01558e+68             0             0   7.01558e+68  -7.01558e+68             0             0            -0             0            -0
  -2.02499e+61   1.32749e+59   3.95078e+62  -7.01558e+68             0             0   7.01558e+68  -7.01558e+68             0             0            -0             0             0
  -2.02499e+61   1.32749e+59   3.95078e+62  -7.01558e+68             0             0   7.01558e+68  -7.01558e+68             0             0             0             0             0
  -2.02499e+61   1.32749e+59   3.95078e+62   7.01558e+68             0             0   7.01558e+68   7.01558e+68             0             0             0             0            -0
  -2.02499e+61   1.32749e+59   3.95078e+62   7.01558e+68             0             0   7.01558e+68   7.01558e+68             0             0            -0             0            -0
  -2.02499e+61   1.32749e+59   3.95078e+62   7.01558e+68             0             0   7.01558e+68   7.01558e+68             0             0            -0             0             0
  -2.02499e+61   1.32749e+59   3.95078e+62   7.01558e+68             0             0   7.01558e+68   7.01558e+68             0             0             0             0             0
  -2.02499e+61   1.32749e+59   3.95078e+62  -7.01558e+68             0             0   7.01558e+68  -7.01558e+68             0             0             0             0            -0
  -2.02499e+61   1.32749e+59   3.95078e+62  -7.01558e+68             0             0   7.01558e+68  -7.01558e+68             0             0            -0             0            -0
  -2.53058e+61   2.09837e+59   3.82211e+62  -7.01558e+68             0             0   7.01558e+68  -7.01558e+68             0             0            -0             0             0
  -2.53058e+61   2.09837e+59   3.82211e+62  -7.01558e+68             0             0   7.01558e+68  -7.01558e+68             0             0             0             0             0
  -2.53058e+61   2.09837e+59   3.82211e+62   7.01558e+68             0             0   7.01558e+68   7.01558e+68             0             0             0             0            -0
  -2.53058e+61   2.09837e+59   3.82211e+62   7.01558e+68             0             0   7.01558e+68   7.01558e+68             0             0            -0             0            -0
  -2.53058e+61   2.09837e+59   3.82211e+62   7.01561e+68             0             0   7.01561e+68   7.01561e+68             0             0            -0             0             0
  -2.53058e+61   2.09837e+59   3.82211e+62   7.01561e+68             0             0   7.01561e+68   7.01561e+68             0             0             0             0             0
  -2.53058e+61   2.09837e+59   3.82211e+62  -7.01561e+68             0             0   7.01561e+68  -7.01561e+68             0             0             0             0            -0
  -2.53058e+61   2.09837e+59   3.82211e+62  -7.01561e+68             0             0   7.01561e+68  -7.01561e+68             0             0            -0             0            -0
  -3.03617e+61   2.86925e+59   3.69344e+62  -7.01561e+68             0             0   7.01561e+68  -7.01561e+68             0             0            -0             0             0
  -3.03617e+61   2.86925e+59   3.69344e+62  -7.01561e+68             0             0   7.01561e+68  -7.01561e+68             0             0             0             0             0
  -3.03617e+61   2.86925e+59   3.69344e+62   7.01561e+68             0             0   7.01561e+68   7.01561e+68             0             0             0             0            -0
  -3.03617e+61   2.86925e+59   3.69344e+62   7.01561e+68             0             0   7.01561e+68   7.01561e+68             0             0            -0             0            -0
  -3.03617e+61   2.86925e+59   3.69344e+62   7.01558e+68             0             0   7.01558e+68   7.01558e+68             0             0            -0             0             0
  -3.03617e+61   2.86925e+59   3.69344e+62   7.01558e+68             0             0   7.01558e+68   7.01558e+68             0             0             0             0             0
  -3.03617e+61   2.86925e+59   3.69344e+62  -7.01558e+68             0             0   7.01558e+68  -7.01558e+68             0             0             0             0            -0
  -3.03617e+61   2.86925e+59   3.69344e+62  -7.01558e+68             0             0   7.01558e+68  -7.01558e+68             0             0            -0             0            -0
  -3.54175e+61   3.64013e+59   3.56477e+62  -7.01558e+68             0             0   7.01558e+68  -7.01558e+68             0             0            -0             0             0
  -3.54175e+61   3.64013e+59   3.56477e+62  -7.01558e+68             0             0   7.01558e+68  -7.01558e+68             0             0             0             0             0
  -3.54175e+61   3.64013e+59   3.56477e+62   7.01558e+68             0             0   7.01558e+68   7.01558e+68             0             0             0             0            -0
  -3.54175e+61   3.64013e+59   3.56477e+62   7.01558e+68             0             0   7.01558e+68   7.01558e+68             0             0            -0             0            -0
  -3.54175e+61   3.64013e+59   3.56477e+62   7.01558e+68             0             0   7.01558e+68   7.01558e+68             0             0            -0             0             0
  -3.54175e+61   3.64013e+59   3.56477e+62   7.01558e+68             0             0   7.01558e+68   7.01558e+68             0             0             0             0             0
  -3.54175e+61   3.64013e+59   3.56477e+62  -7.01558e+68             0             0   7.01558e+68  -7.01558e+68             0             0             0             0            -0
  -3.54175e+61   3.64013e+59   3.56477e+62  -7.01558e+68             0             0   7.01558e+68  -7.01558e+68             0             0            -0             0            -0
  -4.04733e+61   4.41101e+59    3.4361e+62  -7.01558e+68             0             0   7.01558e+68  -7.01558e+68             0             0            -0             0             0
  -4.04733e+61   4.41101e+59    3.4361e+62  -7.01558e+68             0             0   7.01558e+68  -7.01558e+68             0             0             0             0             0
  -4.04733e+61   4.41101e+59    3.4361e+62   7.01558e+68             0             0   7.01558e+68   7.01558e+68             0             0             0             0            -0
  -4.04733e+61   4.41101e+59    3.4361e+62   7.01558e+68             0             0   7.01558e+68   7.01558e+68             0             0            -0             0            -0
  -4.04733e+61   4.41101e+59    3.4361e+62   7.01561e+68             0             0   7.01561e+68   7.01561e+68             0             0            -0             0             0
  -4.04733e+61   4.41101e+59    3.4361e+62   7.01561e+68             0             0   7.01561e+68   7.01561e+68             0             0             0             0             0
  -4.04733e+61   4.41101e+59    3.4361e+62  -7.01561e+68             0             0   7.01561e+68  -7.01561e+68             0             0             0             0            -0
  -4.04733e+61   4.41101e+59    3.4361e+62  -7.01561e+68             0             0   7.01561e+68  -7.01561e+68             0             0            -0             0            -0
  -4.55292e+61    5.1819e+59   3.30743e+62  -7.01561e+68             0             0   7.01561e+68  -7.01561e+68             0             0            -0             0             0
  -4.55292e+61    5.1819e+59   3.30743e+62  -7.01561e+68             0             0   7.01561e+68  -7.01561e+68             0             0             0             0             0
  -4.55292e+61    5.1819e+59   3.30743e+62   7.01561e+68             0             0   7.01561e+68   7.01561e+68             0             0             0             0            -0
  -4.55292e+61    5.1819e+59   3.30743e+62   7.01561e+68             0             0   7.01561e+68   7.01561e+68             0             0            -0             0            -0
  -4.55292e+61    5.1819e+59   3.30743e+62   7.01558e+68             0             0   7.01558e+68   7.01558e+68             0             0            -0             0             0
  -4.55292e+61    5.1819e+59   3.30743e+62   7.01558e+68             0             0   7.01558e+68   7.01558e+68             0             0             0             0             0
  -4.55292e+61    5.1819e+59   3.30743e+62  -7.01558e+68             0             0   7.01558e+68  -7.01558e+68             0             0             0             0            -0
  -4.55292e+61    5.1819e+59   3.30743e+62  -7.01558e+68             0             0   7.01558e+68  -7.01558e+68             0             0            -0             0            -0
  -5.05851e+61   5.95278e+59   3.17877e+62  -7.01558e+68             0             0   7.01558e+68  -7.01558e+68             0             0            -0             0             0
  -5.05851e+61   5.95278e+59   3.17877e+62  -7.01558e+68             0             0   7.01558e+68  -7.01558e+68             0             0             0             0             0
  -5.05851e+61   5.95278e+59   3.17877e+62   7.01558e+68             0             0   7.01558e+68   7.01558e+68             0             0             0             0            -0
  -5.05851e+61   5.95278e+59   3.17877e+62   7.01558e+68             0             0   7.01558e+68   7.01558e+68             0             0            -0             0            -0
  -5.05851e+61   5.95278e+59   3.17877e+62   7.01558e+68             0             0   7.01558e+68   7.01558e+68             0             0            -0             0             0
  -5.05851e+61   5.95278e+59   3.17877e+62   7.01558e+68             0             0   7.01558e+68   7.01558e+68             0             0             0             0             0
  -5.05851e+61   5.95278e+59   3.17877e+62  -7.01558e+68             0             0   7.01558e+68  -7.01558e+68             0             0             0             0            -0
  -5.05851e+61   5.95278e+59   3.17877e+62  -7.01558e+68             0             0   7.01558e+68  -7.01558e+68             0             0            -0             0            -0
  -5.56409e+61   6.72366e+59    3.0501e+62  -7.01558e+68             0             0   7.01558e+68  -7.01558e+68             0             0            -0             0             0
  -5.56409e+61   6.72366e+59    3.0501e+62  -7.01558e+68             0             0   7.01558e+68  -7.01558e+68             0             0             0             0             0
  -5.56409e+61   6.72366e+59    3.0501e+62   7.01558e+68             0             0   7.01558e+68   7.01558e+68             0             0             0             0            -0
  -5.56409e+61   6.72366e+59    3.0501e+62   7.01558e+68             0             0   7.01558e+68   7.01558e+68             0             0            -0             0            -0
  -5.56409e+61   6.72366e+59    3.0501e+62   7.01561e+68             0             0   7.01561e+68   7.01561e+68             0             0            -0             0             0
  -5.56409e+61   6.72366e+59    3.0501e+62   7.01561e+68             0             0   7.01561e+68   7.01561e+68             0             0             0             0             0
  -5.56409e+61   6.72366e+59    3.0501e+62  -7.01561e+68             0             0   7.01561e+68  -7.01561e+68             0             0             0             0            -0
  -5.56409e+61   6.72366e+59    3.0501e+62  -7.01561e+68             0             0   7.01561e+68  -7.01561e+68             0             0            -0             0            -0
  -6.06968e+61   7.49454e+59   2.92143e+62  -7.01561e+68             0             0   7.01561e+68  -7.01561e+68             0             0            -0             0             0
  -6.06968e+61   7.49454e+59   2.92143e+62  -7.01561e+68             0             0   7.01561e+68  -7.01561e+68             0             0             0             0             0
  -6.06968e+61   7.49454e+59   2.92143e+62   7.01561e+68             0             0   7.01561e+68   7.01561e+68             0             0             0             0            -0
  -6.06968e+61   7.49454e+59   2.92143e+62   7.01561e+68             0             0   7.01561e+68   7.01561e+68             0             0            -0             0            -0
  -6.06968e+61   7.49454e+59   2.92143e+62   7.01558e+68             0             0   7.01558e+68   7.01558e+68             0             0            -0             0             0
  -6.06968e+61   7.49454e+59   2.92143e+62   7.01558e+68             0             0   7.01558e+68   7.01558e+68             0             0             0             0             0
  -6.06968e+61   7.49454e+59   2.92143e+62  -7.01558e+68             0             0   7.01558e+68  -7.01558e+68             0             0             0             0            -0
  -6.06968e+61   7.49454e+59   2.92143e+62  -7.01558e+68             0             0   7.01558e+68  -7.01558e+68             0             0            -0             0            -0
  -6.57526e+61   8.26542e+59   2.79276e+62  -7.01558e+68             0             0   7.01558e+68  -7.01558e+68             0             0            -0             0             0
  -6.57526e+61   8.26542e+59   2.79276e+62  -7.01558e+68             0             0   7.01558e+68  -7.01558e+68             0             0             0             0             0
  -6.57526e+61   8.26542e+59   2.79276e+62   7.01558e+68             0             0   7.01558e+68   7.01558e+68             0             0             0             0            -0
  -6.57526e+61   8.26542e+59   2.79276e+62   7.01558e+68             0             0   7.01558e+68   7.01558e+68             0             0            -0             0            -0
   1.00852e+61   -3.2978e+59   4.72279e+62   1.82004e+69             0             0   1.82004e+69   1.82004e+69             0             0            -0             0             0
   1.00852e+61   -3.2978e+59   4.72279e+62   1.82004e+69             0             0   1.82004e+69   1.82004e+69             0             0             0             0             0
   1.00852e+61   -3.2978e+59   4.72279e+62  -1.82004e+69             0             0   1.82004e+69  -1.82004e+69             0             0             0             0            -0
   1.00852e+61   -3.2978e+59   4.72279e+62  -1.82004e+69             0             0   1.82004e+69  -1.82004e+69             0             0            -0             0            -0
   4.03721e+60  -3.75689e+59   4.73954e+62  -1.82004e+69             0             0   1.82004e+69  -1.82004e+69             0             0            -0             0             0
   4.03721e+60  -3.75689e+59   4.73954e+62  -1.82004e+69             0             0   1.82004e+69  -1.82004e+69             0             0             0             0             0
   4.03721e+60  -3.75689e+59   4.73954e+62   1.82004e+69             0             0   1.82004e+69   1.82004e+69             0             0             0             0            -0
   4.03721e+60  -3.75689e+59   4.73954e+62   1.82004e+69             0             0   1.82004e+69   1.82004e+69             0             0            -0             0            -0
   4.03721e+60  -3.75689e+59   4.73954e+62   1.82004e+69             0             0   1.82004e+69   1.82004e+69             0             0            -0             0             0
   4.03721e+60  -3.75689e+59   4.73954e+62   1.82004e+69             0             0   1.82004e+69   1.82004e+69             0             0             0             0             0
   4.03721e+60  -3.75689e+59   4.73954e+62  -1.82004e+69             0             0   1.82004e+69  -1.82004e+69             0             0             0             0            -0
   4.03721e+60  -3.75689e+59   4.73954e+62  -1.82004e+69             0             0   1.82004e+69  -1.82004e+69             0             0            -0             0            -0
  -2.01077e+60  -4.21599e+59    4.7563e+62  -1.82004e+69             0             0   1.82004e+69  -1.82004e+69             0             0            -0             0             0
  -2.01077e+60  -4.21599e+59    4.7563e+62  -1.82004e+69             0             0   1.82004e+69  -1.82004e+69             0             0             0             0             0
  -2.01077e+60  -4.21599e+59    4.7563e+62   1.82004e+69             0             0   1.82004e+69   1.82004e+69             0             0             0             0            -0
  -2.01077e+60  -4.21599e+59    4.7563e+62   1.82004e+69             0             0   1.82004e+69   1.82004e+69             0             0            -0             0            -0
  -2.01077e+60  -4.21599e+59    4.7563e+62   1.82004e+69             0             0   1.82004e+69   1.82004e+69             0             0            -0             0             0
  -2.01077e+60  -4.21599e+59    4.7563e+62   1.82004e+69             0             0   1.82004e+69   1.82004e+69             0             0             0             0             0
  -2.01077e+60  -4.21599e+59    4.7563e+62  -1.82004e+69             0             0   1.82004e+69  -1.82004e+69             0             0             0             0            -0
  -2.01077e+60  -4.21599e+59    4.7563e+62  -1.82004e+69             0             0   1.82004e+69  -1.82004e+69             0             0            -0             0            -0
  -8.05876e+60  -4.67508e+59   4.77306e+62  -1.82004e+69             0             0   1.82004e+69  -1.82004e+69             0             0            -0             0             0
  -8.05876e+60  -4.67508e+59   4.77306e+62  -1.82004e+69             0             0   1.82004e+69  -1.82004e+69             0             0             0             0             0
  -8.05876e+60  -4.67508e+59   4.77306e+62   1.82004e+69             0             0   1.82004e+69   1.82004e+69             0             0             0             0            -0
  -8.05876e+60  -4.67508e+59   4.77306e+62   1.82004e+69             0             0   1.82004e+69   1.82004e+69             0             0            -0             0            -0
  -8.05876e+60  -4.67508e+59   4.77306e+62   1.82004e+69             0             0   1.82004e+69   1.82004e+69             0             0            -0             0             0
  -8.05876e+60  -4.67508e+59   4.77306e+62   1.82004e+69             0             0   1.82004e+69   1.82004e+69             0             0             0             0             0
  -8.05876e+60  -4.67508e+59   4.77306e+62  -1.82004e+69             0             0   1.82004e+69  -1.82004e+69             0             0             0             0            -0
  -8.05876e+60  -4.67508e+59   4.77306e+62  -1.82004e+69             0             0   1.82004e+69  -1.82004e+69             0             0            -0             0            -0
  -1.41067e+61  -5.13417e+59   4.78981e+62  -1.82004e+69             0             0   1.82004e+69  -1.82004e+69             0             0            -0             0             0
  -1.41067e+61  -5.13417e+59   4.78981e+62  -1.82004e+69             0             0   1.82004e+69  -1.82004e+69             0             0             0             0             0
  -1.41067e+61  -5.13417e+59   4.78981e+62   1.82004e+69             0             0   1.82004e+69   1.82004e+69             0             0             0             0            -0
  -1.41067e+61  -5.13417e+59   4.78981e+62   1.82004e+69             0             0   1.82004e+69   1.82004e+69             0             0            -0             0            -0
  -1.41067e+61  -5.13417e+59   4.78981e+62   1.82004e+69             0             0   1.82004e+69   1.82004e+69             0             0            -0             0             0
  -1.41067e+61  -5.13417e+59   4.78981e+62   1.82004e+69             0             0   1.82004e+69   1.82004e+69             0             0             0             0             0
  -1.41067e+61  -5.13417e+59   4.78981e+62  -1.82004e+69             0             0   1.82004e+69  -1.82004e+69             0             0             0             0            -0
  -1.41067e+61  -5.13417e+59   4.78981e+62  -1.82004e+69             0             0   1.82004e+69  -1.82004e+69             0             0            -0             0            -0
  -2.01547e+61  -5.59326e+59   4.80657e+62  -1.82004e+69             0             0   1.82004e+69  -1.82004e+69             0             0            -0             0             0
  -2.01547e+61  -5.59326e+59   4.80657e+62  -1.82004e+69             0             0   1.82004e+69  -1.82004e+69             0             0             0             0             0
  -2.01547e+61  -5.59326e+59   4.80657e+62   1.82004e+69             0             0   1.82004e+69   1.82004e+69             0             0             0             0            -0
  -2.01547e+61  -5.59326e+59   4.80657e+62   1.82004e+69             0             0   1.82004e+69   1.82004e+69             0             0            -0             0            -0
  -2.01547e+61  -5.59326e+59   4.80657e+62   1.82004e+69             0             0   1.82004e+69   1.82004e+69             0             0            -0             0             0
  -2.01547e+61  -5.59326e+59   4.80657e+62   1.82004e+69             0             0   1.82004e+69   1.82004e+69             0             0             0             0             0
  -2.01547e+61  -5.59326e+59   4.80657e+62  -1.82004e+69             0             0   1.82004e+69  -1.82004e+69             0             0             0             0            -0
  -2.01547e+61  -5.59326e+59   4.80657e+62  -1.82004e+69             0             0   1.82004e+69  -1.82004e+69             0             0            -0             0            -0
  -2.62027e+61  -6.05235e+59   4.82332e+62  -1.82004e+69             0             0   1.82004e+69  -1.82004e+69             0             0            -0             0             0
  -2.62027e+61  -6.05235e+59   4.82332e+62  -1.82004e+69             0             0   1.82004e+69  -1.82004e+69             0             0             0             0             0
  -2.62027e+61  -6.05235e+59   4.82332e+62   1.82004e+69             0             0   1.82004e+69   1.82004e+69             0             0             0             0            -0
  -2.62027e+61  -6.05235e+59   4.82332e+62   1.82004e+69             0             0   1.82004e+69   1.82004e+69             0             0            -0             0            -0
  -2.62027e+61  -6.05235e+59   4.82332e+62   1.82004e+69             0             0   1.82004e+69   1.82004e+69             0             0            -0             0             0
  -2.62027e+61  -6.05235e+59   4.82332e+62   1.82004e+69             0             0   1.82004e+69   1.82004e+69             0             0             0             0             0
  -2.62027e+61  -6.05235e+59   4.82332e+62  -1.82004e+69             0             0   1.82004e+69  -1.82004e+69             0             0             0             0            -0
  -2.62027e+61  -6.05235e+59   4.82332e+62  -1.82004e+69             0             0   1.82004e+69  -1.82004e+69             0             0            -0             0            -0
  -3.22507e+61  -6.51144e+59   4.84008e+62  -1.82004e+69             0             0   1.82004e+69  -1.82004e+69             0             0            -0             0             0
  -3.22507e+61  -6.51144e+59   4.84008e+62  -1.82004e+69             0             0   1.82004e+69  -1.82004e+69             0             0             0             0             0
  -3.22507e+61  -6.51144e+59   4.84008e+62   1.82004e+69             0             0   1.82004e+69   1.82004e+69             0             0             0             0            -0
  -3.22507e+61  -6.51144e+59   4.84008e+62   1.82004e+69             0             0   1.82004e+69   1.82004e+69             0             0            -0             0            -0
  -3.22507e+61  -6.51144e+59   4.84008e+62   1.82004e+69             0             0   1.82004e+69   1.82004e+69             0             0            -0             0             0
  -3.22507e+61  -6.51144e+59   4.84008e+62   1.82004e+69             0             0   1.82004e+69   1.82004e+69             0             0             0             0             0
  -3.22507e+61  -6.51144e+59   4.84008e+62  -1.82004e+69             0             0   1.82004e+69  -1.82004e+69             0             0             0             0            -0
  -3.22507e+61  -6.51144e+59   4.84008e+62  -1.82004e+69             0             0   1.82004e+69  -1.82004e+69             0             0            -0             0            -0
  -3.82987e+61  -6.97053e+59   4.85683e+62  -1.82004e+69             0             0   1.82004e+69  -1.82004e+69             0             0            -0             0             0
  -3.82987e+61  -6.97053e+59   4.85683e+62  -1.82004e+69             0             0   1.82004e+69  -1.82004e+69             0             0             0             0             0
  -3.82987e+61  -6.97053e+59   4.85683e+62   1.82004e+69             0             0   1.82004e+69   1.82004e+69             0             0             0             0            -0
  -3.82987e+61  -6.97053e+59   4.85683e+62   1.82004e+69             0             0   1.82004e+69   1.82004e+69             0             0            -0             0            -0
  -6.57526e+61   8.26542e+59   2.79276e+62   2.51335e+69             0             0   2.51335e+69   2.51335e+69             0             0            -0             0             0
  -6.57526e+61   8.26542e+59   2.79276e+62   2.51335e+69             0             0   2.51335e+69   2.51335e+69             0             0             0             0             0
  -6.57526e+61   8.26542e+59   2.79276e+62  -2.51335e+69             0             0   2.51335e+69  -2.51335e+69             0             0             0             0            -0
  -6.57526e+61   8.26542e+59   2.79276e+62  -2.51335e+69             0             0   2.51335e+69  -2.51335e+69             0             0            -0             0            -0
  -5.74471e+61   7.16866e+59   2.78775e+62  -2.51335e+69             0             0   2.51335e+69  -2.51335e+69             0             0            -0             0             0
  -5.74471e+61   7.16866e+59   2.78775e+62  -2.51335e+69             0             0   2.51335e+69  -2.51335e+69             0             0             0             0             0
  -5.74471e+61   7.16866e+59   2.78775e+62   2.51335e+69             0             0   2.51335e+69   2.51335e+69             0             0             0             0            -0
  -5.74471e+61   7.16866e+59   2.78775e+62   2.51335e+69             0             0   2.51335e+69   2.51335e+69             0             0            -0             0            -0
  -5.74471e+61   7.16866e+59   2.78775e+62   2.51335e+69             0             0   2.51335e+69   2.51335e+69             0             0            -0             0             0
  -5.74471e+61   7.16866e+59   2.78775e+62   2.51335e+69             0             0   2.51335e+69   2.51335e+69             0             0             0             0             0
  -5.74471e+61   7.16866e+59   2.78775e+62  -2.51335e+69             0             0   2.51335e+69  -2.51335e+69             0             0             0             0            -0
  -5.74471e+61   7.16866e+59   2.78775e+62  -2.51335e+69             0             0   2.51335e+69  -2.51335e+69             0             0            -0             0            -0
  -4.91415e+61    6.0719e+59   2.78273e+62  -2.51335e+69             0             0   2.51335e+69  -2.51335e+69             0             0            -0             0             0
  -4.91415e+61    6.0719e+59   2.78273e+62  -2.51335e+69             0             0   2.51335e+69  -2.51335e+69             0             0             0             0             0
  -4.91415e+61    6.0719e+59   2.78273e+62   2.51335e+69             0             0   2.51335e+69   2.51335e+69             0             0             0             0            -0
  -4.91415e+61    6.0719e+59   2.78273e+62   2.51335e+69             0             0   2.51335e+69   2.51335e+69             0             0            -0             0            -0
  -4.91415e+61    6.0719e+59   2.78273e+62   2.51335e+69             0             0   2.51335e+69   2.51335e+69             0             0            -0             0             0
  -4.91415e+61    6.0719e+59   2.78273e+62   2.51335e+69             0             0   2.51335e+69   2.51335e+69             0             0             0             0             0
  -4.91415e+61    6.0719e+59   2.78273e+62  -2.51335e+69             0             0   2.51335e+69  -2.51335e+69             0             0             0             0            -0
  -4.91415e+61    6.0719e+59   2.78273e+62  -2.51335e+69             0             0   2.51335e+69  -2.51335e+69             0             0            -0             0            -0
  -4.08359e+61   4.97513e+59   2.77772e+62  -2.51335e+69             0             0   2.51335e+69  -2.51335e+69             0             0            -0             0             0
  -4.08359e+61   4.97513e+59   2.77772e+62  -2.51335e+69             0             0   2.51335e+69  -2.51335e+69             0             0             0             0             0
  -4.08359e+61   4.97513e+59   2.77772e+62   2.51335e+69             0             0   2.51335e+69   2.51335e+69             0             0             0             0            -0
  -4.08359e+61   4.97513e+59   2.77772e+62   2.51335e+69             0             0   2.51335e+69   2.51335e+69             0             0            -0             0            -0
  -4.08359e+61   4.97513e+59   2.77772e+62   2.51335e+69             0             0   2.51335e+69   2.51335e+69             0             0            -0             0             0
  -4.08359e+61   4.97513e+59   2.77772e+62   2.51335e+69             0             0   2.51335e+69   2.51335e+69             0             0             0             0             0
  -4.08359e+61   4.97513e+59   2.77772e+62  -2.51335e+69             0             0   2.51335e+69  -2.51335e+69             0             0             0             0            -0
  -4.08359e+61   4.97513e+59   2.77772e+62  -2.51335e+69             0             0   2.51335e+69  -2.51335e+69             0             0            -0             0            -0
  -3.25304e+61   3.87837e+59   2.77271e+62  -2.51335e+69             0             0   2.51335e+69  -2.51335e+69             0             0            -0             0             0
  -3.25304e+61   3.87837e+59   2.77271e+62  -2.51335e+69             0             0   2.51335e+69  -2.51335e+69             0             0             0             0             0
  -3.25304e+61   3.87837e+59   2.77271e+62   2.51335e+69             0             0   2.51335e+69   2.51335e+69             0             0             0             0            -0
  -3.25304e+61   3.87837e+59   2.77271e+62   2.51335e+69             0             0   2.51335e+69   2.51335e+69             0             0            -0             0            -0
  -3.25304e+61   3.87837e+59   2.77271e+62   2.51335e+69             0             0   2.51335e+69   2.51335e+69             0             0            -0             0             0
  -3.25304e+61   3.87837e+59   2.77271e+62   2.51335e+69             0             0   2.51335e+69   2.51335e+69             0             0             0             0             0
  -3.25304e+61   3.87837e+59   2.77271e+62  -2.51335e+69             0             0   2.51335e+69  -2.51335e+69             0             0             0             0            -0
  -3.25304e+61   3.87837e+59   2.77271e+62  -2.51335e+69             0             0   2.51335e+69  -2.51335e+69             0             0            -0             0            -0
  -2.42248e+61   2.78161e+59    2.7677e+62  -2.51335e+69             0             0   2.51335e+69  -2.51335e+69             0             0            -0             0             0
  -2.42248e+61   2.78161e+59    2.7677e+62  -2.51335e+69             0             0   2.51335e+69  -2.51335e+69             0             0             0             0             0
  -2.42248e+61   2.78161e+59    2.7677e+62   2.51335e+69             0             0   2.51335e+69   2.51335e+69             0             0             0             0            -0
  -2.42248e+61   2.78161e+59    2.7677e+62   2.51335e+69             0             0   2.51335e+69   2.51335e+69             0             0            -0             0            -0
  -2.42248e+61   2.78161e+59    2.7677e+62   2.51335e+69             0             0   2.51335e+69   2.51335e+69             0             0            -0             0             0
  -2.42248e+61   2.78161e+59    2.7677e+62   2.51335e+69             0             0   2.51335e+69   2.51335e+69             0             0             0             0             0
  -2.42248e+61   2.78161e+59    2.7677e+62  -2.51335e+69             0             0   2.51335e+69  -2.51335e+69             0             0             0             0            -0
  -2.42248e+61   2.78161e+59    2.7677e+62  -2.51335e+69             0             0   2.51335e+69  -2.51335e+69             0             0            -0             0            -0
  -1.59192e+61   1.68484e+59   2.76268e+62  -2.51335e+69             0             0   2.51335e+69  -2.51335e+69             0             0            -0             0             0
  -1.59192e+61   1.68484e+59   2.76268e+62  -2.51335e+69             0             0   2.51335e+69  -2.51335e+69             0             0             0             0             0
  -1.59192e+61   1.68484e+59   2.76268e+62   2.51335e+69             0             0   2.51335e+69   2.51335e+69             0             0             0             0            -0
  -1.59192e+61   1.68484e+59   2.76268e+62   2.51335e+69             0             0   2.51335e+69   2.51335e+69             0             0            -0             0            -0
  -1.59192e+61   1.68484e+59   2.76268e+62   2.51335e+69             0             0   2.51335e+69   2.51335e+69             0             0            -0             0             0
  -1.59192e+61   1.68484e+59   2.76268e+62   2.51335e+69             0             0   2.51335e+69   2.51335e+69             0             0             0             0             0
  -1.59192e+61   1.68484e+59   2.76268e+62  -2.51335e+69             0             0   2.51335e+69  -2.51335e+69             0             0             0             0            -0
  -1.59192e+61   1.68484e+59   2.76268e+62  -2.51335e+69             0             0   2.51335e+69  -2.51335e+69             0             0            -0             0            -0
  -7.61366e+60   5.88079e+58   2.75767e+62  -2.51335e+69             0             0   2.51335e+69  -2.51335e+69             0             0            -0             0             0
  -7.61366e+60   5.88079e+58   2.75767e+62  -2.51335e+69             0             0   2.51335e+69  -2.51335e+69             0             0             0             0             0
  -7.61366e+60   5.88079e+58   2.75767e+62   2.51335e+69             0             0   2.51335e+69   2.51335e+69             0             0             0             0            -0
  -7.61366e+60   5.88079e+58   2.75767e+62   2.51335e+69             0             0   2.51335e+69   2.51335e+69             0             0            -0             0            -0
  -7.61366e+60   5.88079e+58   2.75767e+62   2.51335e+69             0             0   2.51335e+69   2.51335e+69             0             0            -0             0             0
  -7.61366e+60   5.88079e+58   2.75767e+62   2.51335e+69             0             0   2.51335e+69   2.51335e+69             0             0             0             0             0
  -7.61366e+60   5.88079e+58   2.75767e+62  -2.51335e+69             0             0   2.51335e+69  -2.51335e+69             0             0             0             0            -0
  -7.61366e+60   5.88079e+58   2.75767e+62  -2.51335e+69             0             0   2.51335e+69  -2.51335e+69             0             0            -0             0            -0
   6.91909e+59  -5.08684e+58   2.75266e+62  -2.51335e+69             0             0   2.51335e+69  -2.51335e+69             0             0            -0             0             0
   6.91909e+59  -5.08684e+58   2.75266e+62  -2.51335e+69             0             0   2.51335e+69  -2.51335e+69             0             0             0             0             0
   6.91909e+59  -5.08684e+58   2.75266e+62   2.51335e+69             0             0   2.51335e+69   2.51335e+69             0             0             0             0            -0
   6.91909e+59  -5.08684e+58   2.75266e+62   2.51335e+69             0             0   2.51335e+69   2.51335e+69             0             0            -0             0            -0
   -3.1391e+61  -6.92246e+59   5.76451e+62   3.88689e+68             0             0   3.88689e+68   3.88689e+68             0             0            -0             0             0
   -3.1391e+61  -6.92246e+59   5.76451e+62   3.88689e+68             0             0   3.88689e+68   3.88689e+68             0             0             0             0             0
   -3.1391e+61  -6.92246e+59   5.76451e+62  -3.88689e+68             0             0   3.88689e+68  -3.88689e+68             0             0             0             0            -0
   -3.1391e+61  -6.92246e+59   5.76451e+62  -3.88689e+68             0             0   3.88689e+68  -3.88689e+68             0             0            -0             0            -0
  -2.86259e+61  -6.68081e+59   5.69506e+62  -3.88689e+68             0             0   3.88689e+68  -3.88689e+68             0             0            -0             0             0
  -2.86259e+61  -6.68081e+59   5.69506e+62  -3.88689e+68             0             0   3.88689e+68  -3.88689e+68             0             0             0             0             0
  -2.86259e+61  -6.68081e+59   5.69506e+62   3.88689e+68             0             0   3.88689e+68   3.88689e+68             0             0             0             0            -0
  -2.86259e+61  -6.68081e+59   5.69506e+62   3.88689e+68             0             0   3.88689e+68   3.88689e+68             0             0            -0             0            -0
  -2.86259e+61  -6.68081e+59   5.69506e+62   3.88688e+68             0             0   3.88688e+68   3.88688e+68             0             0            -0             0             0
  -2.86259e+61  -6.68081e+59   5.69506e+62   3.88688e+68             0             0   3.88688e+68   3.88688e+68             0             0             0             0             0
  -2.86259e+61  -6.68081e+59   5.69506e+62  -3.88688e+68             0             0   3.88688e+68  -3.88688e+68             0             0             0             0            -0
  -2.86259e+61  -6.68081e+59   5.69506e+62  -3.88688e+68             0             0   3.88688e+68  -3.88688e+68             0             0            -0             0            -0
  -2.58608e+61  -6.43917e+59   5.62561e+62  -3.88688e+68             0             0   3.88688e+68  -3.88688e+68             0             0            -0             0             0
  -2.58608e+61  -6.43917e+59   5.62561e+62  -3.88688e+68             0             0   3.88688e+68  -3.88688e+68             0             0             0             0             0
  -2.58608e+61  -6.43917e+59   5.62561e+62   3.88688e+68             0             0   3.88688e+68   3.88688e+68             0             0             0             0            -0
  -2.58608e+61  -6.43917e+59   5.62561e+62   3.88688e+68             0             0   3.88688e+68   3.88688e+68             0             0            -0             0            -0
  -2.58608e+61  -6.43917e+59   5.62561e+62   3.88689e+68             0             0   3.88689e+68   3.88689e+68             0             0            -0             0             0
  -2.58608e+61  -6.43917e+59   5.62561e+62   3.88689e+68             0             0   3.88689e+68   3.88689e+68             0             0             0             0             0
  -2.58608e+61  -6.43917e+59   5.62561e+62  -3.88689e+68             0             0   3.88689e+68  -3.88689e+68             0             0             0             0            -0
  -2.58608e+61  -6.43917e+59   5.62561e+62  -3.88689e+68             0             0   3.88689e+68  -3.88689e+68             0             0            -0             0            -0
  -2.30957e+61  -6.19753e+59   5.55616e+62  -3.88689e+68             0             0   3.88689e+68  -3.88689e+68             0             0            -0             0             0
  -2.30957e+61  -6.19753e+59   5.55616e+62  -3.88689e+68             0             0   3.88689e+68  -3.88689e+68             0             0             0             0             0
  -2.30957e+61  -6.19753e+59   5.55616e+62   3.88689e+68             0             0   3.88689e+68   3.88689e+68             0             0             0             0            -0
  -2.30957e+61  -6.19753e+59   5.55616e+62   3.88689e+68             0             0   3.88689e+68   3.88689e+68             0             0            -0             0            -0
  -2.30957e+61  -6.19753e+59   5.55616e+62   3.88689e+68             0             0   3.88689e+68   3.88689e+68             0             0            -0             0             0
  -2.30957e+61  -6.19753e+59   5.55616e+62   3.88689e+68             0             0   3.88689e+68   3.88689e+68             0             0             0             0             0
  -2.30957e+61  -6.19753e+59   5.55616e+62  -3.88689e+68             0             0   3.88689e+68  -3.88689e+68             0             0             0             0            -0
  -2.30957e+61  -6.19753e+59   5.55616e+62  -3.88689e+68             0             0   3.88689e+68  -3.88689e+68             0             0            -0             0            -0
  -2.03307e+61  -5.95588e+59   5.48671e+62  -3.88689e+68             0             0   3.88689e+68  -3.88689e+68             0             0            -0             0             0
  -2.03307e+61  -5.95588e+59   5.48671e+62  -3.88689e+68             0             0   3.88689e+68  -3.88689e+68             0             0             0             0             0
  -2.03307e+61  -5.95588e+59   5.48671e+62   3.88689e+68             0             0   3.88689e+68   3.88689e+68             0             0             0             0            -0
  -2.03307e+61  -5.95588e+59   5.48671e+62   3.88689e+68             0             0   3.88689e+68   3.88689e+68             0             0            -0             0            -0
  -2.03307e+61  -5.95588e+59   5.48671e+62   3.88688e+68             0             0   3.88688e+68   3.88688e+68             0             0            -0             0             0
  -2.03307e+61  -5.95588e+59   5.48671e+62   3.88688e+68             0             0   3.88688e+68   3.88688e+68             0             0             0             0             0
  -2.03307e+61  -5.95588e+59   5.48671e+62  -3.88688e+68             0             0   3.88688e+68  -3.88688e+68             0             0             0             0            -0
  -2.03307e+61  -5.95588e+59   5.48671e+62  -3.88688e+68             0             0   3.88688e+68  -3.88688e+68             0             0            -0             0            -0
  -1.75656e+61  -5.71424e+59   5.41727e+62  -3.88688e+68             0             0   3.88688e+68  -3.88688e+68             0             0            -0             0             0
  -1.75656e+61  -5.71424e+59   5.41727e+62  -3.88688e+68             0             0   3.88688e+68  -3.88688e+68             0             0             0             0             0
  -1.75656e+61  -5.71424e+59   5.41727e+62   3.88688e+68             0             0   3.88688e+68   3.88688e+68             0             0             0             0            -0
  -1.75656e+61  -5.71424e+59   5.41727e+62   3.88688e+68             0             0   3.88688e+68   3.88688e+68             0             0            -0             0            -0
  -1.75656e+61  -5.71424e+59   5.41727e+62   3.88689e+68             0             0   3.88689e+68   3.88689e+68             0             0            -0             0             0
  -1.75656e+61  -5.71424e+59   5.41727e+62   3.88689e+68             0             0   3.88689e+68   3.88689e+68             0             0             0             0             0
  -1.75656e+61  -5.71424e+59   5.41727e+62  -3.88689e+68             0             0   3.88689e+68  -3.88689e+68             0             0             0             0            -0
  -1.75656e+61  -5.71424e+59   5.41727e+62  -3.88689e+68             0             0   3.88689e+68  -3.88689e+68             0             0            -0             0            -0
  -1.48005e+61   -5.4726e+59   5.34782e+62  -3.88689e+68             0             0   3.88689e+68  -3.88689e+68             0             0            -0             0             0
  -1.48005e+61   -5.4726e+59   5.34782e+62  -3.88689e+68             0             0   3.88689e+68  -3.88689e+68             0             0             0             0             0
  -1.48005e+61   -5.4726e+59   5.34782e+62   3.88689e+68             0             0   3.88689e+68   3.88689e+68             0             0             0             0            -0
  -1.48005e+61   -5.4726e+59   5.34782e+62   3.88689e+68             0             0   3.88689e+68   3.88689e+68             0             0            -0             0            -0
  -1.48005e+61   -5.4726e+59   5.34782e+62   3.88689e+68             0             0   3.88689e+68   3.88689e+68             0             0            -0             0             0
  -1.48005e+61   -5.4726e+59   5.34782e+62   3.88689e+68             0             0   3.88689e+68   3.88689e+68             0             0             0             0             0
  -1.48005e+61   -5.4726e+59   5.34782e+62  -3.88689e+68             0             0   3.88689e+68  -3.88689e+68             0             0             0             0            -0
  -1.48005e+61   -5.4726e+59   5.34782e+62  -3.88689e+68             0             0   3.88689e+68  -3.88689e+68             0             0            -0             0            -0
  -1.20354e+61  -5.23095e+59   5.27837e+62  -3.88689e+68             0             0   3.88689e+68  -3.88689e+68             0             0            -0             0             0
  -1.20354e+61  -5.23095e+59   5.27837e+62  -3.88689e+68             0             0   3.88689e+68  -3.88689e+68             0             0             0             0             0
  -1.20354e+61  -5.23095e+59   5.27837e+62   3.88689e+68             0             0   3.88689e+68   3.88689e+68             0             0             0             0            -0
  -1.20354e+61  -5.23095e+59   5.27837e+62   3.88689e+68             0             0   3.88689e+68   3.88689e+68             0             0            -0             0            -0
  -1.20354e+61  -5.23095e+59   5.27837e+62   3.88688e+68             0             0   3.88688e+68   3.88688e+68             0             0            -0             0             0
  -1.20354e+61  -5.23095e+59   5.27837e+62   3.88688e+68             0             0   3.88688e+68   3.88688e+68             0             0             0             0             0
  -1.20354e+61  -5.23095e+59   5.27837e+62  -3.88688e+68             0             0   3.88688e+68  -3.88688e+68             0             0             0             0            -0
  -1.20354e+61  -5.23095e+59   5.27837e+62  -3.88688e+68             0             0   3.88688e+68  -3.88688e+68             0             0            -0             0            -0
  -9.27036e+60  -4.98931e+59   5.20892e+62  -3.88688e+68             0             0   3.88688e+68  -3.88688e+68             0             0            -0             0             0
  -9.27036e+60  -4.98931e+59   5.20892e+62  -3.88688e+68             0             0   3.88688e+68  -3.88688e+68             0             0             0             0             0
  -9.27036e+60  -4.98931e+59   5.20892e+62   3.88688e+68             0             0   3.88688e+68   3.88688e+68             0             0             0             0            -0
  -9.27036e+60  -4.98931e+59   5.20892e+62   3.88688e+68             0             0   3.88688e+68   3.88688e+68             0             0            -0             0            -0
  -9.27036e+60  -4.98931e+59   5.20892e+62   3.88689e+68             0             0   3.88689e+68   3.88689e+68             0             0            -0             0             0
  -9.27036e+60  -4.98931e+59   5.20892e+62   3.88689e+68             0             0   3.88689e+68   3.88689e+68             0             0             0             0             0
  -9.27036e+60  -4.98931e+59   5.20892e+62  -3.88689e+68             0             0   3.88689e+68  -3.88689e+68             0             0             0             0            -0
  -9.27036e+60  -4.98931e+59   5.20892e+62  -3.88689e+68             0             0   3.88689e+68  -3.88689e+68             0             0            -0             0            -0
  -6.50527e+60  -4.74767e+59   5.13948e+62  -3.88689e+68             0             0   3.88689e+68  -3.88689e+68             0             0            -0             0             0
  -6.50527e+60  -4.74767e+59   5.13948e+62  -3.88689e+68             0             0   3.88689e+68  -3.88689e+68             0             0             0             0             0
  -6.50527e+60  -4.74767e+59   5.13948e+62   3.88689e+68             0             0   3.88689e+68   3.88689e+68             0             0             0             0            -0
  -6.50527e+60  -4.74767e+59   5.13948e+62   3.88689e+68             0             0   3.88689e+68   3.88689e+68             0             0            -0             0            -0
  -6.50527e+60  -4.74767e+59   5.13948e+62   3.88688e+68             0             0   3.88688e+68   3.88688e+68             0             0            -0             0             0
  -6.50527e+60  -4.74767e+59   5.13948e+62   3.88688e+68             0             0   3.88688e+68   3.88688e+68             0             0             0             0             0
  -6.50527e+60  -4.74767e+59   5.13948e+62  -3.88688e+68             0             0   3.88688e+68  -3.88688e+68             0             0             0             0            -0
  -6.50527e+60  -4.74767e+59   5.13948e+62  -3.88688e+68             0             0   3.88688e+68  -3.88688e+68             0             0            -0             0            -0
   -3.7402e+60  -4.50602e+59   5.07003e+62  -3.88688e+68             0             0   3.88688e+68  -3.88688e+68             0             0            -0             0             0
   -3.7402e+60  -4.50602e+59   5.07003e+62  -3.88688e+68             0             0   3.88688e+68  -3.88688e+68             0             0             0             0             0
   -3.7402e+60  -4.50602e+59   5.07003e+62   3.88688e+68             0             0   3.88688e+68   3.88688e+68             0             0             0             0            -0
   -3.7402e+60  -4.50602e+59   5.07003e+62   3.88688e+68             0             0   3.88688e+68   3.88688e+68             0             0            -0             0            -0
   -3.7402e+60  -4.50602e+59   5.07003e+62    3.8869e+68             0             0    3.8869e+68    3.8869e+68             0             0            -0             0             0
   -3.7402e+60  -4.50602e+59   5.07003e+62    3.8869e+68             0             0    3.8869e+68    3.8869e+68             0             0             0             0             0
   -3.7402e+60  -4.50602e+59   5.07003e+62   -3.8869e+68             0             0    3.8869e+68   -3.8869e+68             0             0             0             0            -0
   -3.7402e+60  -4.50602e+59   5.07003e+62   -3.8869e+68             0             0    3.8869e+68   -3.8869e+68             0             0            -0             0            -0
  -9.75101e+59  -4.26438e+59   5.00058e+62   -3.8869e+68             0             0    3.8869e+68   -3.8869e+68             0             0            -0             0             0
  -9.75101e+59  -4.26438e+59   5.00058e+62   -3.8869e+68             0             0    3.8869e+68   -3.8869e+68             0             0             0             0             0
  -9.75101e+59  -4.26438e+59   5.00058e+62    3.8869e+68             0             0    3.8869e+68    3.8869e+68             0             0             0             0            -0
  -9.75101e+59  -4.26438e+59   5.00058e+62    3.8869e+68             0             0    3.8869e+68    3.8869e+68             0             0            -0             0            -0
  -9.75101e+59  -4.26438e+59   5.00058e+62   3.88688e+68             0             0   3.88688e+68   3.88688e+68             0             0            -0             0             0
  -9.75101e+59  -4.26438e+59   5.00058e+62   3.88688e+68             0             0   3.88688e+68   3.88688e+68             0             0             0             0             0
  -9.75101e+59  -4.26438e+59   5.00058e+62  -3.88688e+68             0             0   3.88688e+68  -3.88688e+68             0             0             0             0            -0
  -9.75101e+59  -4.26438e+59   5.00058e+62  -3.88688e+68             0             0   3.88688e+68  -3.88688e+68             0             0            -0             0            -0
   1.78997e+60  -4.02274e+59   4.93113e+62  -3.88688e+68             0             0   3.88688e+68  -3.88688e+68             0             0            -0             0             0
   1.78997e+60  -4.02274e+59   4.93113e+62  -3.88688e+68             0             0   3.88688e+68  -3.88688e+68             0             0             0             0             0
   1.78997e+60  -4.02274e+59   4.93113e+62   3.88688e+68             0             0   3.88688e+68   3.88688e+68             0             0             0             0            -0
   1.78997e+60  -4.02274e+59   4.93113e+62   3.88688e+68             0             0   3.88688e+68   3.88688e+68             0             0            -0             0            -0
   1.78997e+60  -4.02274e+59   4.93113e+62   3.88688e+68             0             0   3.88688e+68   3.88688e+68             0             0            -0             0             0
   1.78997e+60  -4.02274e+59   4.93113e+62   3.88688e+68             0             0   3.88688e+68   3.88688e+68             0             0             0             0             0
   1.78997e+60  -4.02274e+59   4.93113e+62  -3.88688e+68             0             0   3.88688e+68  -3.88688e+68             0             0             0             0            -0
   1.78997e+60  -4.02274e+59   4.93113e+62  -3.88688e+68             0             0   3.88688e+68  -3.88688e+68             0             0            -0             0            -0
   4.55503e+60  -3.78109e+59   4.86168e+62  -3.88688e+68             0             0   3.88688e+68  -3.88688e+68             0             0            -0             0             0
   4.55503e+60  -3.78109e+59   4.86168e+62  -3.88688e+68             0             0   3.88688e+68  -3.88688e+68             0             0             0             0             0
   4.55503e+60  -3.78109e+59   4.86168e+62   3.88688e+68             0             0   3.88688e+68   3.88688e+68             0             0             0             0            -0
   4.55503e+60  -3.78109e+59   4.86168e+62   3.88688e+68             0             0   3.88688e+68   3.88688e+68             0             0            -0             0            -0
   4.55503e+60  -3.78109e+59   4.86168e+62    3.8869e+68             0             0    3.8869e+68    3.8869e+68             0             0            -0             0             0
   4.55503e+60  -3.78109e+59   4.86168e+62    3.8869e+68             0             0    3.8869e+68    3.8869e+68             0             0             0             0             0
   4.55503e+60  -3.78109e+59   4.86168e+62   -3.8869e+68             0             0    3.8869e+68   -3.8869e+68             0             0             0             0            -0
   4.55503e+60  -3.78109e+59   4.86168e+62   -3.8869e+68             0             0    3.8869e+68   -3.8869e+68             0             0            -0             0            -0
   7.32014e+60  -3.53945e+59   4.79224e+62   -3.8869e+68             0             0    3.8869e+68   -3.8869e+68             0             0            -0             0             0
   7.32014e+60  -3.53945e+59   4.79224e+62   -3.8869e+68             0             0    3.8869e+68   -3.8869e+68             0             0             0             0             0
   7.32014e+60  -3.53945e+59   4.79224e+62    3.8869e+68             0             0    3.8869e+68    3.8869e+68             0             0             0             0            -0
   7.32014e+60  -3.53945e+59   4.79224e+62    3.8869e+68             0             0    3.8869e+68    3.8869e+68             0             0            -0             0            -0
   7.32014e+60  -3.53945e+59   4.79224e+62   3.88688e+68             0             0   3.88688e+68   3.88688e+68             0             0            -0             0             0
   7.32014e+60  -3.53945e+59   4.79224e+62   3.88688e+68             0             0   3.88688e+68   3.88688e+68             0             0             0             0             0
   7.32014e+60  -3.53945e+59   4.79224e+62  -3.88688e+68             0             0   3.88688e+68  -3.88688e+68             0             0             0             0            -0
   7.32014e+60  -3.53945e+59   4.79224e+62  -3.88688e+68             0             0   3.88688e+68  -3.88688e+68             0             0            -0             0            -0
   1.00852e+61   -3.2978e+59   4.72279e+62  -3.88688e+68             0             0   3.88688e+68  -3.88688e+68             0             0            -0             0             0
   1.00852e+61   -3.2978e+59   4.72279e+62  -3.88688e+68             0             0   3.88688e+68  -3.88688e+68             0             0             0             0             0
   1.00852e+61   -3.2978e+59   4.72279e+62   3.88688e+68             0             0   3.88688e+68   3.88688e+68             0             0             0             0            -0
   1.00852e+61   -3.2978e+59   4.72279e+62   3.88688e+68             0             0   3.88688e+68   3.88688e+68             0             0            -0             0            -0
  -1.57221e+60  -8.25481e+59   6.24527e+62   2.81803e+68             0             0   2.81803e+68   2.81803e+68             0             0            -0             0             0
  -1.57221e+60  -8.25481e+59   6.24527e+62   2.81803e+68             0             0   2.81803e+68   2.81803e+68             0             0             0             0             0
  -1.57221e+60  -8.25481e+59   6.24527e+62  -2.81803e+68             0             0   2.81803e+68  -2.81803e+68             0             0             0             0            -0
  -1.57221e+60  -8.25481e+59   6.24527e+62  -2.81803e+68             0             0   2.81803e+68  -2.81803e+68             0             0            -0             0            -0
  -3.56013e+60  -8.16599e+59   6.21322e+62  -2.81803e+68             0             0   2.81803e+68  -2.81803e+68             0             0            -0             0             0
  -3.56013e+60  -8.16599e+59   6.21322e+62  -2.81803e+68             0             0   2.81803e+68  -2.81803e+68             0             0             0             0             0
  -3.56013e+60  -8.16599e+59   6.21322e+62   2.81803e+68             0             0   2.81803e+68   2.81803e+68             0             0             0             0            -0
  -3.56013e+60  -8.16599e+59   6.21322e+62   2.81803e+68             0             0   2.81803e+68   2.81803e+68             0             0            -0             0            -0
  -3.56013e+60  -8.16599e+59   6.21322e+62   2.81802e+68             0             0   2.81802e+68   2.81802e+68             0             0            -0             0             0
  -3.56013e+60  -8.16599e+59   6.21322e+62   2.81802e+68             0             0   2.81802e+68   2.81802e+68             0             0             0             0             0
  -3.56013e+60  -8.16599e+59   6.21322e+62  -2.81802e+68             0             0   2.81802e+68  -2.81802e+68             0             0             0             0            -0
  -3.56013e+60  -8.16599e+59   6.21322e+62  -2.81802e+68             0             0   2.81802e+68  -2.81802e+68             0             0            -0             0            -0
  -5.54805e+60  -8.07716e+59   6.18117e+62  -2.81802e+68             0             0   2.81802e+68  -2.81802e+68             0             0            -0             0             0
  -5.54805e+60  -8.07716e+59   6.18117e+62  -2.81802e+68             0             0   2.81802e+68  -2.81802e+68             0             0             0             0             0
  -5.54805e+60  -8.07716e+59   6.18117e+62   2.81802e+68             0             0   2.81802e+68   2.81802e+68             0             0             0             0            -0
  -5.54805e+60  -8.07716e+59   6.18117e+62   2.81802e+68             0             0   2.81802e+68   2.81802e+68             0             0            -0             0            -0
  -5.54805e+60  -8.07716e+59   6.18117e+62   2.81803e+68             0             0   2.81803e+68   2.81803e+68             0             0            -0             0             0
  -5.54805e+60  -8.07716e+59   6.18117e+62   2.81803e+68             0             0   2.81803e+68   2.81803e+68             0             0             0             0             0
  -5.54805e+60  -8.07716e+59   6.18117e+62  -2.81803e+68             0             0   2.81803e+68  -2.81803e+68             0             0             0             0            -0
  -5.54805e+60  -8.07716e+59   6.18117e+62  -2.81803e+68             0             0   2.81803e+68  -2.81803e+68             0             0            -0             0            -0
  -7.53597e+60  -7.98834e+59   6.14912e+62  -2.81803e+68             0             0   2.81803e+68  -2.81803e+68             0             0            -0             0             0
  -7.53597e+60  -7.98834e+59   6.14912e+62  -2.81803e+68             0             0   2.81803e+68  -2.81803e+68             0             0             0             0             0
  -7.53597e+60  -7.98834e+59   6.14912e+62   2.81803e+68             0             0   2.81803e+68   2.81803e+68             0             0             0             0            -0
  -7.53597e+60  -7.98834e+59   6.14912e+62   2.81803e+68             0             0   2.81803e+68   2.81803e+68             0             0            -0             0            -0
  -7.53597e+60  -7.98834e+59   6.14912e+62   2.81803e+68             0             0   2.81803e+68   2.81803e+68             0             0            -0             0             0
  -7.53597e+60  -7.98834e+59   6.14912e+62   2.81803e+68             0             0   2.81803e+68   2.81803e+68             0             0             0             0             0
  -7.53597e+60  -7.98834e+59   6.14912e+62  -2.81803e+68             0             0   2.81803e+68  -2.81803e+68             0             0             0             0            -0
  -7.53597e+60  -7.98834e+59   6.14912e+62  -2.81803e+68             0             0   2.81803e+68  -2.81803e+68             0             0            -0             0            -0
  -9.52388e+60  -7.89952e+59   6.11707e+62  -2.81803e+68             0             0   2.81803e+68  -2.81803e+68             0             0            -0             0             0
  -9.52388e+60  -7.89952e+59   6.11707e+62  -2.81803e+68             0             0   2.81803e+68  -2.81803e+68             0             0             0             0             0
  -9.52388e+60  -7.89952e+59   6.11707e+62   2.81803e+68             0             0   2.81803e+68   2.81803e+68             0             0             0             0            -0
  -9.52388e+60  -7.89952e+59   6.11707e+62   2.81803e+68             0             0   2.81803e+68   2.81803e+68             0             0            -0             0            -0
  -9.52388e+60  -7.89952e+59   6.11707e+62   2.81803e+68             0             0   2.81803e+68   2.81803e+68             0             0            -0             0             0
  -9.52388e+60  -7.89952e+59   6.11707e+62   2.81803e+68             0             0   2.81803e+68   2.81803e+68             0             0             0             0             0
  -9.52388e+60  -7.89952e+59   6.11707e+62  -2.81803e+68             0             0   2.81803e+68  -2.81803e+68             0             0             0             0            -0
  -9.52388e+60  -7.89952e+59   6.11707e+62  -2.81803e+68             0             0   2.81803e+68  -2.81803e+68             0             0            -0             0            -0
  -1.15118e+61  -7.81069e+59   6.08501e+62  -2.81803e+68             0             0   2.81803e+68  -2.81803e+68             0             0            -0             0             0
  -1.15118e+61  -7.81069e+59   6.08501e+62  -2.81803e+68             0             0   2.81803e+68  -2.81803e+68             0             0             0             0             0
  -1.15118e+61  -7.81069e+59   6.08501e+62   2.81803e+68             0             0   2.81803e+68   2.81803e+68             0             0             0             0            -0
  -1.15118e+61  -7.81069e+59   6.08501e+62   2.81803e+68             0             0   2.81803e+68   2.81803e+68             0             0            -0             0            -0
  -1.15118e+61  -7.81069e+59   6.08501e+62   2.81802e+68             0             0   2.81802e+68   2.81802e+68             0             0            -0             0             0
  -1.15118e+61  -7.81069e+59   6.08501e+62   2.81802e+68             0             0   2.81802e+68   2.81802e+68             0             0             0             0             0
  -1.15118e+61  -7.81069e+59   6.08501e+62  -2.81802e+68             0             0   2.81802e+68  -2.81802e+68             0             0             0             0            -0
  -1.15118e+61  -7.81069e+59   6.08501e+62  -2.81802e+68             0             0   2.81802e+68  -2.81802e+68             0             0            -0             0            -0
  -1.34997e+61  -7.72187e+59   6.05296e+62  -2.81802e+68             0             0   2.81802e+68  -2.81802e+68             0             0            -0             0             0
  -1.34997e+61  -7.72187e+59   6.05296e+62  -2.81802e+68             0             0   2.81802e+68  -2.81802e+68             0             0             0             0             0
  -1.34997e+61  -7.72187e+59   6.05296e+62   2.81802e+68             0             0   2.81802e+68   2.81802e+68             0             0             0             0            -0
  -1.34997e+61  -7.72187e+59   6.05296e+62   2.81802e+68             0             0   2.81802e+68   2.81802e+68             0             0            -0             0            -0
  -1.34997e+61  -7.72187e+59   6.05296e+62   2.81802e+68             0             0   2.81802e+68   2.81802e+68             0             0            -0             0             0
  -1.34997e+61  -7.72187e+59   6.05296e+62   2.81802e+68             0             0   2.81802e+68   2.81802e+68             0             0             0             0             0
  -1.34997e+61  -7.72187e+59   6.05296e+62  -2.81802e+68             0             0   2.81802e+68  -2.81802e+68             0             0             0             0            -0
  -1.34997e+61  -7.72187e+59   6.05296e+62  -2.81802e+68             0             0   2.81802e+68  -2.81802e+68             0             0            -0             0            -0
  -1.54876e+61  -7.63305e+59   6.02091e+62  -2.81802e+68             0             0   2.81802e+68  -2.81802e+68             0             0            -0             0             0
  -1.54876e+61  -7.63305e+59   6.02091e+62  -2.81802e+68             0             0   2.81802e+68  -2.81802e+68             0             0             0             0             0
  -1.54876e+61  -7.63305e+59   6.02091e+62   2.81802e+68             0             0   2.81802e+68   2.81802e+68             0             0             0             0            -0
  -1.54876e+61  -7.63305e+59   6.02091e+62   2.81802e+68             0             0   2.81802e+68   2.81802e+68             0             0            -0             0            -0
  -1.54876e+61  -7.63305e+59   6.02091e+62   2.81803e+68             0             0   2.81803e+68   2.81803e+68             0             0            -0             0             0
  -1.54876e+61  -7.63305e+59   6.02091e+62   2.81803e+68             0             0   2.81803e+68   2.81803e+68             0             0             0             0             0
  -1.54876e+61  -7.63305e+59   6.02091e+62  -2.81803e+68             0             0   2.81803e+68  -2.81803e+68             0             0             0             0            -0
  -1.54876e+61  -7.63305e+59   6.02091e+62  -2.81803e+68             0             0   2.81803e+68  -2.81803e+68             0             0            -0             0            -0
  -1.74756e+61  -7.54422e+59   5.98886e+62  -2.81803e+68             0             0   2.81803e+68  -2.81803e+68             0             0            -0             0             0
  -1.74756e+61  -7.54422e+59   5.98886e+62  -2.81803e+68             0             0   2.81803e+68  -2.81803e+68             0             0             0             0             0
  -1.74756e+61  -7.54422e+59   5.98886e+62   2.81803e+68             0             0   2.81803e+68   2.81803e+68             0             0             0             0            -0
  -1.74756e+61  -7.54422e+59   5.98886e+62   2.81803e+68             0             0   2.81803e+68   2.81803e+68             0             0            -0             0            -0
  -1.74756e+61  -7.54422e+59   5.98886e+62   2.81802e+68             0             0   2.81802e+68   2.81802e+68             0             0            -0             0             0
  -1.74756e+61  -7.54422e+59   5.98886e+62   2.81802e+68             0             0   2.81802e+68   2.81802e+68             0             0             0             0             0
  -1.74756e+61  -7.54422e+59   5.98886e+62  -2.81802e+68             0             0   2.81802e+68  -2.81802e+68             0             0             0             0            -0
  -1.74756e+61  -7.54422e+59   5.98886e+62  -2.81802e+68             0             0   2.81802e+68  -2.81802e+68             0             0            -0             0            -0
  -1.94635e+61   -7.4554e+59   5.95681e+62  -2.81802e+68             0             0   2.81802e+68  -2.81802e+68             0             0            -0             0             0
  -1.94635e+61   -7.4554e+59   5.95681e+62  -2.81802e+68             0             0   2.81802e+68  -2.81802e+68             0             0             0             0             0
  -1.94635e+61   -7.4554e+59   5.95681e+62   2.81802e+68             0             0   2.81802e+68   2.81802e+68             0             0             0             0            -0
  -1.94635e+61   -7.4554e+59   5.95681e+62   2.81802e+68             0             0   2.81802e+68   2.81802e+68             0             0            -0             0            -0
  -1.94635e+61   -7.4554e+59   5.95681e+62   2.81802e+68             0             0   2.81802e+68   2.81802e+68             0             0            -0             0             0
  -1.94635e+61   -7.4554e+59   5.95681e+62   2.81802e+68             0             0   2.81802e+68   2.81802e+68             0             0             0             0             0
  -1.94635e+61   -7.4554e+59   5.95681e+62  -2.81802e+68             0             0   2.81802e+68  -2.81802e+68             0             0             0             0            -0
  -1.94635e+61   -7.4554e+59   5.95681e+62  -2.81802e+68             0             0   2.81802e+68  -2.81802e+68             0             0            -0             0            -0
  -2.14514e+61  -7.36658e+59   5.92476e+62  -2.81802e+68             0             0   2.81802e+68  -2.81802e+68             0             0            -0             0             0
  -2.14514e+61  -7.36658e+59   5.92476e+62  -2.81802e+68             0             0   2.81802e+68  -2.81802e+68             0             0             0             0             0
  -2.14514e+61  -7.36658e+59   5.92476e+62   2.81802e+68             0             0   2.81802e+68   2.81802e+68             0             0             0             0            -0
  -2.14514e+61  -7.36658e+59   5.92476e+62   2.81802e+68             0             0   2.81802e+68   2.81802e+68             0             0            -0             0            -0
  -2.14514e+61  -7.36658e+59   5.92476e+62   2.81803e+68             0             0   2.81803e+68   2.81803e+68             0             0            -0             0             0
  -2.14514e+61  -7.36658e+59   5.92476e+62   2.81803e+68             0             0   2.81803e+68   2.81803e+68             0             0             0             0             0
  -2.14514e+61  -7.36658e+59   5.92476e+62  -2.81803e+68             0             0   2.81803e+68  -2.81803e+68             0             0             0             0            -0
  -2.14514e+61  -7.36658e+59   5.92476e+62  -2.81803e+68             0             0   2.81803e+68  -2.81803e+68             0             0            -0             0            -0
  -2.34393e+61  -7.27775e+59   5.89271e+62  -2.81803e+68             0             0   2.81803e+68  -2.81803e+68             0             0            -0             0             0
  -2.34393e+61  -7.27775e+59   5.89271e+62  -2.81803e+68             0             0   2.81803e+68  -2.81803e+68             0             0             0             0             0
  -2.34393e+61  -7.27775e+59   5.89271e+62   2.81803e+68             0             0   2.81803e+68   2.81803e+68             0             0             0             0            -0
  -2.34393e+61  -7.27775e+59   5.89271e+62   2.81803e+68             0             0   2.81803e+68   2.81803e+68             0             0            -0             0            -0
  -2.34393e+61  -7.27775e+59   5.89271e+62   2.81802e+68             0             0   2.81802e+68   2.81802e+68             0             0            -0             0             0
  -2.34393e+61  -7.27775e+59   5.89271e+62   2.81802e+68             0             0   2.81802e+68   2.81802e+68             0             0             0             0             0
  -2.34393e+61  -7.27775e+59   5.89271e+62  -2.81802e+68             0             0   2.81802e+68  -2.81802e+68             0             0             0             0            -0
  -2.34393e+61  -7.27775e+59   5.89271e+62  -2.81802e+68             0             0   2.81802e+68  -2.81802e+68             0             0            -0             0            -0
  -2.54272e+61  -7.18893e+59   5.86066e+62  -2.81802e+68             0             0   2.81802e+68  -2.81802e+68             0             0            -0             0             0
  -2.54272e+61  -7.18893e+59   5.86066e+62  -2.81802e+68             0             0   2.81802e+68  -2.81802e+68             0             0             0             0             0
  -2.54272e+61  -7.18893e+59   5.86066e+62   2.81802e+68             0             0   2.81802e+68   2.81802e+68             0             0             0             0            -0
  -2.54272e+61  -7.18893e+59   5.86066e+62   2.81802e+68             0             0   2.81802e+68   2.81802e+68             0             0            -0             0            -0
  -2.54272e+61  -7.18893e+59   5.86066e+62   2.81802e+68             0             0   2.81802e+68   2.81802e+68             0             0            -0             0             0
  -2.54272e+61  -7.18893e+59   5.86066e+62   2.81802e+68             0             0   2.81802e+68   2.81802e+68             0             0             0             0             0
  -2.54272e+61  -7.18893e+59   5.86066e+62  -2.81802e+68             0             0   2.81802e+68  -2.81802e+68             0             0             0             0            -0
  -2.54272e+61  -7.18893e+59   5.86066e+62  -2.81802e+68             0             0   2.81802e+68  -2.81802e+68             0             0            -0             0            -0
  -2.74151e+61  -7.10011e+59   5.82861e+62  -2.81802e+68             0             0   2.81802e+68  -2.81802e+68             0             0            -0             0             0
  -2.74151e+61  -7.10011e+59   5.82861e+62  -2.81802e+68             0             0   2.81802e+68  -2.81802e+68             0             0             0             0             0
  -2.74151e+61  -7.10011e+59   5.82861e+62   2.81802e+68             0             0   2.81802e+68   2.81802e+68             0             0             0             0            -0
  -2.74151e+61  -7.10011e+59   5.82861e+62   2.81802e+68             0             0   2.81802e+68   2.81802e+68             0             0            -0             0            -0
  -2.74151e+61  -7.10011e+59   5.82861e+62   2.81803e+68             0             0   2.81803e+68   2.81803e+68             0             0            -0             0             0
  -2.74151e+61  -7.10011e+59   5.82861e+62   2.81803e+68             0             0   2.81803e+68   2.81803e+68             0             0             0             0             0
  -2.74151e+61  -7.10011e+59   5.82861e+62  -2.81803e+68             0             0   2.81803e+68  -2.81803e+68             0             0             0             0            -0
  -2.74151e+61  -7.10011e+59   5.82861e+62  -2.81803e+68             0             0   2.81803e+68  -2.81803e+68             0             0            -0             0            -0
  -2.94031e+61  -7.01128e+59   5.79656e+62  -2.81803e+68             0             0   2.81803e+68  -2.81803e+68             0             0            -0             0             0
  -2.94031e+61  -7.01128e+59   5.79656e+62  -2.81803e+68             0             0   2.81803e+68  -2.81803e+68             0             0             0             0             0
  -2.94031e+61  -7.01128e+59   5.79656e+62   2.81803e+68             0             0   2.81803e+68   2.81803e+68             0             0             0             0            -0
  -2.94031e+61  -7.01128e+59   5.79656e+62   2.81803e+68             0             0   2.81803e+68   2.81803e+68             0             0            -0             0            -0
  -2.94031e+61  -7.01128e+59   5.79656e+62   2.81802e+68             0             0   2.81802e+68   2.81802e+68             0             0            -0             0             0
  -2.94031e+61  -7.01128e+59   5.79656e+62   2.81802e+68             0             0   2.81802e+68   2.81802e+68             0             0             0             0             0
  -2.94031e+61  -7.01128e+59   5.79656e+62  -2.81802e+68             0             0   2.81802e+68  -2.81802e+68             0             0             0             0            -0
  -2.94031e+61  -7.01128e+59   5.79656e+62  -2.81802e+68             0             0   2.81802e+68  -2.81802e+68             0             0            -0             0            -0
   -3.1391e+61  -6.92246e+59   5.76451e+62  -2.81802e+68             0             0   2.81802e+68  -2.81802e+68             0             0            -0             0             0
   -3.1391e+61  -6.92246e+59   5.76451e+62  -2.81802e+68             0             0   2.81802e+68  -2.81802e+68             0             0             0             0             0
   -3.1391e+61  -6.92246e+59   5.76451e+62   2.81802e+68             0             0   2.81802e+68   2.81802e+68             0             0             0             0            -0
   -3.1391e+61  -6.92246e+59   5.76451e+62   2.81802e+68             0             0   2.81802e+68   2.81802e+68             0             0            -0             0            -0
  -1.57221e+60  -8.25481e+59   6.24527e+62   5.52889e+68             0             0   5.52889e+68   5.52889e+68             0             0            -0             0             0
  -1.57221e+60  -8.25481e+59   6.24527e+62   5.52889e+68             0             0   5.52889e+68   5.52889e+68             0             0             0             0             0
  -1.57221e+60  -8.25481e+59   6.24527e+62  -5.52889e+68             0             0   5.52889e+68  -5.52889e+68             0             0             0             0            -0
  -1.57221e+60  -8.25481e+59   6.24527e+62  -5.52889e+68             0             0   5.52889e+68  -5.52889e+68             0             0            -0             0            -0
  -3.41316e+60  -8.35719e+59   6.25134e+62  -5.52889e+68             0             0   5.52889e+68  -5.52889e+68             0             0            -0             0             0
  -3.41316e+60  -8.35719e+59   6.25134e+62  -5.52889e+68             0             0   5.52889e+68  -5.52889e+68             0             0             0             0             0
  -3.41316e+60  -8.35719e+59   6.25134e+62   5.52889e+68             0             0   5.52889e+68   5.52889e+68             0             0             0             0            -0
  -3.41316e+60  -8.35719e+59   6.25134e+62   5.52889e+68             0             0   5.52889e+68   5.52889e+68             0             0            -0             0            -0
  -3.41316e+60  -8.35719e+59   6.25134e+62   5.52889e+68             0             0   5.52889e+68   5.52889e+68             0             0            -0             0             0
  -3.41316e+60  -8.35719e+59   6.25134e+62   5.52889e+68             0             0   5.52889e+68   5.52889e+68             0             0             0             0             0
  -3.41316e+60  -8.35719e+59   6.25134e+62  -5.52889e+68             0             0   5.52889e+68  -5.52889e+68             0             0             0             0            -0
  -3.41316e+60  -8.35719e+59   6.25134e+62  -5.52889e+68             0             0   5.52889e+68  -5.52889e+68             0             0            -0             0            -0
  -5.25412e+60  -8.45956e+59   6.25741e+62  -5.52889e+68             0             0   5.52889e+68  -5.52889e+68             0             0            -0             0             0
  -5.25412e+60  -8.45956e+59   6.25741e+62  -5.52889e+68             0             0   5.52889e+68  -5.52889e+68             0             0             0             0             0
  -5.25412e+60  -8.45956e+59   6.25741e+62   5.52889e+68             0             0   5.52889e+68   5.52889e+68             0             0             0             0            -0
  -5.25412e+60  -8.45956e+59   6.25741e+62   5.52889e+68             0             0   5.52889e+68   5.52889e+68             0             0            -0             0            -0
  -5.25412e+60  -8.45956e+59   6.25741e+62   5.52889e+68             0             0   5.52889e+68   5.52889e+68             0             0            -0             0             0
  -5.25412e+60  -8.45956e+59   6.25741e+62   5.52889e+68             0             0   5.52889e+68   5.52889e+68             0             0             0             0             0
  -5.25412e+60  -8.45956e+59   6.25741e+62  -5.52889e+68             0             0   5.52889e+68  -5.52889e+68             0             0             0             0            -0
  -5.25412e+60  -8.45956e+59   6.25741e+62  -5.52889e+68             0             0   5.52889e+68  -5.52889e+68             0             0            -0             0            -0
  -7.09507e+60  -8.56194e+59   6.26348e+62  -5.52889e+68             0             0   5.52889e+68  -5.52889e+68             0             0            -0             0             0
  -7.09507e+60  -8.56194e+59   6.26348e+62  -5.52889e+68             0             0   5.52889e+68  -5.52889e+68             0             0             0             0             0
  -7.09507e+60  -8.56194e+59   6.26348e+62   5.52889e+68             0             0   5.52889e+68   5.52889e+68             0             0             0             0            -0
  -7.09507e+60  -8.56194e+59   6.26348e+62   5.52889e+68             0             0   5.52889e+68   5.52889e+68             0             0            -0             0            -0
  -7.09507e+60  -8.56194e+59   6.26348e+62   5.52889e+68             0             0   5.52889e+68   5.52889e+68             0             0            -0             0             0
  -7.09507e+60  -8.56194e+59   6.26348e+62   5.52889e+68             0             0   5.52889e+68   5.52889e+68             0             0             0             0             0
  -7.09507e+60  -8.56194e+59   6.26348e+62  -5.52889e+68             0             0   5.52889e+68  -5.52889e+68             0             0             0             0            -0
  -7.09507e+60  -8.56194e+59   6.26348e+62  -5.52889e+68             0             0   5.52889e+68  -5.52889e+68             0             0            -0             0            -0
  -8.93602e+60  -8.66432e+59   6.26955e+62  -5.52889e+68             0             0   5.52889e+68  -5.52889e+68             0             0            -0             0             0
  -8.93602e+60  -8.66432e+59   6.26955e+62  -5.52889e+68             0             0   5.52889e+68  -5.52889e+68             0             0             0             0             0
  -8.93602e+60  -8.66432e+59   6.26955e+62   5.52889e+68             0             0   5.52889e+68   5.52889e+68             0             0             0             0            -0
  -8.93602e+60  -8.66432e+59   6.26955e+62   5.52889e+68             0             0   5.52889e+68   5.52889e+68             0             0            -0             0            -0
  -8.93602e+60  -8.66432e+59   6.26955e+62   5.52889e+68             0             0   5.52889e+68   5.52889e+68             0             0            -0             0             0
  -8.93602e+60  -8.66432e+59   6.26955e+62   5.52889e+68             0             0   5.52889e+68   5.52889e+68             0             0             0             0             0
  -8.93602e+60  -8.66432e+59   6.26955e+62  -5.52889e+68             0             0   5.52889e+68  -5.52889e+68             0             0             0             0            -0
  -8.93602e+60  -8.66432e+59   6.26955e+62  -5.52889e+68             0             0   5.52889e+68  -5.52889e+68             0             0            -0             0            -0
   -1.0777e+61  -8.76669e+59   6.27562e+62  -5.52889e+68             0             0   5.52889e+68  -5.52889e+68             0             0            -0             0             0
   -1.0777e+61  -8.76669e+59   6.27562e+62  -5.52889e+68             0             0   5.52889e+68  -5.52889e+68             0             0             0             0             0
   -1.0777e+61  -8.76669e+59   6.27562e+62   5.52889e+68             0             0   5.52889e+68   5.52889e+68             0             0             0             0            -0
   -1.0777e+61  -8.76669e+59   6.27562e+62   5.52889e+68             0             0   5.52889e+68   5.52889e+68             0             0            -0             0            -0
   -1.0777e+61  -8.76669e+59   6.27562e+62   5.52889e+68             0             0   5.52889e+68   5.52889e+68             0             0            -0             0             0
   -1.0777e+61  -8.76669e+59   6.27562e+62   5.52889e+68             0             0   5.52889e+68   5.52889e+68             0             0             0             0             0
   -1.0777e+61  -8.76669e+59   6.27562e+62  -5.52889e+68             0             0   5.52889e+68  -5.52889e+68             0             0             0             0            -0
   -1.0777e+61  -8.76669e+59   6.27562e+62  -5.52889e+68             0             0   5.52889e+68  -5.52889e+68             0             0            -0             0            -0
  -1.26179e+61  -8.86907e+59   6.28169e+62  -5.52889e+68             0             0   5.52889e+68  -5.52889e+68             0             0            -0             0             0
  -1.26179e+61  -8.86907e+59   6.28169e+62  -5.52889e+68             0             0   5.52889e+68  -5.52889e+68             0             0             0             0             0
  -1.26179e+61  -8.86907e+59   6.28169e+62   5.52889e+68             0             0   5.52889e+68   5.52889e+68             0             0             0             0            -0
  -1.26179e+61  -8.86907e+59   6.28169e+62   5.52889e+68             0             0   5.52889e+68   5.52889e+68             0             0            -0             0            -0
  -1.26179e+61  -8.86907e+59   6.28169e+62   5.52889e+68             0             0   5.52889e+68   5.52889e+68             0             0            -0             0             0
  -1.26179e+61  -8.86907e+59   6.28169e+62   5.52889e+68             0             0   5.52889e+68   5.52889e+68             0             0             0             0             0
  -1.26179e+61  -8.86907e+59   6.28169e+62  -5.52889e+68             0             0   5.52889e+68  -5.52889e+68             0             0             0             0            -0
  -1.26179e+61  -8.86907e+59   6.28169e+62  -5.52889e+68             0             0   5.52889e+68  -5.52889e+68             0             0            -0             0            -0
  -1.44589e+61  -8.97144e+59   6.28776e+62  -5.52889e+68             0             0   5.52889e+68  -5.52889e+68             0             0            -0             0             0
  -1.44589e+61  -8.97144e+59   6.28776e+62  -5.52889e+68             0             0   5.52889e+68  -5.52889e+68             0             0             0             0             0
  -1.44589e+61  -8.97144e+59   6.28776e+62   5.52889e+68             0             0   5.52889e+68   5.52889e+68             0             0             0             0            -0
  -1.44589e+61  -8.97144e+59   6.28776e+62   5.52889e+68             0             0   5.52889e+68   5.52889e+68             0             0            -0             0            -0
  -1.44589e+61  -8.97144e+59   6.28776e+62   5.52889e+68             0             0   5.52889e+68   5.52889e+68             0             0            -0             0             0
  -1.44589e+61  -8.97144e+59   6.28776e+62   5.52889e+68             0             0   5.52889e+68   5.52889e+68             0             0             0             0             0
  -1.44589e+61  -8.97144e+59   6.28776e+62  -5.52889e+68             0             0   5.52889e+68  -5.52889e+68             0             0             0             0            -0
  -1.44589e+61  -8.97144e+59   6.28776e+62  -5.52889e+68             0             0   5.52889e+68  -5.52889e+68             0             0            -0             0            -0
  -1.62998e+61  -9.07382e+59   6.29383e+62  -5.52889e+68             0             0   5.52889e+68  -5.52889e+68             0             0            -0             0             0
  -1.62998e+61  -9.07382e+59   6.29383e+62  -5.52889e+68             0             0   5.52889e+68  -5.52889e+68             0             0             0             0             0
  -1.62998e+61  -9.07382e+59   6.29383e+62   5.52889e+68             0             0   5.52889e+68   5.52889e+68             0             0             0             0            -0
  -1.62998e+61  -9.07382e+59   6.29383e+62   5.52889e+68             0             0   5.52889e+68   5.52889e+68             0             0            -0             0            -0
   1.00852e+61   -3.2978e+59   4.72279e+62  -6.09145e+66             0             0   6.09145e+66  -6.09145e+66             0             0            -0             0             0
   1.00852e+61   -3.2978e+59   4.72279e+62  -6.09145e+66             0             0   6.09145e+66  -6.09145e+66             0             0             0             0             0
   1.00852e+61   -3.2978e+59   4.72279e+62   6.09145e+66             0             0   6.09145e+66   6.09145e+66             0             0             0             0            -0
   1.00852e+61   -3.2978e+59   4.72279e+62   6.09145e+66             0             0   6.09145e+66   6.09145e+66             0             0            -0             0            -0
   9.36264e+60  -3.08326e+59   4.57124e+62   6.09145e+66             0             0   6.09145e+66   6.09145e+66             0             0            -0             0             0
   9.36264e+60  -3.08326e+59   4.57124e+62   6.09145e+66             0             0   6.09145e+66   6.09145e+66             0             0             0             0             0
   9.36264e+60  -3.08326e+59   4.57124e+62  -6.09145e+66             0             0   6.09145e+66  -6.09145e+66             0             0             0             0            -0
   9.36264e+60  -3.08326e+59   4.57124e+62  -6.09145e+66             0             0   6.09145e+66  -6.09145e+66             0             0            -0             0            -0
   9.36264e+60  -3.08326e+59   4.57124e+62  -6.09143e+66             0             0   6.09143e+66  -6.09143e+66             0             0            -0             0             0
   9.36264e+60  -3.08326e+59   4.57124e+62  -6.09143e+66             0             0   6.09143e+66  -6.09143e+66             0             0             0             0             0
   9.36264e+60  -3.08326e+59   4.57124e+62   6.09143e+66             0             0   6.09143e+66   6.09143e+66             0             0             0             0            -0
   9.36264e+60  -3.08326e+59   4.57124e+62   6.09143e+66             0             0   6.09143e+66   6.09143e+66             0             0            -0             0            -0
   8.64008e+60  -2.86871e+59   4.41969e+62   6.09143e+66             0             0   6.09143e+66   6.09143e+66             0             0            -0             0             0
   8.64008e+60  -2.86871e+59   4.41969e+62   6.09143e+66             0             0   6.09143e+66   6.09143e+66             0             0             0             0             0
   8.64008e+60  -2.86871e+59   4.41969e+62  -6.09143e+66             0             0   6.09143e+66  -6.09143e+66             0             0             0             0            -0
   8.64008e+60  -2.86871e+59   4.41969e+62  -6.09143e+66             0             0   6.09143e+66  -6.09143e+66             0             0            -0             0            -0
   8.64008e+60  -2.86871e+59   4.41969e+62  -6.09145e+66             0             0   6.09145e+66  -6.09145e+66             0             0            -0             0             0
   8.64008e+60  -2.86871e+59   4.41969e+62  -6.09145e+66             0             0   6.09145e+66  -6.09145e+66             0             0             0             0             0
   8.64008e+60  -2.86871e+59   4.41969e+62   6.09145e+66             0             0   6.09145e+66   6.09145e+66             0             0             0             0            -0
   8.64008e+60  -2.86871e+59   4.41969e+62   6.09145e+66             0             0   6.09145e+66   6.09145e+66             0             0            -0             0            -0
   7.91752e+60  -2.65416e+59   4.26814e+62   6.09145e+66             0             0   6.09145e+66   6.09145e+66             0             0            -0             0             0
   7.91752e+60  -2.65416e+59   4.26814e+62   6.09145e+66             0             0   6.09145e+66   6.09145e+66             0             0             0             0             0
   7.91752e+60  -2.65416e+59   4.26814e+62  -6.09145e+66             0             0   6.09145e+66  -6.09145e+66             0             0             0             0            -0
   7.91752e+60  -2.65416e+59   4.26814e+62  -6.09145e+66             0             0   6.09145e+66  -6.09145e+66             0             0            -0             0            -0
   7.91752e+60  -2.65416e+59   4.26814e+62  -6.09143e+66             0             0   6.09143e+66  -6.09143e+66             0             0            -0             0             0
   7.91752e+60  -2.65416e+59   4.26814e+62  -6.09143e+66             0             0   6.09143e+66  -6.09143e+66             0             0             0             0             0
   7.91752e+60  -2.65416e+59   4.26814e+62   6.09143e+66             0             0   6.09143e+66   6.09143e+66             0             0             0             0            -0
   7.91752e+60  -2.65416e+59   4.26814e+62   6.09143e+66             0             0   6.09143e+66   6.09143e+66             0             0            -0             0            -0
   7.19496e+60  -2.43961e+59   4.11659e+62   6.09143e+66             0             0   6.09143e+66   6.09143e+66             0             0            -0             0             0
   7.19496e+60  -2.43961e+59   4.11659e+62   6.09143e+66             0             0   6.09143e+66   6.09143e+66             0             0             0             0             0
   7.19496e+60  -2.43961e+59   4.11659e+62  -6.09143e+66             0             0   6.09143e+66  -6.09143e+66             0             0             0             0            -0
   7.19496e+60  -2.43961e+59   4.11659e+62  -6.09143e+66             0             0   6.09143e+66  -6.09143e+66             0             0            -0             0            -0
   7.19496e+60  -2.43961e+59   4.11659e+62  -6.09145e+66             0             0   6.09145e+66  -6.09145e+66             0             0            -0             0             0
   7.19496e+60  -2.43961e+59   4.11659e+62  -6.09145e+66             0             0   6.09145e+66  -6.09145e+66             0             0             0             0             0
   7.19496e+60  -2.43961e+59   4.11659e+62   6.09145e+66             0             0   6.09145e+66   6.09145e+66             0             0             0             0            -0
   7.19496e+60  -2.43961e+59   4.11659e+62   6.09145e+66             0             0   6.09145e+66   6.09145e+66             0             0            -0             0            -0
    6.4724e+60  -2.22506e+59   3.96504e+62   6.09145e+66             0             0   6.09145e+66   6.09145e+66             0             0            -0             0             0
    6.4724e+60  -2.22506e+59   3.96504e+62   6.09145e+66             0             0   6.09145e+66   6.09145e+66             0             0             0             0             0
    6.4724e+60  -2.22506e+59   3.96504e+62  -6.09145e+66             0             0   6.09145e+66  -6.09145e+66             0             0             0             0            -0
    6.4724e+60  -2.22506e+59   3.96504e+62  -6.09145e+66             0             0   6.09145e+66  -6.09145e+66             0             0            -0             0            -0
    6.4724e+60  -2.22506e+59   3.96504e+62  -6.09143e+66             0             0   6.09143e+66  -6.09143e+66             0             0            -0             0             0
    6.4724e+60  -2.22506e+59   3.96504e+62  -6.09143e+66             0             0   6.09143e+66  -6.09143e+66             0             0             0             0             0
    6.4724e+60  -2.22506e+59   3.96504e+62   6.09143e+66             0             0   6.09143e+66   6.09143e+66             0             0             0             0            -0
    6.4724e+60  -2.22506e+59   3.96504e+62   6.09143e+66             0             0   6.09143e+66   6.09143e+66             0             0            -0             0            -0
   5.74984e+60  -2.01052e+59    3.8135e+62   6.09143e+66             0             0   6.09143e+66   6.09143e+66             0             0            -0             0             0
   5.74984e+60  -2.01052e+59    3.8135e+62   6.09143e+66             0             0   6.09143e+66   6.09143e+66             0             0             0             0             0
   5.74984e+60  -2.01052e+59    3.8135e+62  -6.09143e+66             0             0   6.09143e+66  -6.09143e+66             0             0             0             0            -0
   5.74984e+60  -2.01052e+59    3.8135e+62  -6.09143e+66             0             0   6.09143e+66  -6.09143e+66             0             0            -0             0            -0
   5.74984e+60  -2.01052e+59    3.8135e+62  -6.09145e+66             0             0   6.09145e+66  -6.09145e+66             0             0            -0             0             0
   5.74984e+60  -2.01052e+59    3.8135e+62  -6.09145e+66             0             0   6.09145e+66  -6.09145e+66             0             0             0             0             0
   5.74984e+60  -2.01052e+59    3.8135e+62   6.09145e+66             0             0   6.09145e+66   6.09145e+66             0             0             0             0            -0
   5.74984e+60  -2.01052e+59    3.8135e+62   6.09145e+66             0             0   6.09145e+66   6.09145e+66             0             0            -0             0            -0
   5.02727e+60  -1.79597e+59   3.66195e+62   6.09145e+66             0             0   6.09145e+66   6.09145e+66             0             0            -0             0             0
   5.02727e+60  -1.79597e+59   3.66195e+62   6.09145e+66             0             0   6.09145e+66   6.09145e+66             0             0             0             0             0
   5.02727e+60  -1.79597e+59   3.66195e+62  -6.09145e+66             0             0   6.09145e+66  -6.09145e+66             0             0             0             0            -0
   5.02727e+60  -1.79597e+59   3.66195e+62  -6.09145e+66             0             0   6.09145e+66  -6.09145e+66             0             0            -0             0            -0
   5.02727e+60  -1.79597e+59   3.66195e+62  -6.09143e+66             0             0   6.09143e+66  -6.09143e+66             0             0            -0             0             0
   5.02727e+60  -1.79597e+59   3.66195e+62  -6.09143e+66             0             0   6.09143e+66  -6.09143e+66             0             0             0             0             0
   5.02727e+60  -1.79597e+59   3.66195e+62   6.09143e+66             0             0   6.09143e+66   6.09143e+66             0             0             0             0            -0
   5.02727e+60  -1.79597e+59   3.66195e+62   6.09143e+66             0             0   6.09143e+66   6.09143e+66             0             0            -0             0            -0
   4.30471e+60  -1.58142e+59    3.5104e+62   6.09143e+66             0             0   6.09143e+66   6.09143e+66             0             0            -0             0             0
   4.30471e+60  -1.58142e+59    3.5104e+62   6.09143e+66             0             0   6.09143e+66   6.09143e+66             0             0             0             0             0
   4.30471e+60  -1.58142e+59    3.5104e+62  -6.09143e+66             0             0   6.09143e+66  -6.09143e+66             0             0             0             0            -0
   4.30471e+60  -1.58142e+59    3.5104e+62  -6.09143e+66             0             0   6.09143e+66  -6.09143e+66             0             0            -0             0            -0
   4.30471e+60  -1.58142e+59    3.5104e+62  -6.09145e+66             0             0   6.09145e+66  -6.09145e+66             0             0            -0             0             0
   4.30471e+60  -1.58142e+59    3.5104e+62  -6.09145e+66             0             0   6.09145e+66  -6.09145e+66             0             0             0             0             0
   4.30471e+60  -1.58142e+59    3.5104e+62   6.09145e+66             0             0   6.09145e+66   6.09145e+66             0             0             0             0            -0
   4.30471e+60  -1.58142e+59    3.5104e+62   6.09145e+66             0             0   6.09145e+66   6.09145e+66             0             0            -0             0            -0
   3.58215e+60  -1.36687e+59   3.35885e+62   6.09145e+66             0             0   6.09145e+66   6.09145e+66             0             0            -0             0             0
   3.58215e+60  -1.36687e+59   3.35885e+62   6.09145e+66             0             0   6.09145e+66   6.09145e+66             0             0             0             0             0
   3.58215e+60  -1.36687e+59   3.35885e+62  -6.09145e+66             0             0   6.09145e+66  -6.09145e+66             0             0             0             0            -0
   3.58215e+60  -1.36687e+59   3.35885e+62  -6.09145e+66             0             0   6.09145e+66  -6.09145e+66             0             0            -0             0            -0
   3.58215e+60  -1.36687e+59   3.35885e+62  -6.09143e+66             0             0   6.09143e+66  -6.09143e+66             0             0            -0             0             0
   3.58215e+60  -1.36687e+59   3.35885e+62  -6.09143e+66             0             0   6.09143e+66  -6.09143e+66             0             0             0             0             0
   3.58215e+60  -1.36687e+59   3.35885e+62   6.09143e+66             0             0   6.09143e+66   6.09143e+66             0             0             0             0            -0
   3.58215e+60  -1.36687e+59   3.35885e+62   6.09143e+66             0             0   6.09143e+66   6.09143e+66             0             0            -0             0            -0
   2.85959e+60  -1.15233e+59    3.2073e+62   6.09143e+66             0             0   6.09143e+66   6.09143e+66             0             0            -0             0             0
   2.85959e+60  -1.15233e+59    3.2073e+62   6.09143e+66             0             0   6.09143e+66   6.09143e+66             0             0             0             0             0
   2.85959e+60  -1.15233e+59    3.2073e+62  -6.09143e+66             0             0   6.09143e+66  -6.09143e+66             0             0             0             0            -0
   2.85959e+60  -1.15233e+59    3.2073e+62  -6.09143e+66             0             0   6.09143e+66  -6.09143e+66             0             0            -0             0            -0
   2.85959e+60  -1.15233e+59    3.2073e+62  -6.09145e+66             0             0   6.09145e+66  -6.09145e+66             0             0            -0             0             0
   2.85959e+60  -1.15233e+59    3.2073e+62  -6.09145e+66             0             0   6.09145e+66  -6.09145e+66             0             0             0             0             0
   2.85959e+60  -1.15233e+59    3.2073e+62   6.09145e+66             0             0   6.09145e+66   6.09145e+66             0             0             0             0            -0
   2.85959e+60  -1.15233e+59    3.2073e+62   6.09145e+66             0             0   6.09145e+66   6.09145e+66             0             0            -0             0            -0
   2.13703e+60  -9.37779e+58   3.05575e+62   6.09145e+66             0             0   6.09145e+66   6.09145e+66             0             0            -0             0             0
   2.13703e+60  -9.37779e+58   3.05575e+62   6.09145e+66             0             0   6.09145e+66   6.09145e+66             0             0             0             0             0
   2.13703e+60  -9.37779e+58   3.05575e+62  -6.09145e+66             0             0   6.09145e+66  -6.09145e+66             0             0             0             0            -0
   2.13703e+60  -9.37779e+58   3.05575e+62  -6.09145e+66             0             0   6.09145e+66  -6.09145e+66             0             0            -0             0            -0
   2.13703e+60  -9.37779e+58   3.05575e+62  -6.09143e+66             0             0   6.09143e+66  -6.09143e+66             0             0            -0             0             0
   2.13703e+60  -9.37779e+58   3.05575e+62  -6.09143e+66             0             0   6.09143e+66  -6.09143e+66             0             0             0             0             0
   2.13703e+60  -9.37779e+58   3.05575e+62   6.09143e+66             0             0   6.09143e+66   6.09143e+66             0             0             0             0            -0
   2.13703e+60  -9.37779e+58   3.05575e+62   6.09143e+66             0             0   6.09143e+66   6.09143e+66             0             0            -0             0            -0
   1.41447e+60  -7.23233e+58   2.90421e+62   6.09143e+66             0             0   6.09143e+66   6.09143e+66             0             0            -0             0             0
   1.41447e+60  -7.23233e+58   2.90421e+62   6.09143e+66             0             0   6.09143e+66   6.09143e+66             0             0             0             0             0
   1.41447e+60  -7.23233e+58   2.90421e+62  -6.09143e+66             0             0   6.09143e+66  -6.09143e+66             0             0             0             0            -0
   1.41447e+60  -7.23233e+58   2.90421e+62  -6.09143e+66             0             0   6.09143e+66  -6.09143e+66             0             0            -0             0            -0
   1.41447e+60  -7.23233e+58   2.90421e+62  -6.09145e+66             0             0   6.09145e+66  -6.09145e+66             0             0            -0             0             0
   1.41447e+60  -7.23233e+58   2.90421e+62  -6.09145e+66             0             0   6.09145e+66  -6.09145e+66             0             0             0             0             0
   1.41447e+60  -7.23233e+58   2.90421e+62   6.09145e+66             0             0   6.09145e+66   6.09145e+66             0             0             0             0            -0
   1.41447e+60  -7.23233e+58   2.90421e+62   6.09145e+66             0             0   6.09145e+66   6.09145e+66             0             0            -0             0            -0
   6.91909e+59  -5.08684e+58   2.75266e+62   6.09145e+66             0             0   6.09145e+66   6.09145e+66             0             0            -0             0             0
   6.91909e+59  -5.08684e+58   2.75266e+62   6.09145e+66             0             0   6.09145e+66   6.09145e+66             0             0             0             0             0
   6.91909e+59  -5.08684e+58   2.75266e+62  -6.09145e+66             0             0   6.09145e+66  -6.09145e+66             0             0             0             0            -0
   6.91909e+59  -5.08684e+58   2.75266e+62  -6.09145e+66             0             0   6.09145e+66  -6.09145e+66             0             0            -0             0            -0
   1.56964e+60   -6.3117e+59   5.73635e+62  -6.58236e+66             0             0   6.58236e+66  -6.58236e+66             0             0            -0             0             0
   1.56964e+60   -6.3117e+59   5.73635e+62  -6.58236e+66             0             0   6.58236e+66  -6.58236e+66             0             0             0             0             0
   1.56964e+60   -6.3117e+59   5.73635e+62   6.58236e+66             0             0   6.58236e+66   6.58236e+66             0             0             0             0            -0
   1.56964e+60   -6.3117e+59   5.73635e+62   6.58236e+66             0             0   6.58236e+66   6.58236e+66             0             0            -0             0            -0
   2.22469e+60  -6.07987e+59   5.65838e+62   6.58236e+66             0             0   6.58236e+66   6.58236e+66             0             0            -0             0             0
   2.22469e+60  -6.07987e+59   5.65838e+62   6.58236e+66             0             0   6.58236e+66   6.58236e+66             0             0             0             0             0
   2.22469e+60  -6.07987e+59   5.65838e+62  -6.58236e+66             0             0   6.58236e+66  -6.58236e+66             0             0             0             0            -0
   2.22469e+60  -6.07987e+59   5.65838e+62  -6.58236e+66             0             0   6.58236e+66  -6.58236e+66             0             0            -0             0            -0
   2.22469e+60  -6.07987e+59   5.65838e+62  -6.58236e+66             0             0   6.58236e+66  -6.58236e+66             0             0            -0             0             0
   2.22469e+60  -6.07987e+59   5.65838e+62  -6.58236e+66             0             0   6.58236e+66  -6.58236e+66             0             0             0             0             0
   2.22469e+60  -6.07987e+59   5.65838e+62   6.58236e+66             0             0   6.58236e+66   6.58236e+66             0             0             0             0            -0
   2.22469e+60  -6.07987e+59   5.65838e+62   6.58236e+66             0             0   6.58236e+66   6.58236e+66             0             0            -0             0            -0
   2.87973e+60  -5.84803e+59   5.58042e+62   6.58236e+66             0             0   6.58236e+66   6.58236e+66             0             0            -0             0             0
   2.87973e+60  -5.84803e+59   5.58042e+62   6.58236e+66             0             0   6.58236e+66   6.58236e+66             0             0             0             0             0
   2.87973e+60  -5.84803e+59   5.58042e+62  -6.58236e+66             0             0   6.58236e+66  -6.58236e+66             0             0             0             0            -0
   2.87973e+60  -5.84803e+59   5.58042e+62  -6.58236e+66             0             0   6.58236e+66  -6.58236e+66             0             0            -0             0            -0
   2.87973e+60  -5.84803e+59   5.58042e+62  -6.58236e+66             0             0   6.58236e+66  -6.58236e+66             0             0            -0             0             0
   2.87973e+60  -5.84803e+59   5.58042e+62  -6.58236e+66             0             0   6.58236e+66  -6.58236e+66             0             0             0             0             0
   2.87973e+60  -5.84803e+59   5.58042e+62   6.58236e+66             0             0   6.58236e+66   6.58236e+66             0             0             0             0            -0
   2.87973e+60  -5.84803e+59   5.58042e+62   6.58236e+66             0             0   6.58236e+66   6.58236e+66             0             0            -0             0            -0
   3.53477e+60  -5.61619e+59   5.50245e+62   6.58236e+66             0             0   6.58236e+66   6.58236e+66             0             0            -0             0             0
   3.53477e+60  -5.61619e+59   5.50245e+62   6.58236e+66             0             0   6.58236e+66   6.58236e+66             0             0             0             0             0
   3.53477e+60  -5.61619e+59   5.50245e+62  -6.58236e+66             0             0   6.58236e+66  -6.58236e+66             0             0             0             0            -0
   3.53477e+60  -5.61619e+59   5.50245e+62  -6.58236e+66             0             0   6.58236e+66  -6.58236e+66             0             0            -0             0            -0
   3.53477e+60  -5.61619e+59   5.50245e+62  -6.58236e+66             0             0   6.58236e+66  -6.58236e+66             0             0            -0             0             0
   3.53477e+60  -5.61619e+59   5.50245e+62  -6.58236e+66             0             0   6.58236e+66  -6.58236e+66             0             0             0             0             0
   3.53477e+60  -5.61619e+59   5.50245e+62   6.58236e+66             0             0   6.58236e+66   6.58236e+66             0             0             0             0            -0
   3.53477e+60  -5.61619e+59   5.50245e+62   6.58236e+66             0             0   6.58236e+66   6.58236e+66             0             0            -0             0            -0
   4.18981e+60  -5.38435e+59   5.42448e+62   6.58236e+66             0             0   6.58236e+66   6.58236e+66             0             0            -0             0             0
   4.18981e+60  -5.38435e+59   5.42448e+62   6.58236e+66             0             0   6.58236e+66   6.58236e+66             0             0             0             0             0
   4.18981e+60  -5.38435e+59   5.42448e+62  -6.58236e+66             0             0   6.58236e+66  -6.58236e+66             0             0             0             0            -0
   4.18981e+60  -5.38435e+59   5.42448e+62  -6.58236e+66             0             0   6.58236e+66  -6.58236e+66             0             0            -0             0            -0
   4.18981e+60  -5.38435e+59   5.42448e+62  -6.58236e+66             0             0   6.58236e+66  -6.58236e+66             0             0            -0             0             0
   4.18981e+60  -5.38435e+59   5.42448e+62  -6.58236e+66             0             0   6.58236e+66  -6.58236e+66             0             0             0             0             0
   4.18981e+60  -5.38435e+59   5.42448e+62   6.58236e+66             0             0   6.58236e+66   6.58236e+66             0             0             0             0            -0
   4.18981e+60  -5.38435e+59   5.42448e+62   6.58236e+66             0             0   6.58236e+66   6.58236e+66             0             0            -0             0            -0
   4.84486e+60  -5.15251e+59   5.34652e+62   6.58236e+66             0             0   6.58236e+66   6.58236e+66             0             0            -0             0             0
   4.84486e+60  -5.15251e+59   5.34652e+62   6.58236e+66             0             0   6.58236e+66   6.58236e+66             0             0             0             0             0
   4.84486e+60  -5.15251e+59   5.34652e+62  -6.58236e+66             0             0   6.58236e+66  -6.58236e+66             0             0             0             0            -0
   4.84486e+60  -5.15251e+59   5.34652e+62  -6.58236e+66             0             0   6.58236e+66  -6.58236e+66             0             0            -0             0            -0
   4.84486e+60  -5.15251e+59   5.34652e+62  -6.58236e+66             0             0   6.58236e+66  -6.58236e+66             0             0            -0             0             0
   4.84486e+60  -5.15251e+59   5.34652e+62  -6.58236e+66             0             0   6.58236e+66  -6.58236e+66             0             0             0             0             0
   4.84486e+60  -5.15251e+59   5.34652e+62   6.58236e+66             0             0   6.58236e+66   6.58236e+66             0             0             0             0            -0
   4.84486e+60  -5.15251e+59   5.34652e+62   6.58236e+66             0             0   6.58236e+66   6.58236e+66             0             0            -0             0            -0
    5.4999e+60  -4.92067e+59   5.26855e+62   6.58236e+66             0             0   6.58236e+66   6.58236e+66             0             0            -0             0             0
    5.4999e+60  -4.92067e+59   5.26855e+62   6.58236e+66             0             0   6.58236e+66   6.58236e+66             0             0             0             0             0
    5.4999e+60  -4.92067e+59   5.26855e+62  -6.58236e+66             0             0   6.58236e+66  -6.58236e+66             0             0             0             0            -0
    5.4999e+60  -4.92067e+59   5.26855e+62  -6.58236e+66             0             0   6.58236e+66  -6.58236e+66             0             0            -0             0            -0
    5.4999e+60  -4.92067e+59   5.26855e+62  -6.58237e+66             0             0   6.58237e+66  -6.58237e+66             0             0            -0             0             0
    5.4999e+60  -4.92067e+59   5.26855e+62  -6.58237e+66             0             0   6.58237e+66  -6.58237e+66             0             0             0             0             0
    5.4999e+60  -4.92067e+59   5.26855e+62   6.58237e+66             0             0   6.58237e+66   6.58237e+66             0             0             0             0            -0
    5.4999e+60  -4.92067e+59   5.26855e+62   6.58237e+66             0             0   6.58237e+66   6.58237e+66             0             0            -0             0            -0
   6.15494e+60  -4.68883e+59   5.19059e+62   6.58237e+66             0             0   6.58237e+66   6.58237e+66             0             0            -0             0             0
   6.15494e+60  -4.68883e+59   5.19059e+62   6.58237e+66             0             0   6.58237e+66   6.58237e+66             0             0             0             0             0
   6.15494e+60  -4.68883e+59   5.19059e+62  -6.58237e+66             0             0   6.58237e+66  -6.58237e+66             0             0             0             0            -0
   6.15494e+60  -4.68883e+59   5.19059e+62  -6.58237e+66             0             0   6.58237e+66  -6.58237e+66             0             0            -0             0            -0
   6.15494e+60  -4.68883e+59   5.19059e+62  -6.58234e+66             0             0   6.58234e+66  -6.58234e+66             0             0            -0             0             0
   6.15494e+60  -4.68883e+59   5.19059e+62  -6.58234e+66             0             0   6.58234e+66  -6.58234e+66             0             0             0             0             0
   6.15494e+60  -4.68883e+59   5.19059e+62   6.58234e+66             0             0   6.58234e+66   6.58234e+66             0             0             0             0            -0
   6.15494e+60  -4.68883e+59   5.19059e+62   6.58234e+66             0             0   6.58234e+66   6.58234e+66             0             0            -0             0            -0
   6.80999e+60    -4.457e+59   5.11262e+62   6.58234e+66             0             0   6.58234e+66   6.58234e+66             0             0            -0             0             0
   6.80999e+60    -4.457e+59   5.11262e+62   6.58234e+66             0             0   6.58234e+66   6.58234e+66             0             0             0             0             0
   6.80999e+60    -4.457e+59   5.11262e+62  -6.58234e+66             0             0   6.58234e+66  -6.58234e+66             0             0             0             0            -0
   6.80999e+60    -4.457e+59   5.11262e+62  -6.58234e+66             0             0   6.58234e+66  -6.58234e+66             0             0            -0             0            -0
   6.80999e+60    -4.457e+59   5.11262e+62  -6.58237e+66             0             0   6.58237e+66  -6.58237e+66             0             0            -0             0             0
   6.80999e+60    -4.457e+59   5.11262e+62  -6.58237e+66             0             0   6.58237e+66  -6.58237e+66             0             0             0             0             0
   6.80999e+60    -4.457e+59   5.11262e+62   6.58237e+66             0             0   6.58237e+66   6.58237e+66             0             0             0             0            -0
   6.80999e+60    -4.457e+59   5.11262e+62   6.58237e+66             0             0   6.58237e+66   6.58237e+66             0             0            -0             0            -0
   7.46503e+60  -4.22516e+59   5.03465e+62   6.58237e+66             0             0   6.58237e+66   6.58237e+66             0             0            -0             0             0
   7.46503e+60  -4.22516e+59   5.03465e+62   6.58237e+66             0             0   6.58237e+66   6.58237e+66             0             0             0             0             0
   7.46503e+60  -4.22516e+59   5.03465e+62  -6.58237e+66             0             0   6.58237e+66  -6.58237e+66             0             0             0             0            -0
   7.46503e+60  -4.22516e+59   5.03465e+62  -6.58237e+66             0             0   6.58237e+66  -6.58237e+66             0             0            -0             0            -0
   7.46503e+60  -4.22516e+59   5.03465e+62  -6.58234e+66             0             0   6.58234e+66  -6.58234e+66             0             0            -0             0             0
   7.46503e+60  -4.22516e+59   5.03465e+62  -6.58234e+66             0             0   6.58234e+66  -6.58234e+66             0             0             0             0             0
   7.46503e+60  -4.22516e+59   5.03465e+62   6.58234e+66             0             0   6.58234e+66   6.58234e+66             0             0             0             0            -0
   7.46503e+60  -4.22516e+59   5.03465e+62   6.58234e+66             0             0   6.58234e+66   6.58234e+66             0             0            -0             0            -0
   8.12007e+60  -3.99332e+59   4.95669e+62   6.58234e+66             0             0   6.58234e+66   6.58234e+66             0             0            -0             0             0
   8.12007e+60  -3.99332e+59   4.95669e+62   6.58234e+66             0             0   6.58234e+66   6.58234e+66             0             0             0             0             0
   8.12007e+60  -3.99332e+59   4.95669e+62  -6.58234e+66             0             0   6.58234e+66  -6.58234e+66             0             0             0             0            -0
   8.12007e+60  -3.99332e+59   4.95669e+62  -6.58234e+66             0             0   6.58234e+66  -6.58234e+66             0             0            -0             0            -0
   8.12007e+60  -3.99332e+59   4.95669e+62  -6.58237e+66             0             0   6.58237e+66  -6.58237e+66             0             0            -0             0             0
   8.12007e+60  -3.99332e+59   4.95669e+62  -6.58237e+66             0             0   6.58237e+66  -6.58237e+66             0             0             0             0             0
   8.12007e+60  -3.99332e+59   4.95669e+62   6.58237e+66             0             0   6.58237e+66   6.58237e+66             0             0             0             0            -0
   8.12007e+60  -3.99332e+59   4.95669e+62   6.58237e+66             0             0   6.58237e+66   6.58237e+66             0             0            -0             0            -0
   8.77512e+60  -3.76148e+59   4.87872e+62   6.58237e+66             0             0   6.58237e+66   6.58237e+66             0             0            -0             0             0
   8.77512e+60  -3.76148e+59   4.87872e+62   6.58237e+66             0             0   6.58237e+66   6.58237e+66             0             0             0             0             0
   8.77512e+60  -3.76148e+59   4.87872e+62  -6.58237e+66             0             0   6.58237e+66  -6.58237e+66             0             0             0             0            -0
   8.77512e+60  -3.76148e+59   4.87872e+62  -6.58237e+66             0             0   6.58237e+66  -6.58237e+66             0             0            -0             0            -0
   8.77512e+60  -3.76148e+59   4.87872e+62  -6.58234e+66             0             0   6.58234e+66  -6.58234e+66             0             0            -0             0             0
   8.77512e+60  -3.76148e+59   4.87872e+62  -6.58234e+66             0             0   6.58234e+66  -6.58234e+66             0             0             0             0             0
   8.77512e+60  -3.76148e+59   4.87872e+62   6.58234e+66             0             0   6.58234e+66   6.58234e+66             0             0             0             0            -0
   8.77512e+60  -3.76148e+59   4.87872e+62   6.58234e+66             0             0   6.58234e+66   6.58234e+66             0             0            -0             0            -0
   9.43016e+60  -3.52964e+59   4.80075e+62   6.58234e+66             0             0   6.58234e+66   6.58234e+66             0             0            -0             0             0
   9.43016e+60  -3.52964e+59   4.80075e+62   6.58234e+66             0             0   6.58234e+66   6.58234e+66             0             0             0             0             0
   9.43016e+60  -3.52964e+59   4.80075e+62  -6.58234e+66             0             0   6.58234e+66  -6.58234e+66             0             0             0             0            -0
   9.43016e+60  -3.52964e+59   4.80075e+62  -6.58234e+66             0             0   6.58234e+66  -6.58234e+66             0             0            -0             0            -0
   9.43016e+60  -3.52964e+59   4.80075e+62  -6.58237e+66             0             0   6.58237e+66  -6.58237e+66             0             0            -0             0             0
   9.43016e+60  -3.52964e+59   4.80075e+62  -6.58237e+66             0             0   6.58237e+66  -6.58237e+66             0             0             0             0             0
   9.43016e+60  -3.52964e+59   4.80075e+62   6.58237e+66             0             0   6.58237e+66   6.58237e+66             0             0             0             0            -0
   9.43016e+60  -3.52964e+59   4.80075e+62   6.58237e+66             0             0   6.58237e+66   6.58237e+66             0             0            -0             0            -0
   1.00852e+61   -3.2978e+59   4.72279e+62   6.58237e+66             0             0   6.58237e+66   6.58237e+66             0             0            -0             0             0
   1.00852e+61   -3.2978e+59   4.72279e+62   6.58237e+66             0             0   6.58237e+66   6.58237e+66             0             0             0             0             0
   1.00852e+61   -3.2978e+59   4.72279e+62  -6.58237e+66             0             0   6.58237e+66  -6.58237e+66             0             0             0             0            -0
   1.00852e+61   -3.2978e+59   4.72279e+62  -6.58237e+66             0             0   6.58237e+66  -6.58237e+66             0             0            -0             0            -0
   -3.1391e+61  -6.92246e+59   5.76451e+62   1.22825e+69             0             0   1.22825e+69   1.22825e+69             0             0            -0             0             0
   -3.1391e+61  -6.92246e+59   5.76451e+62   1.22825e+69             0             0   1.22825e+69   1.22825e+69             0             0             0             0             0
   -3.1391e+61  -6.92246e+59   5.76451e+62  -1.22825e+69             0             0   1.22825e+69  -1.22825e+69             0             0             0             0            -0
   -3.1391e+61  -6.92246e+59   5.76451e+62  -1.22825e+69             0             0   1.22825e+69  -1.22825e+69             0             0            -0             0            -0
  -2.72709e+61  -6.84611e+59   5.76099e+62  -1.22825e+69             0             0   1.22825e+69  -1.22825e+69             0             0            -0             0             0
  -2.72709e+61  -6.84611e+59   5.76099e+62  -1.22825e+69             0             0   1.22825e+69  -1.22825e+69             0             0             0             0             0
  -2.72709e+61  -6.84611e+59   5.76099e+62   1.22825e+69             0             0   1.22825e+69   1.22825e+69             0             0             0             0            -0
  -2.72709e+61  -6.84611e+59   5.76099e+62   1.22825e+69             0             0   1.22825e+69   1.22825e+69             0             0            -0             0            -0
  -2.72709e+61  -6.84611e+59   5.76099e+62   1.22825e+69             0             0   1.22825e+69   1.22825e+69             0             0            -0             0             0
  -2.72709e+61  -6.84611e+59   5.76099e+62   1.22825e+69             0             0   1.22825e+69   1.22825e+69             0             0             0             0             0
  -2.72709e+61  -6.84611e+59   5.76099e+62  -1.22825e+69             0             0   1.22825e+69  -1.22825e+69             0             0             0             0            -0
  -2.72709e+61  -6.84611e+59   5.76099e+62  -1.22825e+69             0             0   1.22825e+69  -1.22825e+69             0             0            -0             0            -0
  -2.31508e+61  -6.76977e+59   5.75747e+62  -1.22825e+69             0             0   1.22825e+69  -1.22825e+69             0             0            -0             0             0
  -2.31508e+61  -6.76977e+59   5.75747e+62  -1.22825e+69             0             0   1.22825e+69  -1.22825e+69             0             0             0             0             0
  -2.31508e+61  -6.76977e+59   5.75747e+62   1.22825e+69             0             0   1.22825e+69   1.22825e+69             0             0             0             0            -0
  -2.31508e+61  -6.76977e+59   5.75747e+62   1.22825e+69             0             0   1.22825e+69   1.22825e+69             0             0            -0             0            -0
  -2.31508e+61  -6.76977e+59   5.75747e+62   1.22825e+69             0             0   1.22825e+69   1.22825e+69             0             0            -0             0             0
  -2.31508e+61  -6.76977e+59   5.75747e+62   1.22825e+69             0             0   1.22825e+69   1.22825e+69             0             0             0             0             0
  -2.31508e+61  -6.76977e+59   5.75747e+62  -1.22825e+69             0             0   1.22825e+69  -1.22825e+69             0             0             0             0            -0
  -2.31508e+61  -6.76977e+59   5.75747e+62  -1.22825e+69             0             0   1.22825e+69  -1.22825e+69             0             0            -0             0            -0
  -1.90307e+61  -6.69343e+59   5.75395e+62  -1.22825e+69             0             0   1.22825e+69  -1.22825e+69             0             0            -0             0             0
  -1.90307e+61  -6.69343e+59   5.75395e+62  -1.22825e+69             0             0   1.22825e+69  -1.22825e+69             0             0             0             0             0
  -1.90307e+61  -6.69343e+59   5.75395e+62   1.22825e+69             0             0   1.22825e+69   1.22825e+69             0             0             0             0            -0
  -1.90307e+61  -6.69343e+59   5.75395e+62   1.22825e+69             0             0   1.22825e+69   1.22825e+69             0             0            -0             0            -0
  -1.90307e+61  -6.69343e+59   5.75395e+62   1.22825e+69             0             0   1.22825e+69   1.22825e+69             0             0            -0             0             0
  -1.90307e+61  -6.69343e+59   5.75395e+62   1.22825e+69             0             0   1.22825e+69   1.22825e+69             0             0             0             0             0
  -1.90307e+61  -6.69343e+59   5.75395e+62  -1.22825e+69             0             0   1.22825e+69  -1.22825e+69             0             0             0             0            -0
  -1.90307e+61  -6.69343e+59   5.75395e+62  -1.22825e+69             0             0   1.22825e+69  -1.22825e+69             0             0            -0             0            -0
  -1.49107e+61  -6.61708e+59   5.75043e+62  -1.22825e+69             0             0   1.22825e+69  -1.22825e+69             0             0            -0             0             0
  -1.49107e+61  -6.61708e+59   5.75043e+62  -1.22825e+69             0             0   1.22825e+69  -1.22825e+69             0             0             0             0             0
  -1.49107e+61  -6.61708e+59   5.75043e+62   1.22825e+69             0             0   1.22825e+69   1.22825e+69             0             0             0             0            -0
  -1.49107e+61  -6.61708e+59   5.75043e+62   1.22825e+69             0             0   1.22825e+69   1.22825e+69             0             0            -0             0            -0
  -1.49107e+61  -6.61708e+59   5.75043e+62   1.22825e+69             0             0   1.22825e+69   1.22825e+69             0             0            -0             0             0
  -1.49107e+61  -6.61708e+59   5.75043e+62   1.22825e+69             0             0   1.22825e+69   1.22825e+69             0             0             0             0             0
  -1.49107e+61  -6.61708e+59   5.75043e+62  -1.22825e+69             0             0   1.22825e+69  -1.22825e+69             0             0             0             0            -0
  -1.49107e+61  -6.61708e+59   5.75043e+62  -1.22825e+69             0             0   1.22825e+69  -1.22825e+69             0             0            -0             0            -0
  -1.07906e+61  -6.54074e+59   5.74691e+62  -1.22825e+69             0             0   1.22825e+69  -1.22825e+69             0             0            -0             0             0
  -1.07906e+61  -6.54074e+59   5.74691e+62  -1.22825e+69             0             0   1.22825e+69  -1.22825e+69             0             0             0             0             0
  -1.07906e+61  -6.54074e+59   5.74691e+62   1.22825e+69             0             0   1.22825e+69   1.22825e+69             0             0             0             0            -0
  -1.07906e+61  -6.54074e+59   5.74691e+62   1.22825e+69             0             0   1.22825e+69   1.22825e+69             0             0            -0             0            -0
  -1.07906e+61  -6.54074e+59   5.74691e+62   1.22825e+69             0             0   1.22825e+69   1.22825e+69             0             0            -0             0             0
  -1.07906e+61  -6.54074e+59   5.74691e+62   1.22825e+69             0             0   1.22825e+69   1.22825e+69             0             0             0             0             0
  -1.07906e+61  -6.54074e+59   5.74691e+62  -1.22825e+69             0             0   1.22825e+69  -1.22825e+69             0             0             0             0            -0
  -1.07906e+61  -6.54074e+59   5.74691e+62  -1.22825e+69             0             0   1.22825e+69  -1.22825e+69             0             0            -0             0            -0
  -6.67051e+60  -6.46439e+59   5.74339e+62  -1.22825e+69             0             0   1.22825e+69  -1.22825e+69             0             0            -0             0             0
  -6.67051e+60  -6.46439e+59   5.74339e+62  -1.22825e+69             0             0   1.22825e+69  -1.22825e+69             0             0             0             0             0
  -6.67051e+60  -6.46439e+59   5.74339e+62   1.22825e+69             0             0   1.22825e+69   1.22825e+69             0             0             0             0            -0
  -6.67051e+60  -6.46439e+59   5.74339e+62   1.22825e+69             0             0   1.22825e+69   1.22825e+69             0             0            -0             0            -0
  -6.67051e+60  -6.46439e+59   5.74339e+62   1.22825e+69             0             0   1.22825e+69   1.22825e+69             0             0            -0             0             0
  -6.67051e+60  -6.46439e+59   5.74339e+62   1.22825e+69             0             0   1.22825e+69   1.22825e+69             0             0             0             0             0
  -6.67051e+60  -6.46439e+59   5.74339e+62  -1.22825e+69             0             0   1.22825e+69  -1.22825e+69             0             0             0             0            -0
  -6.67051e+60  -6.46439e+59   5.74339e+62  -1.22825e+69             0             0   1.22825e+69  -1.22825e+69             0             0            -0             0            -0
  -2.55044e+60  -6.38805e+59   5.73987e+62  -1.22825e+69             0             0   1.22825e+69  -1.22825e+69             0             0            -0             0             0
  -2.55044e+60  -6.38805e+59   5.73987e+62  -1.22825e+69             0             0   1.22825e+69  -1.22825e+69             0             0             0             0             0
  -2.55044e+60  -6.38805e+59   5.73987e+62   1.22825e+69             0             0   1.22825e+69   1.22825e+69             0             0             0             0            -0
  -2.55044e+60  -6.38805e+59   5.73987e+62   1.22825e+69             0             0   1.22825e+69   1.22825e+69             0             0            -0             0            -0
  -2.55044e+60  -6.38805e+59   5.73987e+62   1.22825e+69             0             0   1.22825e+69   1.22825e+69             0             0            -0             0             0
  -2.55044e+60  -6.38805e+59   5.73987e+62   1.22825e+69             0             0   1.22825e+69   1.22825e+69             0             0             0             0             0
  -2.55044e+60  -6.38805e+59   5.73987e+62  -1.22825e+69             0             0   1.22825e+69  -1.22825e+69             0             0             0             0            -0
  -2.55044e+60  -6.38805e+59   5.73987e+62  -1.22825e+69             0             0   1.22825e+69  -1.22825e+69             0             0            -0             0            -0
   1.56964e+60   -6.3117e+59   5.73635e+62  -1.22825e+69             0             0   1.22825e+69  -1.22825e+69             0             0            -0             0             0
   1.56964e+60   -6.3117e+59   5.73635e+62  -1.22825e+69             0             0   1.22825e+69  -1.22825e+69             0             0             0             0             0
   1.56964e+60   -6.3117e+59   5.73635e+62   1.22825e+69             0             0   1.22825e+69   1.22825e+69             0             0             0             0            -0
   1.56964e+60   -6.3117e+59   5.73635e+62   1.22825e+69             0             0   1.22825e+69   1.22825e+69             0             0            -0             0            -0
  -2.88939e+48  -9.49901e+59   6.23214e+62  -1.72938e+67             0             0   1.72938e+67  -1.72938e+67             0             0            -0             0             0
  -2.88939e+48  -9.49901e+59   6.23214e+62  -1.72938e+67             0             0   1.72938e+67  -1.72938e+67             0             0             0             0             0
  -2.88939e+48  -9.49901e+59   6.23214e+62   1.72938e+67             0             0   1.72938e+67   1.72938e+67             0             0             0             0            -0
  -2.88939e+48  -9.49901e+59   6.23214e+62   1.72938e+67             0             0   1.72938e+67   1.72938e+67             0             0            -0             0            -0
  -1.04814e+59  -9.41606e+59   6.23302e+62   1.72938e+67             0             0   1.72938e+67   1.72938e+67             0             0            -0             0             0
  -1.04814e+59  -9.41606e+59   6.23302e+62   1.72938e+67             0             0   1.72938e+67   1.72938e+67             0             0             0             0             0
  -1.04814e+59  -9.41606e+59   6.23302e+62  -1.72938e+67             0             0   1.72938e+67  -1.72938e+67             0             0             0             0            -0
  -1.04814e+59  -9.41606e+59   6.23302e+62  -1.72938e+67             0             0   1.72938e+67  -1.72938e+67             0             0            -0             0            -0
  -1.04814e+59  -9.41606e+59   6.23302e+62  -1.72938e+67             0             0   1.72938e+67  -1.72938e+67             0             0            -0             0             0
  -1.04814e+59  -9.41606e+59   6.23302e+62  -1.72938e+67             0             0   1.72938e+67  -1.72938e+67             0             0             0             0             0
  -1.04814e+59  -9.41606e+59   6.23302e+62   1.72938e+67             0             0   1.72938e+67   1.72938e+67             0             0             0             0            -0
  -1.04814e+59  -9.41606e+59   6.23302e+62   1.72938e+67             0             0   1.72938e+67   1.72938e+67             0             0            -0             0            -0
  -2.09628e+59  -9.33312e+59   6.23389e+62   1.72938e+67             0             0   1.72938e+67   1.72938e+67             0             0            -0             0             0
  -2.09628e+59  -9.33312e+59   6.23389e+62   1.72938e+67             0             0   1.72938e+67   1.72938e+67             0             0             0             0             0
  -2.09628e+59  -9.33312e+59   6.23389e+62  -1.72938e+67             0             0   1.72938e+67  -1.72938e+67             0             0             0             0            -0
  -2.09628e+59  -9.33312e+59   6.23389e+62  -1.72938e+67             0             0   1.72938e+67  -1.72938e+67             0             0            -0             0            -0
  -2.09628e+59  -9.33312e+59   6.23389e+62  -1.72938e+67             0             0   1.72938e+67  -1.72938e+67             0             0            -0             0             0
  -2.09628e+59  -9.33312e+59   6.23389e+62  -1.72938e+67             0             0   1.72938e+67  -1.72938e+67             0             0             0             0             0
  -2.09628e+59  -9.33312e+59   6.23389e+62   1.72938e+67             0             0   1.72938e+67   1.72938e+67             0             0             0             0            -0
  -2.09628e+59  -9.33312e+59   6.23389e+62   1.72938e+67             0             0   1.72938e+67   1.72938e+67             0             0            -0             0            -0
  -3.14442e+59  -9.25017e+59   6.23477e+62   1.72938e+67             0             0   1.72938e+67   1.72938e+67             0             0            -0             0             0
  -3.14442e+59  -9.25017e+59   6.23477e+62   1.72938e+67             0             0   1.72938e+67   1.72938e+67             0             0             0             0             0
  -3.14442e+59  -9.25017e+59   6.23477e+62  -1.72938e+67             0             0   1.72938e+67  -1.72938e+67             0             0             0             0            -0
  -3.14442e+59  -9.25017e+59   6.23477e+62  -1.72938e+67             0             0   1.72938e+67  -1.72938e+67             0             0            -0             0            -0
  -3.14442e+59  -9.25017e+59   6.23477e+62  -1.72938e+67             0             0   1.72938e+67  -1.72938e+67             0             0            -0             0             0
  -3.14442e+59  -9.25017e+59   6.23477e+62  -1.72938e+67             0             0   1.72938e+67  -1.72938e+67             0             0             0             0             0
  -3.14442e+59  -9.25017e+59   6.23477e+62   1.72938e+67             0             0   1.72938e+67   1.72938e+67             0             0             0             0            -0
  -3.14442e+59  -9.25017e+59   6.23477e+62   1.72938e+67             0             0   1.72938e+67   1.72938e+67             0             0            -0             0            -0
  -4.19256e+59  -9.16722e+59   6.23564e+62   1.72938e+67             0             0   1.72938e+67   1.72938e+67             0             0            -0             0             0
  -4.19256e+59  -9.16722e+59   6.23564e+62   1.72938e+67             0             0   1.72938e+67   1.72938e+67             0             0             0             0             0
  -4.19256e+59  -9.16722e+59   6.23564e+62  -1.72938e+67             0             0   1.72938e+67  -1.72938e+67             0             0             0             0            -0
  -4.19256e+59  -9.16722e+59   6.23564e+62  -1.72938e+67             0             0   1.72938e+67  -1.72938e+67             0             0            -0             0            -0
  -4.19256e+59  -9.16722e+59   6.23564e+62  -1.72938e+67             0             0   1.72938e+67  -1.72938e+67             0             0            -0             0             0
  -4.19256e+59  -9.16722e+59   6.23564e+62  -1.72938e+67             0             0   1.72938e+67  -1.72938e+67             0             0             0             0             0
  -4.19256e+59  -9.16722e+59   6.23564e+62   1.72938e+67             0             0   1.72938e+67   1.72938e+67             0             0             0             0            -0
  -4.19256e+59  -9.16722e+59   6.23564e+62   1.72938e+67             0             0   1.72938e+67   1.72938e+67             0             0            -0             0            -0
   -5.2407e+59  -9.08428e+59   6.23652e+62   1.72938e+67             0             0   1.72938e+67   1.72938e+67             0             0            -0             0             0
   -5.2407e+59  -9.08428e+59   6.23652e+62   1.72938e+67             0             0   1.72938e+67   1.72938e+67             0             0             0             0             0
   -5.2407e+59  -9.08428e+59   6.23652e+62  -1.72938e+67             0             0   1.72938e+67  -1.72938e+67             0             0             0             0            -0
   -5.2407e+59  -9.08428e+59   6.23652e+62  -1.72938e+67             0             0   1.72938e+67  -1.72938e+67             0             0            -0             0            -0
   -5.2407e+59  -9.08428e+59   6.23652e+62  -1.72938e+67             0             0   1.72938e+67  -1.72938e+67             0             0            -0             0             0
   -5.2407e+59  -9.08428e+59   6.23652e+62  -1.72938e+67             0             0   1.72938e+67  -1.72938e+67             0             0             0             0             0
   -5.2407e+59  -9.08428e+59   6.23652e+62   1.72938e+67             0             0   1.72938e+67   1.72938e+67             0             0             0             0            -0
   -5.2407e+59  -9.08428e+59   6.23652e+62   1.72938e+67             0             0   1.72938e+67   1.72938e+67             0             0            -0             0            -0
  -6.28885e+59  -9.00133e+59   6.23739e+62   1.72938e+67             0             0   1.72938e+67   1.72938e+67             0             0            -0             0             0
  -6.28885e+59  -9.00133e+59   6.23739e+62   1.72938e+67             0             0   1.72938e+67   1.72938e+67             0             0             0             0             0
  -6.28885e+59  -9.00133e+59   6.23739e+62  -1.72938e+67             0             0   1.72938e+67  -1.72938e+67             0             0             0             0            -0
  -6.28885e+59  -9.00133e+59   6.23739e+62  -1.72938e+67             0             0   1.72938e+67  -1.72938e+67             0             0            -0             0            -0
  -6.28885e+59  -9.00133e+59   6.23739e+62  -1.72938e+67             0             0   1.72938e+67  -1.72938e+67             0             0            -0             0             0
  -6.28885e+59  -9.00133e+59   6.23739e+62  -1.72938e+67             0             0   1.72938e+67  -1.72938e+67             0             0             0             0             0
  -6.28885e+59  -9.00133e+59   6.23739e+62   1.72938e+67             0             0   1.72938e+67   1.72938e+67             0             0             0             0            -0
  -6.28885e+59  -9.00133e+59   6.23739e+62   1.72938e+67             0             0   1.72938e+67   1.72938e+67             0             0            -0             0            -0
  -7.33699e+59  -8.91838e+59   6.23827e+62   1.72938e+67             0             0   1.72938e+67   1.72938e+67             0             0            -0             0             0
  -7.33699e+59  -8.91838e+59   6.23827e+62   1.72938e+67             0             0   1.72938e+67   1.72938e+67             0             0             0             0             0
  -7.33699e+59  -8.91838e+59   6.23827e+62  -1.72938e+67             0             0   1.72938e+67  -1.72938e+67             0             0             0             0            -0
  -7.33699e+59  -8.91838e+59   6.23827e+62  -1.72938e+67             0             0   1.72938e+67  -1.72938e+67             0             0            -0             0            -0
  -7.33699e+59  -8.91838e+59   6.23827e+62  -1.72938e+67             0             0   1.72938e+67  -1.72938e+67             0             0            -0             0             0
  -7.33699e+59  -8.91838e+59   6.23827e+62  -1.72938e+67             0             0   1.72938e+67  -1.72938e+67             0             0             0             0             0
  -7.33699e+59  -8.91838e+59   6.23827e+62   1.72938e+67             0             0   1.72938e+67   1.72938e+67             0             0             0             0            -0
  -7.33699e+59  -8.91838e+59   6.23827e+62   1.72938e+67             0             0   1.72938e+67   1.72938e+67             0             0            -0             0            -0
  -8.38513e+59  -8.83544e+59   6.23914e+62   1.72938e+67             0             0   1.72938e+67   1.72938e+67             0             0            -0             0             0
  -8.38513e+59  -8.83544e+59   6.23914e+62   1.72938e+67             0             0   1.72938e+67   1.72938e+67             0             0             0             0             0
  -8.38513e+59  -8.83544e+59   6.23914e+62  -1.72938e+67             0             0   1.72938e+67  -1.72938e+67             0             0             0             0            -0
  -8.38513e+59  -8.83544e+59   6.23914e+62  -1.72938e+67             0             0   1.72938e+67  -1.72938e+67             0             0            -0             0            -0
  -8.38513e+59  -8.83544e+59   6.23914e+62  -1.72938e+67             0             0   1.72938e+67  -1.72938e+67             0             0            -0             0             0
  -8.38513e+59  -8.83544e+59   6.23914e+62  -1.72938e+67             0             0   1.72938e+67  -1.72938e+67             0             0             0             0             0
  -8.38513e+59  -8.83544e+59   6.23914e+62   1.72938e+67             0             0   1.72938e+67   1.72938e+67             0             0             0             0            -0
  -8.38513e+59  -8.83544e+59   6.23914e+62   1.72938e+67             0             0   1.72938e+67   1.72938e+67             0             0            -0             0            -0
  -9.43327e+59  -8.75249e+59   6.24002e+62   1.72938e+67             0             0   1.72938e+67   1.72938e+67             0             0            -0             0             0
  -9.43327e+59  -8.75249e+59   6.24002e+62   1.72938e+67             0             0   1.72938e+67   1.72938e+67             0             0             0             0             0
  -9.43327e+59  -8.75249e+59   6.24002e+62  -1.72938e+67             0             0   1.72938e+67  -1.72938e+67             0             0             0             0            -0
  -9.43327e+59  -8.75249e+59   6.24002e+62  -1.72938e+67             0             0   1.72938e+67  -1.72938e+67             0             0            -0             0            -0
  -9.43327e+59  -8.75249e+59   6.24002e+62  -1.72938e+67             0             0   1.72938e+67  -1.72938e+67             0             0            -0             0             0
  -9.43327e+59  -8.75249e+59   6.24002e+62  -1.72938e+67             0             0   1.72938e+67  -1.72938e+67             0             0             0             0             0
  -9.43327e+59  -8.75249e+59   6.24002e+62   1.72938e+67             0             0   1.72938e+67   1.72938e+67             0             0             0             0            -0
  -9.43327e+59  -8.75249e+59   6.24002e+62   1.72938e+67             0             0   1.72938e+67   1.72938e+67             0             0            -0             0            -0
  -1.04814e+60  -8.66954e+59   6.24089e+62   1.72938e+67             0             0   1.72938e+67   1.72938e+67             0             0            -0             0             0
  -1.04814e+60  -8.66954e+59   6.24089e+62   1.72938e+67             0             0   1.72938e+67   1.72938e+67             0             0             0             0             0
  -1.04814e+60  -8.66954e+59   6.24089e+62  -1.72938e+67             0             0   1.72938e+67  -1.72938e+67             0             0             0             0            -0
  -1.04814e+60  -8.66954e+59   6.24089e+62  -1.72938e+67             0             0   1.72938e+67  -1.72938e+67             0             0            -0             0            -0
  -1.04814e+60  -8.66954e+59   6.24089e+62  -1.72938e+67             0             0   1.72938e+67  -1.72938e+67             0             0            -0             0             0
  -1.04814e+60  -8.66954e+59   6.24089e+62  -1.72938e+67             0             0   1.72938e+67  -1.72938e+67             0             0             0             0             0
  -1.04814e+60  -8.66954e+59   6.24089e+62   1.72938e+67             0             0   1.72938e+67   1.72938e+67             0             0             0             0            -0
  -1.04814e+60  -8.66954e+59   6.24089e+62   1.72938e+67             0             0   1.72938e+67   1.72938e+67             0             0            -0             0            -0
  -1.15295e+60   -8.5866e+59   6.24177e+62   1.72938e+67             0             0   1.72938e+67   1.72938e+67             0             0            -0             0             0
  -1.15295e+60   -8.5866e+59   6.24177e+62   1.72938e+67             0             0   1.72938e+67   1.72938e+67             0             0             0             0             0
  -1.15295e+60   -8.5866e+59   6.24177e+62  -1.72938e+67             0             0   1.72938e+67  -1.72938e+67             0             0             0             0            -0
  -1.15295e+60   -8.5866e+59   6.24177e+62  -1.72938e+67             0             0   1.72938e+67  -1.72938e+67             0             0            -0             0            -0
  -1.15295e+60   -8.5866e+59   6.24177e+62  -1.72938e+67             0             0   1.72938e+67  -1.72938e+67             0             0            -0             0             0
  -1.15295e+60   -8.5866e+59   6.24177e+62  -1.72938e+67             0             0   1.72938e+67  -1.72938e+67             0             0             0             0             0
  -1.15295e+60   -8.5866e+59   6.24177e+62   1.72938e+67             0             0   1.72938e+67   1.72938e+67             0             0             0             0            -0
  -1.15295e+60   -8.5866e+59   6.24177e+62   1.72938e+67             0             0   1.72938e+67   1.72938e+67             0             0            -0             0            -0
  -1.25777e+60  -8.50365e+59   6.24264e+62   1.72938e+67             0             0   1.72938e+67   1.72938e+67             0             0            -0             0             0
  -1.25777e+60  -8.50365e+59   6.24264e+62   1.72938e+67             0             0   1.72938e+67   1.72938e+67             0             0             0             0             0
  -1.25777e+60  -8.50365e+59   6.24264e+62  -1.72938e+67             0             0   1.72938e+67  -1.72938e+67             0             0             0             0            -0
  -1.25777e+60  -8.50365e+59   6.24264e+62  -1.72938e+67             0             0   1.72938e+67  -1.72938e+67             0             0            -0             0            -0
  -1.25777e+60  -8.50365e+59   6.24264e+62  -1.72938e+67             0             0   1.72938e+67  -1.72938e+67             0             0            -0             0             0
  -1.25777e+60  -8.50365e+59   6.24264e+62  -1.72938e+67             0             0   1.72938e+67  -1.72938e+67             0             0             0             0             0
  -1.25777e+60  -8.50365e+59   6.24264e+62   1.72938e+67             0             0   1.72938e+67   1.72938e+67             0             0             0             0            -0
  -1.25777e+60  -8.50365e+59   6.24264e+62   1.72938e+67             0             0   1.72938e+67   1.72938e+67             0             0            -0             0            -0
  -1.36258e+60   -8.4207e+59   6.24352e+62   1.72938e+67             0             0   1.72938e+67   1.72938e+67             0             0            -0             0             0
  -1.36258e+60   -8.4207e+59   6.24352e+62   1.72938e+67             0             0   1.72938e+67   1.72938e+67             0             0             0             0             0
  -1.36258e+60   -8.4207e+59   6.24352e+62  -1.72938e+67             0             0   1.72938e+67  -1.72938e+67             0             0             0             0            -0
  -1.36258e+60   -8.4207e+59   6.24352e+62  -1.72938e+67             0             0   1.72938e+67  -1.72938e+67             0             0            -0             0            -0
  -1.36258e+60   -8.4207e+59   6.24352e+62  -1.72938e+67             0             0   1.72938e+67  -1.72938e+67             0             0            -0             0             0
  -1.36258e+60   -8.4207e+59   6.24352e+62  -1.72938e+67             0             0   1.72938e+67  -1.72938e+67             0             0             0             0             0
  -1.36258e+60   -8.4207e+59   6.24352e+62   1.72938e+67             0             0   1.72938e+67   1.72938e+67             0             0             0             0            -0
  -1.36258e+60   -8.4207e+59   6.24352e+62   1.72938e+67             0             0   1.72938e+67   1.72938e+67             0             0            -0             0            -0
   -1.4674e+60  -8.33776e+59   6.24439e+62   1.72938e+67             0             0   1.72938e+67   1.72938e+67             0             0            -0             0             0
   -1.4674e+60  -8.33776e+59   6.24439e+62   1.72938e+67             0             0   1.72938e+67   1.72938e+67             0             0             0             0             0
   -1.4674e+60  -8.33776e+59   6.24439e+62  -1.72938e+67             0             0   1.72938e+67  -1.72938e+67             0             0             0             0            -0
   -1.4674e+60  -8.33776e+59   6.24439e+62  -1.72938e+67             0             0   1.72938e+67  -1.72938e+67             0             0            -0             0            -0
   -1.4674e+60  -8.33776e+59   6.24439e+62  -1.72938e+67             0             0   1.72938e+67  -1.72938e+67             0             0            -0             0             0
   -1.4674e+60  -8.33776e+59   6.24439e+62  -1.72938e+67             0             0   1.72938e+67  -1.72938e+67             0             0             0             0             0
   -1.4674e+60  -8.33776e+59   6.24439e+62   1.72938e+67             0             0   1.72938e+67   1.72938e+67             0             0             0             0            -0
   -1.4674e+60  -8.33776e+59   6.24439e+62   1.72938e+67             0             0   1.72938e+67   1.72938e+67             0             0            -0             0            -0
  -1.57221e+60  -8.25481e+59   6.24527e+62   1.72938e+67             0             0   1.72938e+67   1.72938e+67             0             0            -0             0             0
  -1.57221e+60  -8.25481e+59   6.24527e+62   1.72938e+67             0             0   1.72938e+67   1.72938e+67             0             0             0             0             0
  -1.57221e+60  -8.25481e+59   6.24527e+62  -1.72938e+67             0             0   1.72938e+67  -1.72938e+67             0             0             0             0            -0
  -1.57221e+60  -8.25481e+59   6.24527e+62  -1.72938e+67             0             0   1.72938e+67  -1.72938e+67             0             0            -0             0            -0
  -2.88939e+48  -9.49901e+59   6.23214e+62   1.26829e+67             0             0   1.26829e+67   1.26829e+67             0             0            -0             0             0
  -2.88939e+48  -9.49901e+59   6.23214e+62   1.26829e+67             0             0   1.26829e+67   1.26829e+67             0             0             0             0             0
  -2.88939e+48  -9.49901e+59   6.23214e+62  -1.26829e+67             0             0   1.26829e+67  -1.26829e+67             0             0             0             0            -0
  -2.88939e+48  -9.49901e+59   6.23214e+62  -1.26829e+67             0             0   1.26829e+67  -1.26829e+67             0             0            -0             0            -0
   1.04814e+59  -9.41606e+59   6.23302e+62  -1.26829e+67             0             0   1.26829e+67  -1.26829e+67             0             0            -0             0             0
   1.04814e+59  -9.41606e+59   6.23302e+62  -1.26829e+67             0             0   1.26829e+67  -1.26829e+67             0             0             0             0             0
   1.04814e+59  -9.41606e+59   6.23302e+62   1.26829e+67             0             0   1.26829e+67   1.26829e+67             0             0             0             0            -0
   1.04814e+59  -9.41606e+59   6.23302e+62   1.26829e+67             0             0   1.26829e+67   1.26829e+67             0             0            -0             0            -0
   1.04814e+59  -9.41606e+59   6.23302e+62   1.26829e+67             0             0   1.26829e+67   1.26829e+67             0             0            -0             0             0
   1.04814e+59  -9.41606e+59   6.23302e+62   1.26829e+67             0             0   1.26829e+67   1.26829e+67             0             0             0             0             0
   1.04814e+59  -9.41606e+59   6.23302e+62  -1.26829e+67             0             0   1.26829e+67  -1.26829e+67             0             0             0             0            -0
   1.04814e+59  -9.41606e+59   6.23302e+62  -1.26829e+67             0             0   1.26829e+67  -1.26829e+67             0             0            -0             0            -0
   2.09628e+59  -9.33312e+59   6.23389e+62  -1.26829e+67             0             0   1.26829e+67  -1.26829e+67             0             0            -0             0             0
   2.09628e+59  -9.33312e+59   6.23389e+62  -1.26829e+67             0             0   1.26829e+67  -1.26829e+67             0             0             0             0             0
   2.09628e+59  -9.33312e+59   6.23389e+62   1.26829e+67             0             0   1.26829e+67   1.26829e+67             0             0             0             0            -0
   2.09628e+59  -9.33312e+59   6.23389e+62   1.26829e+67             0             0   1.26829e+67   1.26829e+67             0             0            -0             0            -0
   2.09628e+59  -9.33312e+59   6.23389e+62   1.26829e+67             0             0   1.26829e+67   1.26829e+67             0             0            -0             0             0
   2.09628e+59  -9.33312e+59   6.23389e+62   1.26829e+67             0             0   1.26829e+67   1.26829e+67             0             0             0             0             0
   2.09628e+59  -9.33312e+59   6.23389e+62  -1.26829e+67             0             0   1.26829e+67  -1.26829e+67             0             0             0             0            -0
   2.09628e+59  -9.33312e+59   6.23389e+62  -1.26829e+67             0             0   1.26829e+67  -1.26829e+67             0             0            -0             0            -0
   3.14442e+59  -9.25017e+59   6.23477e+62  -1.26829e+67             0             0   1.26829e+67  -1.26829e+67             0             0            -0             0             0
   3.14442e+59  -9.25017e+59   6.23477e+62  -1.26829e+67             0             0   1.26829e+67  -1.26829e+67             0             0             0             0             0
   3.14442e+59  -9.25017e+59   6.23477e+62   1.26829e+67             0             0   1.26829e+67   1.26829e+67             0             0             0             0            -0
   3.14442e+59  -9.25017e+59   6.23477e+62   1.26829e+67             0             0   1.26829e+67   1.26829e+67             0             0            -0             0            -0
   3.14442e+59  -9.25017e+59   6.23477e+62   1.26829e+67             0             0   1.26829e+67   1.26829e+67             0             0            -0             0             0
   3.14442e+59  -9.25017e+59   6.23477e+62   1.26829e+67             0             0   1.26829e+67   1.26829e+67             0             0             0             0             0
   3.14442e+59  -9.25017e+59   6.23477e+62  -1.26829e+67             0             0   1.26829e+67  -1.26829e+67             0             0             0             0            -0
   3.14442e+59  -9.25017e+59   6.23477e+62  -1.26829e+67             0             0   1.26829e+67  -1.26829e+67             0             0            -0             0            -0
   4.19256e+59  -9.16722e+59   6.23564e+62  -1.26829e+67             0             0   1.26829e+67  -1.26829e+67             0             0            -0             0             0
   4.19256e+59  -9.16722e+59   6.23564e+62  -1.26829e+67             0             0   1.26829e+67  -1.26829e+67             0             0             0             0             0
   4.19256e+59  -9.16722e+59   6.23564e+62   1.26829e+67             0             0   1.26829e+67   1.26829e+67             0             0             0             0            -0
   4.19256e+59  -9.16722e+59   6.23564e+62   1.26829e+67             0             0   1.26829e+67   1.26829e+67             0             0            -0             0            -0
   4.19256e+59  -9.16722e+59   6.23564e+62   1.26829e+67             0             0   1.26829e+67   1.26829e+67             0             0            -0             0             0
   4.19256e+59  -9.16722e+59   6.23564e+62   1.26829e+67             0             0   1.26829e+67   1.26829e+67             0             0             0             0             0
   4.19256e+59  -9.16722e+59   6.23564e+62  -1.26829e+67             0             0   1.26829e+67  -1.26829e+67             0             0             0             0            -0
   4.19256e+59  -9.16722e+59   6.23564e+62  -1.26829e+67             0             0   1.26829e+67  -1.26829e+67             0             0            -0             0            -0
    5.2407e+59  -9.08428e+59   6.23652e+62  -1.26829e+67             0             0   1.26829e+67  -1.26829e+67             0             0            -0             0             0
    5.2407e+59  -9.08428e+59   6.23652e+62  -1.26829e+67             0             0   1.26829e+67  -1.26829e+67             0             0             0             0             0
    5.2407e+59  -9.08428e+59   6.23652e+62   1.26829e+67             0             0   1.26829e+67   1.26829e+67             0             0             0             0            -0
    5.2407e+59  -9.08428e+59   6.23652e+62   1.26829e+67             0             0   1.26829e+67   1.26829e+67             0             0            -0             0            -0
    5.2407e+59  -9.08428e+59   6.23652e+62   1.26829e+67             0             0   1.26829e+67   1.26829e+67             0             0            -0             0             0
    5.2407e+59  -9.08428e+59   6.23652e+62   1.26829e+67             0             0   1.26829e+67   1.26829e+67             0             0             0             0             0
    5.2407e+59  -9.08428e+59   6.23652e+62  -1.26829e+67             0             0   1.26829e+67  -1.26829e+67             0             0             0             0            -0
    5.2407e+59  -9.08428e+59   6.23652e+62  -1.26829e+67             0             0   1.26829e+67  -1.26829e+67             0             0            -0             0            -0
   6.28885e+59  -9.00133e+59   6.23739e+62  -1.26829e+67             0             0   1.26829e+67  -1.26829e+67             0             0            -0             0             0
   6.28885e+59  -9.00133e+59   6.23739e+62  -1.26829e+67             0             0   1.26829e+67  -1.26829e+67             0             0             0             0             0
   6.28885e+59  -9.00133e+59   6.23739e+62   1.26829e+67             0             0   1.26829e+67   1.26829e+67             0             0             0             0            -0
   6.28885e+59  -9.00133e+59   6.23739e+62   1.26829e+67             0             0   1.26829e+67   1.26829e+67             0             0            -0             0            -0
   6.28885e+59  -9.00133e+59   6.23739e+62   1.26829e+67             0             0   1.26829e+67   1.26829e+67             0             0            -0             0             0
   6.28885e+59  -9.00133e+59   6.23739e+62   1.26829e+67             0             0   1.26829e+67   1.26829e+67             0             0             0             0             0
   6.28885e+59  -9.00133e+59   6.23739e+62  -1.26829e+67             0             0   1.26829e+67  -1.26829e+67             0             0             0             0            -0
   6.28885e+59  -9.00133e+59   6.23739e+62  -1.26829e+67             0             0   1.26829e+67  -1.26829e+67             0             0            -0             0            -0
   7.33699e+59  -8.91838e+59   6.23827e+62  -1.26829e+67             0             0   1.26829e+67  -1.26829e+67             0             0            -0             0             0
   7.33699e+59  -8.91838e+59   6.23827e+62  -1.26829e+67             0             0   1.26829e+67  -1.26829e+67             0             0             0             0             0
   7.33699e+59  -8.91838e+59   6.23827e+62   1.26829e+67             0             0   1.26829e+67   1.26829e+67             0             0             0             0            -0
   7.33699e+59  -8.91838e+59   6.23827e+62   1.26829e+67             0             0   1.26829e+67   1.26829e+67             0             0            -0             0            -0
   7.33699e+59  -8.91838e+59   6.23827e+62    1.2683e+67             0             0    1.2683e+67    1.2683e+67             0             0            -0             0             0
   7.33699e+59  -8.91838e+59   6.23827e+62    1.2683e+67             0             0    1.2683e+67    1.2683e+67             0             0             0             0             0
   7.33699e+59  -8.91838e+59   6.23827e+62   -1.2683e+67             0             0    1.2683e+67   -1.2683e+67             0             0             0             0            -0
   7.33699e+59  -8.91838e+59   6.23827e+62   -1.2683e+67             0             0    1.2683e+67   -1.2683e+67             0             0            -0             0            -0
   8.38513e+59  -8.83544e+59   6.23914e+62   -1.2683e+67             0             0    1.2683e+67   -1.2683e+67             0             0            -0             0             0
   8.38513e+59  -8.83544e+59   6.23914e+62   -1.2683e+67             0             0    1.2683e+67   -1.2683e+67             0             0             0             0             0
   8.38513e+59  -8.83544e+59   6.23914e+62    1.2683e+67             0             0    1.2683e+67    1.2683e+67             0             0             0             0            -0
   8.38513e+59  -8.83544e+59   6.23914e+62    1.2683e+67             0             0    1.2683e+67    1.2683e+67             0             0            -0             0            -0
   8.38513e+59  -8.83544e+59   6.23914e+62   1.26829e+67             0             0   1.26829e+67   1.26829e+67             0             0            -0             0             0
   8.38513e+59  -8.83544e+59   6.23914e+62   1.26829e+67             0             0   1.26829e+67   1.26829e+67             0             0             0             0             0
   8.38513e+59  -8.83544e+59   6.23914e+62  -1.26829e+67             0             0   1.26829e+67  -1.26829e+67             0             0             0             0            -0
   8.38513e+59  -8.83544e+59   6.23914e+62  -1.26829e+67             0             0   1.26829e+67  -1.26829e+67             0             0            -0             0            -0
   9.43327e+59  -8.75249e+59   6.24002e+62  -1.26829e+67             0             0   1.26829e+67  -1.26829e+67             0             0            -0             0             0
   9.43327e+59  -8.75249e+59   6.24002e+62  -1.26829e+67             0             0   1.26829e+67  -1.26829e+67             0             0             0             0             0
   9.43327e+59  -8.75249e+59   6.24002e+62   1.26829e+67             0             0   1.26829e+67   1.26829e+67             0             0             0             0            -0
   9.43327e+59  -8.75249e+59   6.24002e+62   1.26829e+67             0             0   1.26829e+67   1.26829e+67             0             0            -0             0            -0
   9.43327e+59  -8.75249e+59   6.24002e+62    1.2683e+67             0             0    1.2683e+67    1.2683e+67             0             0            -0             0             0
   9.43327e+59  -8.75249e+59   6.24002e+62    1.2683e+67             0             0    1.2683e+67    1.2683e+67             0             0             0             0             0
   9.43327e+59  -8.75249e+59   6.24002e+62   -1.2683e+67             0             0    1.2683e+67   -1.2683e+67             0             0             0             0            -0
   9.43327e+59  -8.75249e+59   6.24002e+62   -1.2683e+67             0             0    1.2683e+67   -1.2683e+67             0             0            -0             0            -0
   1.04814e+60  -8.66954e+59   6.24089e+62   -1.2683e+67             0             0    1.2683e+67   -1.2683e+67             0             0            -0             0             0
   1.04814e+60  -8.66954e+59   6.24089e+62   -1.2683e+67             0             0    1.2683e+67   -1.2683e+67             0             0             0             0             0
   1.04814e+60  -8.66954e+59   6.24089e+62    1.2683e+67             0             0    1.2683e+67    1.2683e+67             0             0             0             0            -0
   1.04814e+60  -8.66954e+59   6.24089e+62    1.2683e+67             0             0    1.2683e+67    1.2683e+67             0             0            -0             0            -0
   1.04814e+60  -8.66954e+59   6.24089e+62   1.26829e+67             0             0   1.26829e+67   1.26829e+67             0             0            -0             0             0
   1.04814e+60  -8.66954e+59   6.24089e+62   1.26829e+67             0             0   1.26829e+67   1.26829e+67             0             0             0             0             0
   1.04814e+60  -8.66954e+59   6.24089e+62  -1.26829e+67             0             0   1.26829e+67  -1.26829e+67             0             0             0             0            -0
   1.04814e+60  -8.66954e+59   6.24089e+62  -1.26829e+67             0             0   1.26829e+67  -1.26829e+67             0             0            -0             0            -0
   1.15295e+60   -8.5866e+59   6.24177e+62  -1.26829e+67             0             0   1.26829e+67  -1.26829e+67             0             0            -0             0             0
   1.15295e+60   -8.5866e+59   6.24177e+62  -1.26829e+67             0             0   1.26829e+67  -1.26829e+67             0             0             0             0             0
   1.15295e+60   -8.5866e+59   6.24177e+62   1.26829e+67             0             0   1.26829e+67   1.26829e+67             0             0             0             0            -0
   1.15295e+60   -8.5866e+59   6.24177e+62   1.26829e+67             0             0   1.26829e+67   1.26829e+67             0             0            -0             0            -0
   1.15295e+60   -8.5866e+59   6.24177e+62    1.2683e+67             0             0    1.2683e+67    1.2683e+67             0             0            -0             0             0
   1.15295e+60   -8.5866e+59   6.24177e+62    1.2683e+67             0             0    1.2683e+67    1.2683e+67             0             0             0             0             0
   1.15295e+60   -8.5866e+59   6.24177e+62   -1.2683e+67             0             0    1.2683e+67   -1.2683e+67             0             0             0             0            -0
   1.15295e+60   -8.5866e+59   6.24177e+62   -1.2683e+67             0             0    1.2683e+67   -1.2683e+67             0             0            -0             0            -0
   1.25777e+60  -8.50365e+59   6.24264e+62   -1.2683e+67             0             0    1.2683e+67   -1.2683e+67             0             0            -0             0             0
   1.25777e+60  -8.50365e+59   6.24264e+62   -1.2683e+67             0             0    1.2683e+67   -1.2683e+67             0             0             0             0             0
   1.25777e+60  -8.50365e+59   6.24264e+62    1.2683e+67             0             0    1.2683e+67    1.2683e+67             0             0             0             0            -0
   1.25777e+60  -8.50365e+59   6.24264e+62    1.2683e+67             0             0    1.2683e+67    1.2683e+67             0             0            -0             0            -0
   1.25777e+60  -8.50365e+59   6.24264e+62    1.2683e+67             0             0    1.2683e+67    1.2683e+67             0             0            -0             0             0
   1.25777e+60  -8.50365e+59   6.24264e+62    1.2683e+67             0             0    1.2683e+67    1.2683e+67             0             0             0             0             0
   1.25777e+60  -8.50365e+59   6.24264e+62   -1.2683e+67             0             0    1.2683e+67   -1.2683e+67             0             0             0             0            -0
   1.25777e+60  -8.50365e+59   6.24264e+62   -1.2683e+67             0             0    1.2683e+67   -1.2683e+67             0             0            -0             0            -0
   1.36258e+60   -8.4207e+59   6.24352e+62   -1.2683e+67             0             0    1.2683e+67   -1.2683e+67             0             0            -0             0             0
   1.36258e+60   -8.4207e+59   6.24352e+62   -1.2683e+67             0             0    1.2683e+67   -1.2683e+67             0             0             0             0             0
   1.36258e+60   -8.4207e+59   6.24352e+62    1.2683e+67             0             0    1.2683e+67    1.2683e+67             0             0             0             0            -0
   1.36258e+60   -8.4207e+59   6.24352e+62    1.2683e+67             0             0    1.2683e+67    1.2683e+67             0             0            -0             0            -0
   1.36258e+60   -8.4207e+59   6.24352e+62   1.26829e+67             0             0   1.26829e+67   1.26829e+67             0             0            -0             0             0
   1.36258e+60   -8.4207e+59   6.24352e+62   1.26829e+67             0             0   1.26829e+67   1.26829e+67             0             0             0             0             0
   1.36258e+60   -8.4207e+59   6.24352e+62  -1.26829e+67             0             0   1.26829e+67  -1.26829e+67             0             0             0             0            -0
   1.36258e+60   -8.4207e+59   6.24352e+62  -1.26829e+67             0             0   1.26829e+67  -1.26829e+67             0             0            -0             0            -0
    1.4674e+60  -8.33776e+59   6.24439e+62  -1.26829e+67             0             0   1.26829e+67  -1.26829e+67             0             0            -0             0             0
    1.4674e+60  -8.33776e+59   6.24439e+62  -1.26829e+67             0             0   1.26829e+67  -1.26829e+67             0             0             0             0             0
    1.4674e+60  -8.33776e+59   6.24439e+62   1.26829e+67             0             0   1.26829e+67   1.26829e+67             0             0             0             0            -0
    1.4674e+60  -8.33776e+59   6.24439e+62   1.26829e+67             0             0   1.26829e+67   1.26829e+67             0             0            -0             0            -0
    1.4674e+60  -8.33776e+59   6.24439e+62    1.2683e+67             0             0    1.2683e+67    1.2683e+67             0             0            -0             0             0
    1.4674e+60  -8.33776e+59   6.24439e+62    1.2683e+67             0             0    1.2683e+67    1.2683e+67             0             0             0             0             0
    1.4674e+60  -8.33776e+59   6.24439e+62   -1.2683e+67             0             0    1.2683e+67   -1.2683e+67             0             0             0             0            -0
    1.4674e+60  -8.33776e+59   6.24439e+62   -1.2683e+67             0             0    1.2683e+67   -1.2683e+67             0             0            -0             0            -0
   1.57221e+60  -8.25481e+59   6.24527e+62   -1.2683e+67             0             0    1.2683e+67   -1.2683e+67             0             0            -0             0             0
   1.57221e+60  -8.25481e+59   6.24527e+62   -1.2683e+67             0             0    1.2683e+67   -1.2683e+67             0             0             0             0             0
   1.57221e+60  -8.25481e+59   6.24527e+62    1.2683e+67             0             0    1.2683e+67    1.2683e+67             0             0             0             0            -0
   1.57221e+60  -8.25481e+59   6.24527e+62    1.2683e+67             0             0    1.2683e+67    1.2683e+67             0             0            -0             0            -0
  -9.05334e+48  -8.83601e+59   6.23346e+62  -1.26933e+66             0             0   1.26933e+66  -1.26933e+66             0             0            -0             0             0
  -9.05334e+48  -8.83601e+59   6.23346e+62  -1.26933e+66             0             0   1.26933e+66  -1.26933e+66             0             0             0             0             0
  -9.05334e+48  -8.83601e+59   6.23346e+62   1.26933e+66             0             0   1.26933e+66   1.26933e+66             0             0             0             0            -0
  -9.05334e+48  -8.83601e+59   6.23346e+62   1.26933e+66             0             0   1.26933e+66   1.26933e+66             0             0            -0             0            -0
   1.20939e+59   -8.7913e+59   6.23437e+62   1.26933e+66             0             0   1.26933e+66   1.26933e+66             0             0            -0             0             0
   1.20939e+59   -8.7913e+59   6.23437e+62   1.26933e+66             0             0   1.26933e+66   1.26933e+66             0             0             0             0             0
   1.20939e+59   -8.7913e+59   6.23437e+62  -1.26933e+66             0             0   1.26933e+66  -1.26933e+66             0             0             0             0            -0
   1.20939e+59   -8.7913e+59   6.23437e+62  -1.26933e+66             0             0   1.26933e+66  -1.26933e+66             0             0            -0             0            -0
   1.20939e+59   -8.7913e+59   6.23437e+62  -1.26933e+66             0             0   1.26933e+66  -1.26933e+66             0             0            -0             0             0
   1.20939e+59   -8.7913e+59   6.23437e+62  -1.26933e+66             0             0   1.26933e+66  -1.26933e+66             0             0             0             0             0
   1.20939e+59   -8.7913e+59   6.23437e+62   1.26933e+66             0             0   1.26933e+66   1.26933e+66             0             0             0             0            -0
   1.20939e+59   -8.7913e+59   6.23437e+62   1.26933e+66             0             0   1.26933e+66   1.26933e+66             0             0            -0             0            -0
   2.41879e+59  -8.74659e+59   6.23527e+62   1.26933e+66             0             0   1.26933e+66   1.26933e+66             0             0            -0             0             0
   2.41879e+59  -8.74659e+59   6.23527e+62   1.26933e+66             0             0   1.26933e+66   1.26933e+66             0             0             0             0             0
   2.41879e+59  -8.74659e+59   6.23527e+62  -1.26933e+66             0             0   1.26933e+66  -1.26933e+66             0             0             0             0            -0
   2.41879e+59  -8.74659e+59   6.23527e+62  -1.26933e+66             0             0   1.26933e+66  -1.26933e+66             0             0            -0             0            -0
   2.41879e+59  -8.74659e+59   6.23527e+62  -1.26933e+66             0             0   1.26933e+66  -1.26933e+66             0             0            -0             0             0
   2.41879e+59  -8.74659e+59   6.23527e+62  -1.26933e+66             0             0   1.26933e+66  -1.26933e+66             0             0             0             0             0
   2.41879e+59  -8.74659e+59   6.23527e+62   1.26933e+66             0             0   1.26933e+66   1.26933e+66             0             0             0             0            -0
   2.41879e+59  -8.74659e+59   6.23527e+62   1.26933e+66             0             0   1.26933e+66   1.26933e+66             0             0            -0             0            -0
   3.62818e+59  -8.70189e+59   6.23618e+62   1.26933e+66             0             0   1.26933e+66   1.26933e+66             0             0            -0             0             0
   3.62818e+59  -8.70189e+59   6.23618e+62   1.26933e+66             0             0   1.26933e+66   1.26933e+66             0             0             0             0             0
   3.62818e+59  -8.70189e+59   6.23618e+62  -1.26933e+66             0             0   1.26933e+66  -1.26933e+66             0             0             0             0            -0
   3.62818e+59  -8.70189e+59   6.23618e+62  -1.26933e+66             0             0   1.26933e+66  -1.26933e+66             0             0            -0             0            -0
   3.62818e+59  -8.70189e+59   6.23618e+62  -1.26933e+66             0             0   1.26933e+66  -1.26933e+66             0             0            -0             0             0
   3.62818e+59  -8.70189e+59   6.23618e+62  -1.26933e+66             0             0   1.26933e+66  -1.26933e+66             0             0             0             0             0
   3.62818e+59  -8.70189e+59   6.23618e+62   1.26933e+66             0             0   1.26933e+66   1.26933e+66             0             0             0             0            -0
   3.62818e+59  -8.70189e+59   6.23618e+62   1.26933e+66             0             0   1.26933e+66   1.26933e+66             0             0            -0             0            -0
   4.83757e+59  -8.65718e+59   6.23709e+62   1.26933e+66             0             0   1.26933e+66   1.26933e+66             0             0            -0             0             0
   4.83757e+59  -8.65718e+59   6.23709e+62   1.26933e+66             0             0   1.26933e+66   1.26933e+66             0             0             0             0             0
   4.83757e+59  -8.65718e+59   6.23709e+62  -1.26933e+66             0             0   1.26933e+66  -1.26933e+66             0             0             0             0            -0
   4.83757e+59  -8.65718e+59   6.23709e+62  -1.26933e+66             0             0   1.26933e+66  -1.26933e+66             0             0            -0             0            -0
   4.83757e+59  -8.65718e+59   6.23709e+62  -1.26933e+66             0             0   1.26933e+66  -1.26933e+66             0             0            -0             0             0
   4.83757e+59  -8.65718e+59   6.23709e+62  -1.26933e+66             0             0   1.26933e+66  -1.26933e+66             0             0             0             0             0
   4.83757e+59  -8.65718e+59   6.23709e+62   1.26933e+66             0             0   1.26933e+66   1.26933e+66             0             0             0             0            -0
   4.83757e+59  -8.65718e+59   6.23709e+62   1.26933e+66             0             0   1.26933e+66   1.26933e+66             0             0            -0             0            -0
   6.04697e+59  -8.61247e+59     6.238e+62   1.26933e+66             0             0   1.26933e+66   1.26933e+66             0             0            -0             0             0
   6.04697e+59  -8.61247e+59     6.238e+62   1.26933e+66             0             0   1.26933e+66   1.26933e+66             0             0             0             0             0
   6.04697e+59  -8.61247e+59     6.238e+62  -1.26933e+66             0             0   1.26933e+66  -1.26933e+66             0             0             0             0            -0
   6.04697e+59  -8.61247e+59     6.238e+62  -1.26933e+66             0             0   1.26933e+66  -1.26933e+66             0             0            -0             0            -0
   6.04697e+59  -8.61247e+59     6.238e+62  -1.26933e+66             0             0   1.26933e+66  -1.26933e+66             0             0            -0             0             0
   6.04697e+59  -8.61247e+59     6.238e+62  -1.26933e+66             0             0   1.26933e+66  -1.26933e+66             0             0             0             0             0
   6.04697e+59  -8.61247e+59     6.238e+62   1.26933e+66             0             0   1.26933e+66   1.26933e+66             0             0             0             0            -0
   6.04697e+59  -8.61247e+59     6.238e+62   1.26933e+66             0             0   1.26933e+66   1.26933e+66             0             0            -0             0            -0
   7.25636e+59  -8.56776e+59   6.23891e+62   1.26933e+66             0             0   1.26933e+66   1.26933e+66             0             0            -0             0             0
   7.25636e+59  -8.56776e+59   6.23891e+62   1.26933e+66             0             0   1.26933e+66   1.26933e+66             0             0             0             0             0
   7.25636e+59  -8.56776e+59   6.23891e+62  -1.26933e+66             0             0   1.26933e+66  -1.26933e+66             0             0             0             0            -0
   7.25636e+59  -8.56776e+59   6.23891e+62  -1.26933e+66             0             0   1.26933e+66  -1.26933e+66             0             0            -0             0            -0
   7.25636e+59  -8.56776e+59   6.23891e+62  -1.26933e+66             0             0   1.26933e+66  -1.26933e+66             0             0            -0             0             0
   7.25636e+59  -8.56776e+59   6.23891e+62  -1.26933e+66             0             0   1.26933e+66  -1.26933e+66             0             0             0             0             0
   7.25636e+59  -8.56776e+59   6.23891e+62   1.26933e+66             0             0   1.26933e+66   1.26933e+66             0             0             0             0            -0
   7.25636e+59  -8.56776e+59   6.23891e+62   1.26933e+66             0             0   1.26933e+66   1.26933e+66             0             0            -0             0            -0
   8.46575e+59  -8.52306e+59   6.23982e+62   1.26933e+66             0             0   1.26933e+66   1.26933e+66             0             0            -0             0             0
   8.46575e+59  -8.52306e+59   6.23982e+62   1.26933e+66             0             0   1.26933e+66   1.26933e+66             0             0             0             0             0
   8.46575e+59  -8.52306e+59   6.23982e+62  -1.26933e+66             0             0   1.26933e+66  -1.26933e+66             0             0             0             0            -0
   8.46575e+59  -8.52306e+59   6.23982e+62  -1.26933e+66             0             0   1.26933e+66  -1.26933e+66             0             0            -0             0            -0
   8.46575e+59  -8.52306e+59   6.23982e+62  -1.26933e+66             0             0   1.26933e+66  -1.26933e+66             0             0            -0             0             0
   8.46575e+59  -8.52306e+59   6.23982e+62  -1.26933e+66             0             0   1.26933e+66  -1.26933e+66             0             0             0             0             0
   8.46575e+59  -8.52306e+59   6.23982e+62   1.26933e+66             0             0   1.26933e+66   1.26933e+66             0             0             0             0            -0
   8.46575e+59  -8.52306e+59   6.23982e+62   1.26933e+66             0             0   1.26933e+66   1.26933e+66             0             0            -0             0            -0
   9.67515e+59  -8.47835e+59   6.24073e+62   1.26933e+66             0             0   1.26933e+66   1.26933e+66             0             0            -0             0             0
   9.67515e+59  -8.47835e+59   6.24073e+62   1.26933e+66             0             0   1.26933e+66   1.26933e+66             0             0             0             0             0
   9.67515e+59  -8.47835e+59   6.24073e+62  -1.26933e+66             0             0   1.26933e+66  -1.26933e+66             0             0             0             0            -0
   9.67515e+59  -8.47835e+59   6.24073e+62  -1.26933e+66             0             0   1.26933e+66  -1.26933e+66             0             0            -0             0            -0
   9.67515e+59  -8.47835e+59   6.24073e+62  -1.26933e+66             0             0   1.26933e+66  -1.26933e+66             0             0            -0             0             0
   9.67515e+59  -8.47835e+59   6.24073e+62  -1.26933e+66             0             0   1.26933e+66  -1.26933e+66             0             0             0             0             0
   9.67515e+59  -8.47835e+59   6.24073e+62   1.26933e+66             0             0   1.26933e+66   1.26933e+66             0             0             0             0            -0
   9.67515e+59  -8.47835e+59   6.24073e+62   1.26933e+66             0             0   1.26933e+66   1.26933e+66             0             0            -0             0            -0
   1.08845e+60  -8.43364e+59   6.24164e+62   1.26933e+66             0             0   1.26933e+66   1.26933e+66             0             0            -0             0             0
   1.08845e+60  -8.43364e+59   6.24164e+62   1.26933e+66             0             0   1.26933e+66   1.26933e+66             0             0             0             0             0
   1.08845e+60  -8.43364e+59   6.24164e+62  -1.26933e+66             0             0   1.26933e+66  -1.26933e+66             0             0             0             0            -0
   1.08845e+60  -8.43364e+59   6.24164e+62  -1.26933e+66             0             0   1.26933e+66  -1.26933e+66             0             0            -0             0            -0
   1.08845e+60  -8.43364e+59   6.24164e+62  -1.26933e+66             0             0   1.26933e+66  -1.26933e+66             0             0            -0             0             0
   1.08845e+60  -8.43364e+59   6.24164e+62  -1.26933e+66             0             0   1.26933e+66  -1.26933e+66             0             0             0             0             0
   1.08845e+60  -8.43364e+59   6.24164e+62   1.26933e+66             0             0   1.26933e+66   1.26933e+66             0             0             0             0            -0
   1.08845e+60  -8.43364e+59   6.24164e+62   1.26933e+66             0             0   1.26933e+66   1.26933e+66             0             0            -0             0            -0
   1.20939e+60  -8.38893e+59   6.24254e+62   1.26933e+66             0             0   1.26933e+66   1.26933e+66             0             0            -0             0             0
   1.20939e+60  -8.38893e+59   6.24254e+62   1.26933e+66             0             0   1.26933e+66   1.26933e+66             0             0             0             0             0
   1.20939e+60  -8.38893e+59   6.24254e+62  -1.26933e+66             0             0   1.26933e+66  -1.26933e+66             0             0             0             0            -0
   1.20939e+60  -8.38893e+59   6.24254e+62  -1.26933e+66             0             0   1.26933e+66  -1.26933e+66             0             0            -0             0            -0
   1.20939e+60  -8.38893e+59   6.24254e+62  -1.26933e+66             0             0   1.26933e+66  -1.26933e+66             0             0            -0             0             0
   1.20939e+60  -8.38893e+59   6.24254e+62  -1.26933e+66             0             0   1.26933e+66  -1.26933e+66             0             0             0             0             0
   1.20939e+60  -8.38893e+59   6.24254e+62   1.26933e+66             0             0   1.26933e+66   1.26933e+66             0             0             0             0            -0
   1.20939e+60  -8.38893e+59   6.24254e+62   1.26933e+66             0             0   1.26933e+66   1.26933e+66             0             0            -0             0            -0
   1.33033e+60  -8.34423e+59   6.24345e+62   1.26933e+66             0             0   1.26933e+66   1.26933e+66             0             0            -0             0             0
   1.33033e+60  -8.34423e+59   6.24345e+62   1.26933e+66             0             0   1.26933e+66   1.26933e+66             0             0             0             0             0
   1.33033e+60  -8.34423e+59   6.24345e+62  -1.26933e+66             0             0   1.26933e+66  -1.26933e+66             0             0             0             0            -0
   1.33033e+60  -8.34423e+59   6.24345e+62  -1.26933e+66             0             0   1.26933e+66  -1.26933e+66             0             0            -0             0            -0
   1.33033e+60  -8.34423e+59   6.24345e+62  -1.26933e+66             0             0   1.26933e+66  -1.26933e+66             0             0            -0             0             0
   1.33033e+60  -8.34423e+59   6.24345e+62  -1.26933e+66             0             0   1.26933e+66  -1.26933e+66             0             0             0             0             0
   1.33033e+60  -8.34423e+59   6.24345e+62   1.26933e+66             0             0   1.26933e+66   1.26933e+66             0             0             0             0            -0
   1.33033e+60  -8.34423e+59   6.24345e+62   1.26933e+66             0             0   1.26933e+66   1.26933e+66             0             0            -0             0            -0
   1.45127e+60  -8.29952e+59   6.24436e+62   1.26933e+66             0             0   1.26933e+66   1.26933e+66             0             0            -0             0             0
   1.45127e+60  -8.29952e+59   6.24436e+62   1.26933e+66             0             0   1.26933e+66   1.26933e+66             0             0             0             0             0
   1.45127e+60  -8.29952e+59   6.24436e+62  -1.26933e+66             0             0   1.26933e+66  -1.26933e+66             0             0             0             0            -0
   1.45127e+60  -8.29952e+59   6.24436e+62  -1.26933e+66             0             0   1.26933e+66  -1.26933e+66             0             0            -0             0            -0
   1.45127e+60  -8.29952e+59   6.24436e+62  -1.26933e+66             0             0   1.26933e+66  -1.26933e+66             0             0            -0             0             0
   1.45127e+60  -8.29952e+59   6.24436e+62  -1.26933e+66             0             0   1.26933e+66  -1.26933e+66             0             0             0             0             0
   1.45127e+60  -8.29952e+59   6.24436e+62   1.26933e+66             0             0   1.26933e+66   1.26933e+66             0             0             0             0            -0
   1.45127e+60  -8.29952e+59   6.24436e+62   1.26933e+66             0             0   1.26933e+66   1.26933e+66             0             0            -0             0            -0
   1.57221e+60  -8.25481e+59   6.24527e+62   1.26933e+66             0             0   1.26933e+66   1.26933e+66             0             0            -0             0             0
   1.57221e+60  -8.25481e+59   6.24527e+62   1.26933e+66             0             0   1.26933e+66   1.26933e+66             0             0             0             0             0
   1.57221e+60  -8.25481e+59   6.24527e+62  -1.26933e+66             0             0   1.26933e+66  -1.26933e+66             0             0             0             0            -0
   1.57221e+60  -8.25481e+59   6.24527e+62  -1.26933e+66             0             0   1.26933e+66  -1.26933e+66             0             0            -0             0            -0
  -9.05334e+48  -8.83601e+59   6.23346e+62    2.4752e+66             0             0    2.4752e+66    2.4752e+66             0             0            -0             0             0
  -9.05334e+48  -8.83601e+59   6.23346e+62    2.4752e+66             0             0    2.4752e+66    2.4752e+66             0             0             0             0             0
  -9.05334e+48  -8.83601e+59   6.23346e+62   -2.4752e+66             0             0    2.4752e+66   -2.4752e+66             0             0             0             0            -0
  -9.05334e+48  -8.83601e+59   6.23346e+62   -2.4752e+66             0             0    2.4752e+66   -2.4752e+66             0             0            -0             0            -0
  -8.30638e+48  -8.91888e+59   6.23329e+62   -2.4752e+66             0             0    2.4752e+66   -2.4752e+66             0             0            -0             0             0
  -8.30638e+48  -8.91888e+59   6.23329e+62   -2.4752e+66             0             0    2.4752e+66   -2.4752e+66             0             0             0             0             0
  -8.30638e+48  -8.91888e+59   6.23329e+62    2.4752e+66             0             0    2.4752e+66    2.4752e+66             0             0             0             0            -0
  -8.30638e+48  -8.91888e+59   6.23329e+62    2.4752e+66             0             0    2.4752e+66    2.4752e+66             0             0            -0             0            -0
  -8.30638e+48  -8.91888e+59   6.23329e+62    2.4752e+66             0             0    2.4752e+66    2.4752e+66             0             0            -0             0             0
  -8.30638e+48  -8.91888e+59   6.23329e+62    2.4752e+66             0             0    2.4752e+66    2.4752e+66             0             0             0             0             0
  -8.30638e+48  -8.91888e+59   6.23329e+62   -2.4752e+66             0             0    2.4752e+66   -2.4752e+66             0             0             0             0            -0
  -8.30638e+48  -8.91888e+59   6.23329e+62   -2.4752e+66             0             0    2.4752e+66   -2.4752e+66             0             0            -0             0            -0
  -7.55952e+48  -9.00176e+59   6.23313e+62   -2.4752e+66             0             0    2.4752e+66   -2.4752e+66             0             0            -0             0             0
  -7.55952e+48  -9.00176e+59   6.23313e+62   -2.4752e+66             0             0    2.4752e+66   -2.4752e+66             0             0             0             0             0
  -7.55952e+48  -9.00176e+59   6.23313e+62    2.4752e+66             0             0    2.4752e+66    2.4752e+66             0             0             0             0            -0
  -7.55952e+48  -9.00176e+59   6.23313e+62    2.4752e+66             0             0    2.4752e+66    2.4752e+66             0             0            -0             0            -0
  -7.55952e+48  -9.00176e+59   6.23313e+62    2.4752e+66             0             0    2.4752e+66    2.4752e+66             0             0            -0             0             0
  -7.55952e+48  -9.00176e+59   6.23313e+62    2.4752e+66             0             0    2.4752e+66    2.4752e+66             0             0             0             0             0
  -7.55952e+48  -9.00176e+59   6.23313e+62   -2.4752e+66             0             0    2.4752e+66   -2.4752e+66             0             0             0             0            -0
  -7.55952e+48  -9.00176e+59   6.23313e+62   -2.4752e+66             0             0    2.4752e+66   -2.4752e+66             0             0            -0             0            -0
  -6.81217e+48  -9.08463e+59   6.23296e+62   -2.4752e+66             0             0    2.4752e+66   -2.4752e+66             0             0            -0             0             0
  -6.81217e+48  -9.08463e+59   6.23296e+62   -2.4752e+66             0             0    2.4752e+66   -2.4752e+66             0             0             0             0             0
  -6.81217e+48  -9.08463e+59   6.23296e+62    2.4752e+66             0             0    2.4752e+66    2.4752e+66             0             0             0             0            -0
  -6.81217e+48  -9.08463e+59   6.23296e+62    2.4752e+66             0             0    2.4752e+66    2.4752e+66             0             0            -0             0            -0
  -6.81217e+48  -9.08463e+59   6.23296e+62    2.4752e+66             0             0    2.4752e+66    2.4752e+66             0             0            -0             0             0
  -6.81217e+48  -9.08463e+59   6.23296e+62    2.4752e+66             0             0    2.4752e+66    2.4752e+66             0             0             0             0             0
  -6.81217e+48  -9.08463e+59   6.23296e+62   -2.4752e+66             0             0    2.4752e+66   -2.4752e+66             0             0             0             0            -0
  -6.81217e+48  -9.08463e+59   6.23296e+62   -2.4752e+66             0             0    2.4752e+66   -2.4752e+66             0             0            -0             0            -0
  -6.06544e+48  -9.16751e+59    6.2328e+62   -2.4752e+66             0             0    2.4752e+66   -2.4752e+66             0             0            -0             0             0
  -6.06544e+48  -9.16751e+59    6.2328e+62   -2.4752e+66             0             0    2.4752e+66   -2.4752e+66             0             0             0             0             0
  -6.06544e+48  -9.16751e+59    6.2328e+62    2.4752e+66             0             0    2.4752e+66    2.4752e+66             0             0             0             0            -0
  -6.06544e+48  -9.16751e+59    6.2328e+62    2.4752e+66             0             0    2.4752e+66    2.4752e+66             0             0            -0             0            -0
  -6.06544e+48  -9.16751e+59    6.2328e+62    2.4752e+66             0             0    2.4752e+66    2.4752e+66             0             0            -0             0             0
  -6.06544e+48  -9.16751e+59    6.2328e+62    2.4752e+66             0             0    2.4752e+66    2.4752e+66             0             0             0             0             0
  -6.06544e+48  -9.16751e+59    6.2328e+62   -2.4752e+66             0             0    2.4752e+66   -2.4752e+66             0             0             0             0            -0
  -6.06544e+48  -9.16751e+59    6.2328e+62   -2.4752e+66             0             0    2.4752e+66   -2.4752e+66             0             0            -0             0            -0
  -5.31831e+48  -9.25038e+59   6.23263e+62   -2.4752e+66             0             0    2.4752e+66   -2.4752e+66             0             0            -0             0             0
  -5.31831e+48  -9.25038e+59   6.23263e+62   -2.4752e+66             0             0    2.4752e+66   -2.4752e+66             0             0             0             0             0
  -5.31831e+48  -9.25038e+59   6.23263e+62    2.4752e+66             0             0    2.4752e+66    2.4752e+66             0             0             0             0            -0
  -5.31831e+48  -9.25038e+59   6.23263e+62    2.4752e+66             0             0    2.4752e+66    2.4752e+66             0             0            -0             0            -0
  -5.31831e+48  -9.25038e+59   6.23263e+62    2.4752e+66             0             0    2.4752e+66    2.4752e+66             0             0            -0             0             0
  -5.31831e+48  -9.25038e+59   6.23263e+62    2.4752e+66             0             0    2.4752e+66    2.4752e+66             0             0             0             0             0
  -5.31831e+48  -9.25038e+59   6.23263e+62   -2.4752e+66             0             0    2.4752e+66   -2.4752e+66             0             0             0             0            -0
  -5.31831e+48  -9.25038e+59   6.23263e+62   -2.4752e+66             0             0    2.4752e+66   -2.4752e+66             0             0            -0             0            -0
  -4.57087e+48  -9.33326e+59   6.23247e+62   -2.4752e+66             0             0    2.4752e+66   -2.4752e+66             0             0            -0             0             0
  -4.57087e+48  -9.33326e+59   6.23247e+62   -2.4752e+66             0             0    2.4752e+66   -2.4752e+66             0             0             0             0             0
  -4.57087e+48  -9.33326e+59   6.23247e+62    2.4752e+66             0             0    2.4752e+66    2.4752e+66             0             0             0             0            -0
  -4.57087e+48  -9.33326e+59   6.23247e+62    2.4752e+66             0             0    2.4752e+66    2.4752e+66             0             0            -0             0            -0
  -4.57087e+48  -9.33326e+59   6.23247e+62    2.4752e+66             0             0    2.4752e+66    2.4752e+66             0             0            -0             0             0
  -4.57087e+48  -9.33326e+59   6.23247e+62    2.4752e+66             0             0    2.4752e+66    2.4752e+66             0             0             0             0             0
  -4.57087e+48  -9.33326e+59   6.23247e+62   -2.4752e+66             0             0    2.4752e+66   -2.4752e+66             0             0             0             0            -0
  -4.57087e+48  -9.33326e+59   6.23247e+62   -2.4752e+66             0             0    2.4752e+66   -2.4752e+66             0             0            -0             0            -0
  -3.82321e+48  -9.41613e+59    6.2323e+62   -2.4752e+66             0             0    2.4752e+66   -2.4752e+66             0             0            -0             0             0
  -3.82321e+48  -9.41613e+59    6.2323e+62   -2.4752e+66             0             0    2.4752e+66   -2.4752e+66             0             0             0             0             0
  -3.82321e+48  -9.41613e+59    6.2323e+62    2.4752e+66             0             0    2.4752e+66    2.4752e+66             0             0             0             0            -0
  -3.82321e+48  -9.41613e+59    6.2323e+62    2.4752e+66             0             0    2.4752e+66    2.4752e+66             0             0            -0             0            -0
  -3.82321e+48  -9.41613e+59    6.2323e+62    2.4752e+66             0             0    2.4752e+66    2.4752e+66             0             0            -0             0             0
  -3.82321e+48  -9.41613e+59    6.2323e+62    2.4752e+66             0             0    2.4752e+66    2.4752e+66             0             0             0             0             0
  -3.82321e+48  -9.41613e+59    6.2323e+62   -2.4752e+66             0             0    2.4752e+66   -2.4752e+66             0             0             0             0            -0
  -3.82321e+48  -9.41613e+59    6.2323e+62   -2.4752e+66             0             0    2.4752e+66   -2.4752e+66             0             0            -0             0            -0
  -2.88939e+48  -9.49901e+59   6.23214e+62   -2.4752e+66             0             0    2.4752e+66   -2.4752e+66             0             0            -0             0             0
  -2.88939e+48  -9.49901e+59   6.23214e+62   -2.4752e+66             0             0    2.4752e+66   -2.4752e+66             0             0             0             0             0
  -2.88939e+48  -9.49901e+59   6.23214e+62    2.4752e+66             0             0    2.4752e+66    2.4752e+66             0             0             0             0            -0
  -2.88939e+48  -9.49901e+59   6.23214e+62    2.4752e+66             0             0    2.4752e+66    2.4752e+66             0             0            -0             0            -0
  -1.57221e+60  -8.25481e+59   6.24527e+62  -4.24375e+66             0             0   4.24375e+66  -4.24375e+66             0             0            -0             0             0
  -1.57221e+60  -8.25481e+59   6.24527e+62  -4.24375e+66             0             0   4.24375e+66  -4.24375e+66             0             0             0             0             0
  -1.57221e+60  -8.25481e+59   6.24527e+62   4.24375e+66             0             0   4.24375e+66   4.24375e+66             0             0             0             0            -0
  -1.57221e+60  -8.25481e+59   6.24527e+62   4.24375e+66             0             0   4.24375e+66   4.24375e+66             0             0            -0             0            -0
  -1.33053e+60  -8.10534e+59   6.20612e+62   4.24375e+66             0             0   4.24375e+66   4.24375e+66             0             0            -0             0             0
  -1.33053e+60  -8.10534e+59   6.20612e+62   4.24375e+66             0             0   4.24375e+66   4.24375e+66             0             0             0             0             0
  -1.33053e+60  -8.10534e+59   6.20612e+62  -4.24375e+66             0             0   4.24375e+66  -4.24375e+66             0             0             0             0            -0
  -1.33053e+60  -8.10534e+59   6.20612e+62  -4.24375e+66             0             0   4.24375e+66  -4.24375e+66             0             0            -0             0            -0
  -1.33053e+60  -8.10534e+59   6.20612e+62  -4.24375e+66             0             0   4.24375e+66  -4.24375e+66             0             0            -0             0             0
  -1.33053e+60  -8.10534e+59   6.20612e+62  -4.24375e+66             0             0   4.24375e+66  -4.24375e+66             0             0             0             0             0
  -1.33053e+60  -8.10534e+59   6.20612e+62   4.24375e+66             0             0   4.24375e+66   4.24375e+66             0             0             0             0            -0
  -1.33053e+60  -8.10534e+59   6.20612e+62   4.24375e+66             0             0   4.24375e+66   4.24375e+66             0             0            -0             0            -0
  -1.08885e+60  -7.95587e+59   6.16697e+62   4.24375e+66             0             0   4.24375e+66   4.24375e+66             0             0            -0             0             0
  -1.08885e+60  -7.95587e+59   6.16697e+62   4.24375e+66             0             0   4.24375e+66   4.24375e+66             0             0             0             0             0
  -1.08885e+60  -7.95587e+59   6.16697e+62  -4.24375e+66             0             0   4.24375e+66  -4.24375e+66             0             0             0             0            -0
  -1.08885e+60  -7.95587e+59   6.16697e+62  -4.24375e+66             0             0   4.24375e+66  -4.24375e+66             0             0            -0             0            -0
  -1.08885e+60  -7.95587e+59   6.16697e+62  -4.24375e+66             0             0   4.24375e+66  -4.24375e+66             0             0            -0             0             0
  -1.08885e+60  -7.95587e+59   6.16697e+62  -4.24375e+66             0             0   4.24375e+66  -4.24375e+66             0             0             0             0             0
  -1.08885e+60  -7.95587e+59   6.16697e+62   4.24375e+66             0             0   4.24375e+66   4.24375e+66             0             0             0             0            -0
  -1.08885e+60  -7.95587e+59   6.16697e+62   4.24375e+66             0             0   4.24375e+66   4.24375e+66             0             0            -0             0            -0
  -8.47168e+59   -7.8064e+59   6.12783e+62   4.24375e+66             0             0   4.24375e+66   4.24375e+66             0             0            -0             0             0
  -8.47168e+59   -7.8064e+59   6.12783e+62   4.24375e+66             0             0   4.24375e+66   4.24375e+66             0             0             0             0             0
  -8.47168e+59   -7.8064e+59   6.12783e+62  -4.24375e+66             0             0   4.24375e+66  -4.24375e+66             0             0             0             0            -0
  -8.47168e+59   -7.8064e+59   6.12783e+62  -4.24375e+66             0             0   4.24375e+66  -4.24375e+66             0             0            -0             0            -0
  -8.47168e+59   -7.8064e+59   6.12783e+62  -4.24375e+66             0             0   4.24375e+66  -4.24375e+66             0             0            -0             0             0
  -8.47168e+59   -7.8064e+59   6.12783e+62  -4.24375e+66             0             0   4.24375e+66  -4.24375e+66             0             0             0             0             0
  -8.47168e+59   -7.8064e+59   6.12783e+62   4.24375e+66             0             0   4.24375e+66   4.24375e+66             0             0             0             0            -0
  -8.47168e+59   -7.8064e+59   6.12783e+62   4.24375e+66             0             0   4.24375e+66   4.24375e+66             0             0            -0             0            -0
  -6.05487e+59  -7.65693e+59   6.08868e+62   4.24375e+66             0             0   4.24375e+66   4.24375e+66             0             0            -0             0             0
  -6.05487e+59  -7.65693e+59   6.08868e+62   4.24375e+66             0             0   4.24375e+66   4.24375e+66             0             0             0             0             0
  -6.05487e+59  -7.65693e+59   6.08868e+62  -4.24375e+66             0             0   4.24375e+66  -4.24375e+66             0             0             0             0            -0
  -6.05487e+59  -7.65693e+59   6.08868e+62  -4.24375e+66             0             0   4.24375e+66  -4.24375e+66             0             0            -0             0            -0
  -6.05487e+59  -7.65693e+59   6.08868e+62  -4.24375e+66             0             0   4.24375e+66  -4.24375e+66             0             0            -0             0             0
  -6.05487e+59  -7.65693e+59   6.08868e+62  -4.24375e+66             0             0   4.24375e+66  -4.24375e+66             0             0             0             0             0
  -6.05487e+59  -7.65693e+59   6.08868e+62   4.24375e+66             0             0   4.24375e+66   4.24375e+66             0             0             0             0            -0
  -6.05487e+59  -7.65693e+59   6.08868e+62   4.24375e+66             0             0   4.24375e+66   4.24375e+66             0             0            -0             0            -0
  -3.63806e+59  -7.50746e+59   6.04953e+62   4.24375e+66             0             0   4.24375e+66   4.24375e+66             0             0            -0             0             0
  -3.63806e+59  -7.50746e+59   6.04953e+62   4.24375e+66             0             0   4.24375e+66   4.24375e+66             0             0             0             0             0
  -3.63806e+59  -7.50746e+59   6.04953e+62  -4.24375e+66             0             0   4.24375e+66  -4.24375e+66             0             0             0             0            -0
  -3.63806e+59  -7.50746e+59   6.04953e+62  -4.24375e+66             0             0   4.24375e+66  -4.24375e+66             0             0            -0             0            -0
  -3.63806e+59  -7.50746e+59   6.04953e+62  -4.24375e+66             0             0   4.24375e+66  -4.24375e+66             0             0            -0             0             0
  -3.63806e+59  -7.50746e+59   6.04953e+62  -4.24375e+66             0             0   4.24375e+66  -4.24375e+66             0             0             0             0             0
  -3.63806e+59  -7.50746e+59   6.04953e+62   4.24375e+66             0             0   4.24375e+66   4.24375e+66             0             0             0             0            -0
  -3.63806e+59  -7.50746e+59   6.04953e+62   4.24375e+66             0             0   4.24375e+66   4.24375e+66             0             0            -0             0            -0
  -1.22125e+59  -7.35799e+59   6.01038e+62   4.24375e+66             0             0   4.24375e+66   4.24375e+66             0             0            -0             0             0
  -1.22125e+59  -7.35799e+59   6.01038e+62   4.24375e+66             0             0   4.24375e+66   4.24375e+66             0             0             0             0             0
  -1.22125e+59  -7.35799e+59   6.01038e+62  -4.24375e+66             0             0   4.24375e+66  -4.24375e+66             0             0             0             0            -0
  -1.22125e+59  -7.35799e+59   6.01038e+62  -4.24375e+66             0             0   4.24375e+66  -4.24375e+66             0             0            -0             0            -0
  -1.22125e+59  -7.35799e+59   6.01038e+62  -4.24375e+66             0             0   4.24375e+66  -4.24375e+66             0             0            -0             0             0
  -1.22125e+59  -7.35799e+59   6.01038e+62  -4.24375e+66             0             0   4.24375e+66  -4.24375e+66             0             0             0             0             0
  -1.22125e+59  -7.35799e+59   6.01038e+62   4.24375e+66             0             0   4.24375e+66   4.24375e+66             0             0             0             0            -0
  -1.22125e+59  -7.35799e+59   6.01038e+62   4.24375e+66             0             0   4.24375e+66   4.24375e+66             0             0            -0             0            -0
   1.19557e+59  -7.20852e+59   5.97124e+62   4.24375e+66             0             0   4.24375e+66   4.24375e+66             0             0            -0             0             0
   1.19557e+59  -7.20852e+59   5.97124e+62   4.24375e+66             0             0   4.24375e+66   4.24375e+66             0             0             0             0             0
   1.19557e+59  -7.20852e+59   5.97124e+62  -4.24375e+66             0             0   4.24375e+66  -4.24375e+66             0             0             0             0            -0
   1.19557e+59  -7.20852e+59   5.97124e+62  -4.24375e+66             0             0   4.24375e+66  -4.24375e+66             0             0            -0             0            -0
   1.19557e+59  -7.20852e+59   5.97124e+62  -4.24375e+66             0             0   4.24375e+66  -4.24375e+66             0             0            -0             0             0
   1.19557e+59  -7.20852e+59   5.97124e+62  -4.24375e+66             0             0   4.24375e+66  -4.24375e+66             0             0             0             0             0
   1.19557e+59  -7.20852e+59   5.97124e+62   4.24375e+66             0             0   4.24375e+66   4.24375e+66             0             0             0             0            -0
   1.19557e+59  -7.20852e+59   5.97124e+62   4.24375e+66             0             0   4.24375e+66   4.24375e+66             0             0            -0             0            -0
   3.61238e+59  -7.05905e+59   5.93209e+62   4.24375e+66             0             0   4.24375e+66   4.24375e+66             0             0            -0             0             0
   3.61238e+59  -7.05905e+59   5.93209e+62   4.24375e+66             0             0   4.24375e+66   4.24375e+66             0             0             0             0             0
   3.61238e+59  -7.05905e+59   5.93209e+62  -4.24375e+66             0             0   4.24375e+66  -4.24375e+66             0             0             0             0            -0
   3.61238e+59  -7.05905e+59   5.93209e+62  -4.24375e+66             0             0   4.24375e+66  -4.24375e+66             0             0            -0             0            -0
   3.61238e+59  -7.05905e+59   5.93209e+62  -4.24375e+66             0             0   4.24375e+66  -4.24375e+66             0             0            -0             0             0
   3.61238e+59  -7.05905e+59   5.93209e+62  -4.24375e+66             0             0   4.24375e+66  -4.24375e+66             0             0             0             0             0
   3.61238e+59  -7.05905e+59   5.93209e+62   4.24375e+66             0             0   4.24375e+66   4.24375e+66             0             0             0             0            -0
   3.61238e+59  -7.05905e+59   5.93209e+62   4.24375e+66             0             0   4.24375e+66   4.24375e+66             0             0            -0             0            -0
   6.02919e+59  -6.90958e+59   5.89294e+62   4.24375e+66             0             0   4.24375e+66   4.24375e+66             0             0            -0             0             0
   6.02919e+59  -6.90958e+59   5.89294e+62   4.24375e+66             0             0   4.24375e+66   4.24375e+66             0             0             0             0             0
   6.02919e+59  -6.90958e+59   5.89294e+62  -4.24375e+66             0             0   4.24375e+66  -4.24375e+66             0             0             0             0            -0
   6.02919e+59  -6.90958e+59   5.89294e+62  -4.24375e+66             0             0   4.24375e+66  -4.24375e+66             0             0            -0             0            -0
   6.02919e+59  -6.90958e+59   5.89294e+62  -4.24375e+66             0             0   4.24375e+66  -4.24375e+66             0             0            -0             0             0
   6.02919e+59  -6.90958e+59   5.89294e+62  -4.24375e+66             0             0   4.24375e+66  -4.24375e+66             0             0             0             0             0
   6.02919e+59  -6.90958e+59   5.89294e+62   4.24375e+66             0             0   4.24375e+66   4.24375e+66             0             0             0             0            -0
   6.02919e+59  -6.90958e+59   5.89294e+62   4.24375e+66             0             0   4.24375e+66   4.24375e+66             0             0            -0             0            -0
     8.446e+59  -6.76011e+59   5.85379e+62   4.24375e+66             0             0   4.24375e+66   4.24375e+66             0             0            -0             0             0
     8.446e+59  -6.76011e+59   5.85379e+62   4.24375e+66             0             0   4.24375e+66   4.24375e+66             0             0             0             0             0
     8.446e+59  -6.76011e+59   5.85379e+62  -4.24375e+66             0             0   4.24375e+66  -4.24375e+66             0             0             0             0            -0
     8.446e+59  -6.76011e+59   5.85379e+62  -4.24375e+66             0             0   4.24375e+66  -4.24375e+66             0             0            -0             0            -0
     8.446e+59  -6.76011e+59   5.85379e+62  -4.24375e+66             0             0   4.24375e+66  -4.24375e+66             0             0            -0             0             0
     8.446e+59  -6.76011e+59   5.85379e+62  -4.24375e+66             0             0   4.24375e+66  -4.24375e+66             0             0             0             0             0
     8.446e+59  -6.76011e+59   5.85379e+62   4.24375e+66             0             0   4.24375e+66   4.24375e+66             0             0             0             0            -0
     8.446e+59  -6.76011e+59   5.85379e+62   4.24375e+66             0             0   4.24375e+66   4.24375e+66             0             0            -0             0            -0
   1.08628e+60  -6.61064e+59   5.81465e+62   4.24375e+66             0             0   4.24375e+66   4.24375e+66             0             0            -0             0             0
   1.08628e+60  -6.61064e+59   5.81465e+62   4.24375e+66             0             0   4.24375e+66   4.24375e+66             0             0             0             0             0
   1.08628e+60  -6.61064e+59   5.81465e+62  -4.24375e+66             0             0   4.24375e+66  -4.24375e+66             0             0             0             0            -0
   1.08628e+60  -6.61064e+59   5.81465e+62  -4.24375e+66             0             0   4.24375e+66  -4.24375e+66             0             0            -0             0            -0
   1.08628e+60  -6.61064e+59   5.81465e+62  -4.24375e+66             0             0   4.24375e+66  -4.24375e+66             0             0            -0             0             0
   1.08628e+60  -6.61064e+59   5.81465e+62  -4.24375e+66             0             0   4.24375e+66  -4.24375e+66             0             0             0             0             0
   1.08628e+60  -6.61064e+59   5.81465e+62   4.24375e+66             0             0   4.24375e+66   4.24375e+66             0             0             0             0            -0
   1.08628e+60  -6.61064e+59   5.81465e+62   4.24375e+66             0             0   4.24375e+66   4.24375e+66             0             0            -0             0            -0
   1.32796e+60  -6.46117e+59    5.7755e+62   4.24375e+66             0             0   4.24375e+66   4.24375e+66             0             0            -0             0             0
   1.32796e+60  -6.46117e+59    5.7755e+62   4.24375e+66             0             0   4.24375e+66   4.24375e+66             0             0             0             0             0
   1.32796e+60  -6.46117e+59    5.7755e+62  -4.24375e+66             0             0   4.24375e+66  -4.24375e+66             0             0             0             0            -0
   1.32796e+60  -6.46117e+59    5.7755e+62  -4.24375e+66             0             0   4.24375e+66  -4.24375e+66             0             0            -0             0            -0
   1.32796e+60  -6.46117e+59    5.7755e+62  -4.24375e+66             0             0   4.24375e+66  -4.24375e+66             0             0            -0             0             0
   1.32796e+60  -6.46117e+59    5.7755e+62  -4.24375e+66             0             0   4.24375e+66  -4.24375e+66             0             0             0             0             0
   1.32796e+60  -6.46117e+59    5.7755e+62   4.24375e+66             0             0   4.24375e+66   4.24375e+66             0             0             0             0            -0
   1.32796e+60  -6.46117e+59    5.7755e+62   4.24375e+66             0             0   4.24375e+66   4.24375e+66             0             0            -0             0            -0
   1.56964e+60   -6.3117e+59   5.73635e+62   4.24375e+66             0             0   4.24375e+66   4.24375e+66             0             0            -0             0             0
   1.56964e+60   -6.3117e+59   5.73635e+62   4.24375e+66             0             0   4.24375e+66   4.24375e+66             0             0             0             0             0
   1.56964e+60   -6.3117e+59   5.73635e+62  -4.24375e+66             0             0   4.24375e+66  -4.24375e+66             0             0             0             0            -0
   1.56964e+60   -6.3117e+59   5.73635e+62  -4.24375e+66             0             0   4.24375e+66  -4.24375e+66             0             0            -0             0            -0
  -9.05334e+48  -8.83601e+59   6.23346e+62  -1.26933e+66             0             0   1.26933e+66  -1.26933e+66             0             0            -0             0             0
  -9.05334e+48  -8.83601e+59   6.23346e+62  -1.26933e+66             0             0   1.26933e+66  -1.26933e+66             0             0             0             0             0
  -9.05334e+48  -8.83601e+59   6.23346e+62   1.26933e+66             0             0   1.26933e+66   1.26933e+66             0             0             0             0            -0
  -9.05334e+48  -8.83601e+59   6.23346e+62   1.26933e+66             0             0   1.26933e+66   1.26933e+66             0             0            -0             0            -0
  -1.20939e+59   -8.7913e+59   6.23437e+62   1.26933e+66             0             0   1.26933e+66   1.26933e+66             0             0            -0             0             0
  -1.20939e+59   -8.7913e+59   6.23437e+62   1.26933e+66             0             0   1.26933e+66   1.26933e+66             0             0             0             0             0
  -1.20939e+59   -8.7913e+59   6.23437e+62  -1.26933e+66             0             0   1.26933e+66  -1.26933e+66             0             0             0             0            -0
  -1.20939e+59   -8.7913e+59   6.23437e+62  -1.26933e+66             0             0   1.26933e+66  -1.26933e+66             0             0            -0             0            -0
  -1.20939e+59   -8.7913e+59   6.23437e+62  -1.26933e+66             0             0   1.26933e+66  -1.26933e+66             0             0            -0             0             0
  -1.20939e+59   -8.7913e+59   6.23437e+62  -1.26933e+66             0             0   1.26933e+66  -1.26933e+66             0             0             0             0             0
  -1.20939e+59   -8.7913e+59   6.23437e+62   1.26933e+66             0             0   1.26933e+66   1.26933e+66             0             0             0             0            -0
  -1.20939e+59   -8.7913e+59   6.23437e+62   1.26933e+66             0             0   1.26933e+66   1.26933e+66             0             0            -0             0            -0
  -2.41879e+59  -8.74659e+59   6.23527e+62   1.26933e+66             0             0   1.26933e+66   1.26933e+66             0             0            -0             0             0
  -2.41879e+59  -8.74659e+59   6.23527e+62   1.26933e+66             0             0   1.26933e+66   1.26933e+66             0             0             0             0             0
  -2.41879e+59  -8.74659e+59   6.23527e+62  -1.26933e+66             0             0   1.26933e+66  -1.26933e+66             0             0             0             0            -0
  -2.41879e+59  -8.74659e+59   6.23527e+62  -1.26933e+66             0             0   1.26933e+66  -1.26933e+66             0             0            -0             0            -0
  -2.41879e+59  -8.74659e+59   6.23527e+62  -1.26933e+66             0             0   1.26933e+66  -1.26933e+66             0             0            -0             0             0
  -2.41879e+59  -8.74659e+59   6.23527e+62  -1.26933e+66             0             0   1.26933e+66  -1.26933e+66             0             0             0             0             0
  -2.41879e+59  -8.74659e+59   6.23527e+62   1.26933e+66             0             0   1.26933e+66   1.26933e+66             0             0             0             0            -0
  -2.41879e+59  -8.74659e+59   6.23527e+62   1.26933e+66             0             0   1.26933e+66   1.26933e+66             0             0            -0             0            -0
  -3.62818e+59  -8.70189e+59   6.23618e+62   1.26933e+66             0             0   1.26933e+66   1.26933e+66             0             0            -0             0             0
  -3.62818e+59  -8.70189e+59   6.23618e+62   1.26933e+66             0             0   1.26933e+66   1.26933e+66             0             0             0             0             0
  -3.62818e+59  -8.70189e+59   6.23618e+62  -1.26933e+66             0             0   1.26933e+66  -1.26933e+66             0             0             0             0            -0
  -3.62818e+59  -8.70189e+59   6.23618e+62  -1.26933e+66             0             0   1.26933e+66  -1.26933e+66             0             0            -0             0            -0
  -3.62818e+59  -8.70189e+59   6.23618e+62  -1.26933e+66             0             0   1.26933e+66  -1.26933e+66             0             0            -0             0             0
  -3.62818e+59  -8.70189e+59   6.23618e+62  -1.26933e+66             0             0   1.26933e+66  -1.26933e+66             0             0             0             0             0
  -3.62818e+59  -8.70189e+59   6.23618e+62   1.26933e+66             0             0   1.26933e+66   1.26933e+66             0             0             0             0            -0
  -3.62818e+59  -8.70189e+59   6.23618e+62   1.26933e+66             0             0   1.26933e+66   1.26933e+66             0             0            -0             0            -0
  -4.83757e+59  -8.65718e+59   6.23709e+62   1.26933e+66             0             0   1.26933e+66   1.26933e+66             0             0            -0             0             0
  -4.83757e+59  -8.65718e+59   6.23709e+62   1.26933e+66             0             0   1.26933e+66   1.26933e+66             0             0             0             0             0
  -4.83757e+59  -8.65718e+59   6.23709e+62  -1.26933e+66             0             0   1.26933e+66  -1.26933e+66             0             0             0             0            -0
  -4.83757e+59  -8.65718e+59   6.23709e+62  -1.26933e+66             0             0   1.26933e+66  -1.26933e+66             0             0            -0             0            -0
  -4.83757e+59  -8.65718e+59   6.23709e+62  -1.26933e+66             0             0   1.26933e+66  -1.26933e+66             0             0            -0             0             0
  -4.83757e+59  -8.65718e+59   6.23709e+62  -1.26933e+66             0             0   1.26933e+66  -1.26933e+66             0             0             0             0             0
  -4.83757e+59  -8.65718e+59   6.23709e+62   1.26933e+66             0             0   1.26933e+66   1.26933e+66             0             0             0             0            -0
  -4.83757e+59  -8.65718e+59   6.23709e+62   1.26933e+66             0             0   1.26933e+66   1.26933e+66             0             0            -0             0            -0
  -6.04697e+59  -8.61247e+59     6.238e+62   1.26933e+66             0             0   1.26933e+66   1.26933e+66             0             0            -0             0             0
  -6.04697e+59  -8.61247e+59     6.238e+62   1.26933e+66             0             0   1.26933e+66   1.26933e+66             0             0             0             0             0
  -6.04697e+59  -8.61247e+59     6.238e+62  -1.26933e+66             0             0   1.26933e+66  -1.26933e+66             0             0             0             0            -0
  -6.04697e+59  -8.61247e+59     6.238e+62  -1.26933e+66             0             0   1.26933e+66  -1.26933e+66             0             0            -0             0            -0
  -6.04697e+59  -8.61247e+59     6.238e+62  -1.26933e+66             0             0   1.26933e+66  -1.26933e+66             0             0            -0             0             0
  -6.04697e+59  -8.61247e+59     6.238e+62  -1.26933e+66             0             0   1.26933e+66  -1.26933e+66             0             0             0             0             0
  -6.04697e+59  -8.61247e+59     6.238e+62   1.26933e+66             0             0   1.26933e+66   1.26933e+66             0             0             0             0            -0
  -6.04697e+59  -8.61247e+59     6.238e+62   1.26933e+66             0             0   1.26933e+66   1.26933e+66             0             0            -0             0            -0
  -7.25636e+59  -8.56776e+59   6.23891e+62   1.26933e+66             0             0   1.26933e+66   1.26933e+66             0             0            -0             0             0
  -7.25636e+59  -8.56776e+59   6.23891e+62   1.26933e+66             0             0   1.26933e+66   1.26933e+66             0             0             0             0             0
  -7.25636e+59  -8.56776e+59   6.23891e+62  -1.26933e+66             0             0   1.26933e+66  -1.26933e+66             0             0             0             0            -0
  -7.25636e+59  -8.56776e+59   6.23891e+62  -1.26933e+66             0             0   1.26933e+66  -1.26933e+66             0             0            -0             0            -0
  -7.25636e+59  -8.56776e+59   6.23891e+62  -1.26933e+66             0             0   1.26933e+66  -1.26933e+66             0             0            -0             0             0
  -7.25636e+59  -8.56776e+59   6.23891e+62  -1.26933e+66             0             0   1.26933e+66  -1.26933e+66             0             0             0             0             0
  -7.25636e+59  -8.56776e+59   6.23891e+62   1.26933e+66             0             0   1.26933e+66   1.26933e+66             0             0             0             0            -0
  -7.25636e+59  -8.56776e+59   6.23891e+62   1.26933e+66             0             0   1.26933e+66   1.26933e+66             0             0            -0             0            -0
  -8.46575e+59  -8.52306e+59   6.23982e+62   1.26933e+66             0             0   1.26933e+66   1.26933e+66             0             0            -0             0             0
  -8.46575e+59  -8.52306e+59   6.23982e+62   1.26933e+66             0             0   1.26933e+66   1.26933e+66             0             0             0             0             0
  -8.46575e+59  -8.52306e+59   6.23982e+62  -1.26933e+66             0             0   1.26933e+66  -1.26933e+66             0             0             0             0            -0
  -8.46575e+59  -8.52306e+59   6.23982e+62  -1.26933e+66             0             0   1.26933e+66  -1.26933e+66             0             0            -0             0            -0
  -8.46575e+59  -8.52306e+59   6.23982e+62  -1.26933e+66             0             0   1.26933e+66  -1.26933e+66             0             0            -0             0             0
  -8.46575e+59  -8.52306e+59   6.23982e+62  -1.26933e+66             0             0   1.26933e+66  -1.26933e+66             0             0             0             0             0
  -8.46575e+59  -8.52306e+59   6.23982e+62   1.26933e+66             0             0   1.26933e+66   1.26933e+66             0             0             0             0            -0
  -8.46575e+59  -8.52306e+59   6.23982e+62   1.26933e+66             0             0   1.26933e+66   1.26933e+66             0             0            -0             0            -0
  -9.67515e+59  -8.47835e+59   6.24073e+62   1.26933e+66             0             0   1.26933e+66   1.26933e+66             0             0            -0             0             0
  -9.67515e+59  -8.47835e+59   6.24073e+62   1.26933e+66             0             0   1.26933e+66   1.26933e+66             0             0             0             0             0
  -9.67515e+59  -8.47835e+59   6.24073e+62  -1.26933e+66             0             0   1.26933e+66  -1.26933e+66             0             0             0             0            -0
  -9.67515e+59  -8.47835e+59   6.24073e+62  -1.26933e+66             0             0   1.26933e+66  -1.26933e+66             0             0            -0             0            -0
  -9.67515e+59  -8.47835e+59   6.24073e+62  -1.26933e+66             0             0   1.26933e+66  -1.26933e+66             0             0            -0             0             0
  -9.67515e+59  -8.47835e+59   6.24073e+62  -1.26933e+66             0             0   1.26933e+66  -1.26933e+66             0             0             0             0             0
  -9.67515e+59  -8.47835e+59   6.24073e+62   1.26933e+66             0             0   1.26933e+66   1.26933e+66             0             0             0             0            -0
  -9.67515e+59  -8.47835e+59   6.24073e+62   1.26933e+66             0             0   1.26933e+66   1.26933e+66             0             0            -0             0            -0
  -1.08845e+60  -8.43364e+59   6.24164e+62   1.26933e+66             0             0   1.26933e+66   1.26933e+66             0             0            -0             0             0
  -1.08845e+60  -8.43364e+59   6.24164e+62   1.26933e+66             0             0   1.26933e+66   1.26933e+66             0             0             0             0             0
  -1.08845e+60  -8.43364e+59   6.24164e+62  -1.26933e+66             0             0   1.26933e+66  -1.26933e+66             0             0             0             0            -0
  -1.08845e+60  -8.43364e+59   6.24164e+62  -1.26933e+66             0             0   1.26933e+66  -1.26933e+66             0             0            -0             0            -0
  -1.08845e+60  -8.43364e+59   6.24164e+62  -1.26933e+66             0             0   1.26933e+66  -1.26933e+66             0             0            -0             0             0
  -1.08845e+60  -8.43364e+59   6.24164e+62  -1.26933e+66             0             0   1.26933e+66  -1.26933e+66             0             0             0             0             0
  -1.08845e+60  -8.43364e+59   6.24164e+62   1.26933e+66             0             0   1.26933e+66   1.26933e+66             0             0             0             0            -0
  -1.08845e+60  -8.43364e+59   6.24164e+62   1.26933e+66             0             0   1.26933e+66   1.26933e+66             0             0            -0             0            -0
  -1.20939e+60  -8.38893e+59   6.24254e+62   1.26933e+66             0             0   1.26933e+66   1.26933e+66             0             0            -0             0             0
  -1.20939e+60  -8.38893e+59   6.24254e+62   1.26933e+66             0             0   1.26933e+66   1.26933e+66             0             0             0             0             0
  -1.20939e+60  -8.38893e+59   6.24254e+62  -1.26933e+66             0             0   1.26933e+66  -1.26933e+66             0             0             0             0            -0
  -1.20939e+60  -8.38893e+59   6.24254e+62  -1.26933e+66             0             0   1.26933e+66  -1.26933e+66             0             0            -0             0            -0
  -1.20939e+60  -8.38893e+59   6.24254e+62  -1.26933e+66             0             0   1.26933e+66  -1.26933e+66             0             0            -0             0             0
  -1.20939e+60  -8.38893e+59   6.24254e+62  -1.26933e+66             0             0   1.26933e+66  -1.26933e+66             0             0             0             0             0
  -1.20939e+60  -8.38893e+59   6.24254e+62   1.26933e+66             0             0   1.26933e+66   1.26933e+66             0             0             0             0            -0
  -1.20939e+60  -8.38893e+59   6.24254e+62   1.26933e+66             0             0   1.26933e+66   1.26933e+66             0             0            -0             0            -0
  -1.33033e+60  -8.34423e+59   6.24345e+62   1.26933e+66             0             0   1.26933e+66   1.26933e+66             0             0            -0             0             0
  -1.33033e+60  -8.34423e+59   6.24345e+62   1.26933e+66             0             0   1.26933e+66   1.26933e+66             0             0             0             0             0
  -1.33033e+60  -8.34423e+59   6.24345e+62  -1.26933e+66             0             0   1.26933e+66  -1.26933e+66             0             0             0             0            -0
  -1.33033e+60  -8.34423e+59   6.24345e+62  -1.26933e+66             0             0   1.26933e+66  -1.26933e+66             0             0            -0             0            -0
  -1.33033e+60  -8.34423e+59   6.24345e+62  -1.26933e+66             0             0   1.26933e+66  -1.26933e+66             0             0            -0             0             0
  -1.33033e+60  -8.34423e+59   6.24345e+62  -1.26933e+66             0             0   1.26933e+66  -1.26933e+66             0             0             0             0             0
  -1.33033e+60  -8.34423e+59   6.24345e+62   1.26933e+66             0             0   1.26933e+66   1.26933e+66             0             0             0             0            -0
  -1.33033e+60  -8.34423e+59   6.24345e+62   1.26933e+66             0             0   1.26933e+66   1.26933e+66             0             0            -0             0            -0
  -1.45127e+60  -8.29952e+59   6.24436e+62   1.26933e+66             0             0   1.26933e+66   1.26933e+66             0             0            -0             0             0
  -1.45127e+60  -8.29952e+59   6.24436e+62   1.26933e+66             0             0   1.26933e+66   1.26933e+66             0             0             0             0             0
  -1.45127e+60  -8.29952e+59   6.24436e+62  -1.26933e+66             0             0   1.26933e+66  -1.26933e+66             0             0             0             0            -0
  -1.45127e+60  -8.29952e+59   6.24436e+62  -1.26933e+66             0             0   1.26933e+66  -1.26933e+66             0             0            -0             0            -0
  -1.45127e+60  -8.29952e+59   6.24436e+62  -1.26933e+66             0             0   1.26933e+66  -1.26933e+66             0             0            -0             0             0
  -1.45127e+60  -8.29952e+59   6.24436e+62  -1.26933e+66             0             0   1.26933e+66  -1.26933e+66             0             0             0             0             0
  -1.45127e+60  -8.29952e+59   6.24436e+62   1.26933e+66             0             0   1.26933e+66   1.26933e+66             0             0             0             0            -0
  -1.45127e+60  -8.29952e+59   6.24436e+62   1.26933e+66             0             0   1.26933e+66   1.26933e+66             0             0            -0             0            -0
  -1.57221e+60  -8.25481e+59   6.24527e+62   1.26933e+66             0             0   1.26933e+66   1.26933e+66             0             0            -0             0             0
  -1.57221e+60  -8.25481e+59   6.24527e+62   1.26933e+66             0             0   1.26933e+66   1.26933e+66             0             0             0             0             0
  -1.57221e+60  -8.25481e+59   6.24527e+62  -1.26933e+66             0             0   1.26933e+66  -1.26933e+66             0             0             0             0            -0
  -1.57221e+60  -8.25481e+59   6.24527e+62  -1.26933e+66             0             0   1.26933e+66  -1.26933e+66             0             0            -0             0            -0
   1.57221e+60  -8.25481e+59   6.24527e+62  -4.24375e+66             0             0   4.24375e+66  -4.24375e+66             0             0            -0             0             0
   1.57221e+60  -8.25481e+59   6.24527e+62  -4.24375e+66             0             0   4.24375e+66  -4.24375e+66             0             0             0             0             0
   1.57221e+60  -8.25481e+59   6.24527e+62   4.24375e+66             0             0   4.24375e+66   4.24375e+66             0             0             0             0            -0
   1.57221e+60  -8.25481e+59   6.24527e+62   4.24375e+66             0             0   4.24375e+66   4.24375e+66             0             0            -0             0            -0
   1.33053e+60  -8.10534e+59   6.20612e+62   4.24375e+66             0             0   4.24375e+66   4.24375e+66             0             0            -0             0             0
   1.33053e+60  -8.10534e+59   6.20612e+62   4.24375e+66             0             0   4.24375e+66   4.24375e+66             0             0             0             0             0
   1.33053e+60  -8.10534e+59   6.20612e+62  -4.24375e+66             0             0   4.24375e+66  -4.24375e+66             0             0             0             0            -0
   1.33053e+60  -8.10534e+59   6.20612e+62  -4.24375e+66             0             0   4.24375e+66  -4.24375e+66             0             0            -0             0            -0
   1.33053e+60  -8.10534e+59   6.20612e+62  -4.24375e+66             0             0   4.24375e+66  -4.24375e+66             0             0            -0             0             0
   1.33053e+60  -8.10534e+59   6.20612e+62  -4.24375e+66             0             0   4.24375e+66  -4.24375e+66             0             0             0             0             0
   1.33053e+60  -8.10534e+59   6.20612e+62   4.24375e+66             0             0   4.24375e+66   4.24375e+66             0             0             0             0            -0
   1.33053e+60  -8.10534e+59   6.20612e+62   4.24375e+66             0             0   4.24375e+66   4.24375e+66             0             0            -0             0            -0
   1.08885e+60  -7.95587e+59   6.16697e+62   4.24375e+66             0             0   4.24375e+66   4.24375e+66             0             0            -0             0             0
   1.08885e+60  -7.95587e+59   6.16697e+62   4.24375e+66             0             0   4.24375e+66   4.24375e+66             0             0             0             0             0
   1.08885e+60  -7.95587e+59   6.16697e+62  -4.24375e+66             0             0   4.24375e+66  -4.24375e+66             0             0             0             0            -0
   1.08885e+60  -7.95587e+59   6.16697e+62  -4.24375e+66             0             0   4.24375e+66  -4.24375e+66             0             0            -0             0            -0
   1.08885e+60  -7.95587e+59   6.16697e+62  -4.24375e+66             0             0   4.24375e+66  -4.24375e+66             0             0            -0             0             0
   1.08885e+60  -7.95587e+59   6.16697e+62  -4.24375e+66             0             0   4.24375e+66  -4.24375e+66             0             0             0             0             0
   1.08885e+60  -7.95587e+59   6.16697e+62   4.24375e+66             0             0   4.24375e+66   4.24375e+66             0             0             0             0            -0
   1.08885e+60  -7.95587e+59   6.16697e+62   4.24375e+66             0             0   4.24375e+66   4.24375e+66             0             0            -0             0            -0
   8.47168e+59   -7.8064e+59   6.12783e+62   4.24375e+66             0             0   4.24375e+66   4.24375e+66             0             0            -0             0             0
   8.47168e+59   -7.8064e+59   6.12783e+62   4.24375e+66             0             0   4.24375e+66   4.24375e+66             0             0             0             0             0
   8.47168e+59   -7.8064e+59   6.12783e+62  -4.24375e+66             0             0   4.24375e+66  -4.24375e+66             0             0             0             0            -0
   8.47168e+59   -7.8064e+59   6.12783e+62  -4.24375e+66             0             0   4.24375e+66  -4.24375e+66             0             0            -0             0            -0
   8.47168e+59   -7.8064e+59   6.12783e+62  -4.24375e+66             0             0   4.24375e+66  -4.24375e+66             0             0            -0             0             0
   8.47168e+59   -7.8064e+59   6.12783e+62  -4.24375e+66             0             0   4.24375e+66  -4.24375e+66             0             0             0             0             0
   8.47168e+59   -7.8064e+59   6.12783e+62   4.24375e+66             0             0   4.24375e+66   4.24375e+66             0             0             0             0            -0
   8.47168e+59   -7.8064e+59   6.12783e+62   4.24375e+66             0             0   4.24375e+66   4.24375e+66             0             0            -0             0            -0
   6.05487e+59  -7.65693e+59   6.08868e+62   4.24375e+66             0             0   4.24375e+66   4.24375e+66             0             0            -0             0             0
   6.05487e+59  -7.65693e+59   6.08868e+62   4.24375e+66             0             0   4.24375e+66   4.24375e+66             0             0             0             0             0
   6.05487e+59  -7.65693e+59   6.08868e+62  -4.24375e+66             0             0   4.24375e+66  -4.24375e+66             0             0             0             0            -0
   6.05487e+59  -7.65693e+59   6.08868e+62  -4.24375e+66             0             0   4.24375e+66  -4.24375e+66             0             0            -0             0            -0
   6.05487e+59  -7.65693e+59   6.08868e+62  -4.24375e+66             0             0   4.24375e+66  -4.24375e+66             0             0            -0             0             0
   6.05487e+59  -7.65693e+59   6.08868e+62  -4.24375e+66             0             0   4.24375e+66  -4.24375e+66             0             0             0             0             0
   6.05487e+59  -7.65693e+59   6.08868e+62   4.24375e+66             0             0   4.24375e+66   4.24375e+66             0             0             0             0            -0
   6.05487e+59  -7.65693e+59   6.08868e+62   4.24375e+66             0             0   4.24375e+66   4.24375e+66             0             0            -0             0            -0
   3.63806e+59  -7.50746e+59   6.04953e+62   4.24375e+66             0             0   4.24375e+66   4.24375e+66             0             0            -0             0             0
   3.63806e+59  -7.50746e+59   6.04953e+62   4.24375e+66             0             0   4.24375e+66   4.24375e+66             0             0             0             0             0
   3.63806e+59  -7.50746e+59   6.04953e+62  -4.24375e+66             0             0   4.24375e+66  -4.24375e+66             0             0             0             0            -0
   3.63806e+59  -7.50746e+59   6.04953e+62  -4.24375e+66             0             0   4.24375e+66  -4.24375e+66             0             0            -0             0            -0
   3.63806e+59  -7.50746e+59   6.04953e+62  -4.24375e+66             0             0   4.24375e+66  -4.24375e+66             0             0            -0             0             0
   3.63806e+59  -7.50746e+59   6.04953e+62  -4.24375e+66             0             0   4.24375e+66  -4.24375e+66             0             0             0             0             0
   3.63806e+59  -7.50746e+59   6.04953e+62   4.24375e+66             0             0   4.24375e+66   4.24375e+66             0             0             0             0            -0
   3.63806e+59  -7.50746e+59   6.04953e+62   4.24375e+66             0             0   4.24375e+66   4.24375e+66             0             0            -0             0            -0
   1.22125e+59  -7.35799e+59   6.01038e+62   4.24375e+66             0             0   4.24375e+66   4.24375e+66             0             0            -0             0             0
   1.22125e+59  -7.35799e+59   6.01038e+62   4.24375e+66             0             0   4.24375e+66   4.24375e+66             0             0             0             0             0
   1.22125e+59  -7.35799e+59   6.01038e+62  -4.24375e+66             0             0   4.24375e+66  -4.24375e+66             0             0             0             0            -0
   1.22125e+59  -7.35799e+59   6.01038e+62  -4.24375e+66             0             0   4.24375e+66  -4.24375e+66             0             0            -0             0            -0
   1.22125e+59  -7.35799e+59   6.01038e+62  -4.24375e+66             0             0   4.24375e+66  -4.24375e+66             0             0            -0             0             0
   1.22125e+59  -7.35799e+59   6.01038e+62  -4.24375e+66             0             0   4.24375e+66  -4.24375e+66             0             0             0             0             0
   1.22125e+59  -7.35799e+59   6.01038e+62   4.24375e+66             0             0   4.24375e+66   4.24375e+66             0             0             0             0            -0
   1.22125e+59  -7.35799e+59   6.01038e+62   4.24375e+66             0             0   4.24375e+66   4.24375e+66             0             0            -0             0            -0
  -1.19557e+59  -7.20852e+59   5.97124e+62   4.24375e+66             0             0   4.24375e+66   4.24375e+66             0             0            -0             0             0
  -1.19557e+59  -7.20852e+59   5.97124e+62   4.24375e+66             0             0   4.24375e+66   4.24375e+66             0             0             0             0             0
  -1.19557e+59  -7.20852e+59   5.97124e+62  -4.24375e+66             0             0   4.24375e+66  -4.24375e+66             0             0             0             0            -0
  -1.19557e+59  -7.20852e+59   5.97124e+62  -4.24375e+66             0             0   4.24375e+66  -4.24375e+66             0             0            -0             0            -0
  -1.19557e+59  -7.20852e+59   5.97124e+62  -4.24375e+66             0             0   4.24375e+66  -4.24375e+66             0             0            -0             0             0
  -1.19557e+59  -7.20852e+59   5.97124e+62  -4.24375e+66             0             0   4.24375e+66  -4.24375e+66             0             0             0             0             0
  -1.19557e+59  -7.20852e+59   5.97124e+62   4.24375e+66             0             0   4.24375e+66   4.24375e+66             0             0             0             0            -0
  -1.19557e+59  -7.20852e+59   5.97124e+62   4.24375e+66             0             0   4.24375e+66   4.24375e+66             0             0            -0             0            -0
  -3.61238e+59  -7.05905e+59   5.93209e+62   4.24375e+66             0             0   4.24375e+66   4.24375e+66             0             0            -0             0             0
  -3.61238e+59  -7.05905e+59   5.93209e+62   4.24375e+66             0             0   4.24375e+66   4.24375e+66             0             0             0             0             0
  -3.61238e+59  -7.05905e+59   5.93209e+62  -4.24375e+66             0             0   4.24375e+66  -4.24375e+66             0             0             0             0            -0
  -3.61238e+59  -7.05905e+59   5.93209e+62  -4.24375e+66             0             0   4.24375e+66  -4.24375e+66             0             0            -0             0            -0
  -3.61238e+59  -7.05905e+59   5.93209e+62  -4.24375e+66             0             0   4.24375e+66  -4.24375e+66             0             0            -0             0             0
  -3.61238e+59  -7.05905e+59   5.93209e+62  -4.24375e+66             0             0   4.24375e+66  -4.24375e+66             0             0             0             0             0
  -3.61238e+59  -7.05905e+59   5.93209e+62   4.24375e+66             0             0   4.24375e+66   4.24375e+66             0             0             0             0            -0
  -3.61238e+59  -7.05905e+59   5.93209e+62   4.24375e+66             0             0   4.24375e+66   4.24375e+66             0             0            -0             0            -0
  -6.02919e+59  -6.90958e+59   5.89294e+62   4.24375e+66             0             0   4.24375e+66   4.24375e+66             0             0            -0             0             0
  -6.02919e+59  -6.90958e+59   5.89294e+62   4.24375e+66             0             0   4.24375e+66   4.24375e+66             0             0             0             0             0
  -6.02919e+59  -6.90958e+59   5.89294e+62  -4.24375e+66             0             0   4.24375e+66  -4.24375e+66             0             0             0             0            -0
  -6.02919e+59  -6.90958e+59   5.89294e+62  -4.24375e+66             0             0   4.24375e+66  -4.24375e+66             0             0            -0             0            -0
  -6.02919e+59  -6.90958e+59   5.89294e+62  -4.24375e+66             0             0   4.24375e+66  -4.24375e+66             0             0            -0             0             0
  -6.02919e+59  -6.90958e+59   5.89294e+62  -4.24375e+66             0             0   4.24375e+66  -4.24375e+66             0             0             0             0             0
  -6.02919e+59  -6.90958e+59   5.89294e+62   4.24375e+66             0             0   4.24375e+66   4.24375e+66             0             0             0             0            -0
  -6.02919e+59  -6.90958e+59   5.89294e+62   4.24375e+66             0             0   4.24375e+66   4.24375e+66             0             0            -0             0            -0
    -8.446e+59  -6.76011e+59   5.85379e+62   4.24375e+66             0             0   4.24375e+66   4.24375e+66             0             0            -0             0             0
    -8.446e+59  -6.76011e+59   5.85379e+62   4.24375e+66             0             0   4.24375e+66   4.24375e+66             0             0             0             0             0
    -8.446e+59  -6.76011e+59   5.85379e+62  -4.24375e+66             0             0   4.24375e+66  -4.24375e+66             0             0             0             0            -0
    -8.446e+59  -6.76011e+59   5.85379e+62  -4.24375e+66             0             0   4.24375e+66  -4.24375e+66             0             0            -0             0            -0
    -8.446e+59  -6.76011e+59   5.85379e+62  -4.24375e+66             0             0   4.24375e+66  -4.24375e+66             0             0            -0             0             0
    -8.446e+59  -6.76011e+59   5.85379e+62  -4.24375e+66             0             0   4.24375e+66  -4.24375e+66             0             0             0             0             0
    -8.446e+59  -6.76011e+59   5.85379e+62   4.24375e+66             0             0   4.24375e+66   4.24375e+66             0             0             0             0            -0
    -8.446e+59  -6.76011e+59   5.85379e+62   4.24375e+66             0             0   4.24375e+66   4.24375e+66             0             0            -0             0            -0
  -1.08628e+60  -6.61064e+59   5.81465e+62   4.24375e+66             0             0   4.24375e+66   4.24375e+66             0             0            -0             0             0
  -1.08628e+60  -6.61064e+59   5.81465e+62   4.24375e+66             0             0   4.24375e+66   4.24375e+66             0             0             0             0             0
  -1.08628e+60  -6.61064e+59   5.81465e+62  -4.24375e+66             0             0   4.24375e+66  -4.24375e+66             0             0             0             0            -0
  -1.08628e+60  -6.61064e+59   5.81465e+62  -4.24375e+66             0             0   4.24375e+66  -4.24375e+66             0             0            -0             0            -0
  -1.08628e+60  -6.61064e+59   5.81465e+62  -4.24375e+66             0             0   4.24375e+66  -4.24375e+66             0             0            -0             0             0
  -1.08628e+60  -6.61064e+59   5.81465e+62  -4.24375e+66             0             0   4.24375e+66  -4.24375e+66             0             0             0             0             0
  -1.08628e+60  -6.61064e+59   5.81465e+62   4.24375e+66             0             0   4.24375e+66   4.24375e+66             0             0             0             0            -0
  -1.08628e+60  -6.61064e+59   5.81465e+62   4.24375e+66             0             0   4.24375e+66   4.24375e+66             0             0            -0             0            -0
  -1.32796e+60  -6.46117e+59    5.7755e+62   4.24375e+66             0             0   4.24375e+66   4.24375e+66             0             0            -0             0             0
  -1.32796e+60  -6.46117e+59    5.7755e+62   4.24375e+66             0             0   4.24375e+66   4.24375e+66             0             0             0             0             0
  -1.32796e+60  -6.46117e+59    5.7755e+62  -4.24375e+66             0             0   4.24375e+66  -4.24375e+66             0             0             0             0            -0
  -1.32796e+60  -6.46117e+59    5.7755e+62  -4.24375e+66             0             0   4.24375e+66  -4.24375e+66             0             0            -0             0            -0
  -1.32796e+60  -6.46117e+59    5.7755e+62  -4.24375e+66             0             0   4.24375e+66  -4.24375e+66             0             0            -0             0             0
  -1.32796e+60  -6.46117e+59    5.7755e+62  -4.24375e+66             0             0   4.24375e+66  -4.24375e+66             0             0             0             0             0
  -1.32796e+60  -6.46117e+59    5.7755e+62   4.24375e+66             0             0   4.24375e+66   4.24375e+66             0             0             0             0            -0
  -1.32796e+60  -6.46117e+59    5.7755e+62   4.24375e+66             0             0   4.24375e+66   4.24375e+66             0             0            -0             0            -0
  -1.56964e+60   -6.3117e+59   5.73635e+62   4.24375e+66             0             0   4.24375e+66   4.24375e+66             0             0            -0             0             0
  -1.56964e+60   -6.3117e+59   5.73635e+62   4.24375e+66             0             0   4.24375e+66   4.24375e+66             0             0             0             0             0
  -1.56964e+60   -6.3117e+59   5.73635e+62  -4.24375e+66             0             0   4.24375e+66  -4.24375e+66             0             0             0             0            -0
  -1.56964e+60   -6.3117e+59   5.73635e+62  -4.24375e+66             0             0   4.24375e+66  -4.24375e+66             0             0            -0             0            -0
   1.57221e+60  -8.25481e+59   6.24527e+62   -2.8674e+68             0             0    2.8674e+68   -2.8674e+68             0             0            -0             0             0
   1.57221e+60  -8.25481e+59   6.24527e+62   -2.8674e+68             0             0    2.8674e+68   -2.8674e+68             0             0             0             0             0
   1.57221e+60  -8.25481e+59   6.24527e+62    2.8674e+68             0             0    2.8674e+68    2.8674e+68             0             0             0             0            -0
   1.57221e+60  -8.25481e+59   6.24527e+62    2.8674e+68             0             0    2.8674e+68    2.8674e+68             0             0            -0             0            -0
   3.56013e+60  -8.16599e+59   6.21322e+62    2.8674e+68             0             0    2.8674e+68    2.8674e+68             0             0            -0             0             0
   3.56013e+60  -8.16599e+59   6.21322e+62    2.8674e+68             0             0    2.8674e+68    2.8674e+68             0             0             0             0             0
   3.56013e+60  -8.16599e+59   6.21322e+62   -2.8674e+68             0             0    2.8674e+68   -2.8674e+68             0             0             0             0            -0
   3.56013e+60  -8.16599e+59   6.21322e+62   -2.8674e+68             0             0    2.8674e+68   -2.8674e+68             0             0            -0             0            -0
   3.56013e+60  -8.16599e+59   6.21322e+62   -2.8674e+68             0             0    2.8674e+68   -2.8674e+68             0             0            -0             0             0
   3.56013e+60  -8.16599e+59   6.21322e+62   -2.8674e+68             0             0    2.8674e+68   -2.8674e+68             0             0             0             0             0
   3.56013e+60  -8.16599e+59   6.21322e+62    2.8674e+68             0             0    2.8674e+68    2.8674e+68             0             0             0             0            -0
   3.56013e+60  -8.16599e+59   6.21322e+62    2.8674e+68             0             0    2.8674e+68    2.8674e+68             0             0            -0             0            -0
   5.54805e+60  -8.07716e+59   6.18117e+62    2.8674e+68             0             0    2.8674e+68    2.8674e+68             0             0            -0             0             0
   5.54805e+60  -8.07716e+59   6.18117e+62    2.8674e+68             0             0    2.8674e+68    2.8674e+68             0             0             0             0             0
   5.54805e+60  -8.07716e+59   6.18117e+62   -2.8674e+68             0             0    2.8674e+68   -2.8674e+68             0             0             0             0            -0
   5.54805e+60  -8.07716e+59   6.18117e+62   -2.8674e+68             0             0    2.8674e+68   -2.8674e+68             0             0            -0             0            -0
   5.54805e+60  -8.07716e+59   6.18117e+62   -2.8674e+68             0             0    2.8674e+68   -2.8674e+68             0             0            -0             0             0
   5.54805e+60  -8.07716e+59   6.18117e+62   -2.8674e+68             0             0    2.8674e+68   -2.8674e+68             0             0             0             0             0
   5.54805e+60  -8.07716e+59   6.18117e+62    2.8674e+68             0             0    2.8674e+68    2.8674e+68             0             0             0             0            -0
   5.54805e+60  -8.07716e+59   6.18117e+62    2.8674e+68             0             0    2.8674e+68    2.8674e+68             0             0            -0             0            -0
   7.53597e+60  -7.98834e+59   6.14912e+62    2.8674e+68             0             0    2.8674e+68    2.8674e+68             0             0            -0             0             0
   7.53597e+60  -7.98834e+59   6.14912e+62    2.8674e+68             0             0    2.8674e+68    2.8674e+68             0             0             0             0             0
   7.53597e+60  -7.98834e+59   6.14912e+62   -2.8674e+68             0             0    2.8674e+68   -2.8674e+68             0             0             0             0            -0
   7.53597e+60  -7.98834e+59   6.14912e+62   -2.8674e+68             0             0    2.8674e+68   -2.8674e+68             0             0            -0             0            -0
   7.53597e+60  -7.98834e+59   6.14912e+62   -2.8674e+68             0             0    2.8674e+68   -2.8674e+68             0             0            -0             0             0
   7.53597e+60  -7.98834e+59   6.14912e+62   -2.8674e+68             0             0    2.8674e+68   -2.8674e+68             0             0             0             0             0
   7.53597e+60  -7.98834e+59   6.14912e+62    2.8674e+68             0             0    2.8674e+68    2.8674e+68             0             0             0             0            -0
   7.53597e+60  -7.98834e+59   6.14912e+62    2.8674e+68             0             0    2.8674e+68    2.8674e+68             0             0            -0             0            -0
   9.52388e+60  -7.89952e+59   6.11707e+62    2.8674e+68             0             0    2.8674e+68    2.8674e+68             0             0            -0             0             0
   9.52388e+60  -7.89952e+59   6.11707e+62    2.8674e+68             0             0    2.8674e+68    2.8674e+68             0             0             0             0             0
   9.52388e+60  -7.89952e+59   6.11707e+62   -2.8674e+68             0             0    2.8674e+68   -2.8674e+68             0             0             0             0            -0
   9.52388e+60  -7.89952e+59   6.11707e+62   -2.8674e+68             0             0    2.8674e+68   -2.8674e+68             0             0            -0             0            -0
   9.52388e+60  -7.89952e+59   6.11707e+62   -2.8674e+68             0             0    2.8674e+68   -2.8674e+68             0             0            -0             0             0
   9.52388e+60  -7.89952e+59   6.11707e+62   -2.8674e+68             0             0    2.8674e+68   -2.8674e+68             0             0             0             0             0
   9.52388e+60  -7.89952e+59   6.11707e+62    2.8674e+68             0             0    2.8674e+68    2.8674e+68             0             0             0             0            -0
   9.52388e+60  -7.89952e+59   6.11707e+62    2.8674e+68             0             0    2.8674e+68    2.8674e+68             0             0            -0             0            -0
   1.15118e+61  -7.81069e+59   6.08501e+62    2.8674e+68             0             0    2.8674e+68    2.8674e+68             0             0            -0             0             0
   1.15118e+61  -7.81069e+59   6.08501e+62    2.8674e+68             0             0    2.8674e+68    2.8674e+68             0             0             0             0             0
   1.15118e+61  -7.81069e+59   6.08501e+62   -2.8674e+68             0             0    2.8674e+68   -2.8674e+68             0             0             0             0            -0
   1.15118e+61  -7.81069e+59   6.08501e+62   -2.8674e+68             0             0    2.8674e+68   -2.8674e+68             0             0            -0             0            -0
   1.15118e+61  -7.81069e+59   6.08501e+62   -2.8674e+68             0             0    2.8674e+68   -2.8674e+68             0             0            -0             0             0
   1.15118e+61  -7.81069e+59   6.08501e+62   -2.8674e+68             0             0    2.8674e+68   -2.8674e+68             0             0             0             0             0
   1.15118e+61  -7.81069e+59   6.08501e+62    2.8674e+68             0             0    2.8674e+68    2.8674e+68             0             0             0             0            -0
   1.15118e+61  -7.81069e+59   6.08501e+62    2.8674e+68             0             0    2.8674e+68    2.8674e+68             0             0            -0             0            -0
   1.34997e+61  -7.72187e+59   6.05296e+62    2.8674e+68             0             0    2.8674e+68    2.8674e+68             0             0            -0             0             0
   1.34997e+61  -7.72187e+59   6.05296e+62    2.8674e+68             0             0    2.8674e+68    2.8674e+68             0             0             0             0             0
   1.34997e+61  -7.72187e+59   6.05296e+62   -2.8674e+68             0             0    2.8674e+68   -2.8674e+68             0             0             0             0            -0
   1.34997e+61  -7.72187e+59   6.05296e+62   -2.8674e+68             0             0    2.8674e+68   -2.8674e+68             0             0            -0             0            -0
   1.34997e+61  -7.72187e+59   6.05296e+62   -2.8674e+68             0             0    2.8674e+68   -2.8674e+68             0             0            -0             0             0
   1.34997e+61  -7.72187e+59   6.05296e+62   -2.8674e+68             0             0    2.8674e+68   -2.8674e+68             0             0             0             0             0
   1.34997e+61  -7.72187e+59   6.05296e+62    2.8674e+68             0             0    2.8674e+68    2.8674e+68             0             0             0             0            -0
   1.34997e+61  -7.72187e+59   6.05296e+62    2.8674e+68             0             0    2.8674e+68    2.8674e+68             0             0            -0             0            -0
   1.54876e+61  -7.63305e+59   6.02091e+62    2.8674e+68             0             0    2.8674e+68    2.8674e+68             0             0            -0             0             0
   1.54876e+61  -7.63305e+59   6.02091e+62    2.8674e+68             0             0    2.8674e+68    2.8674e+68             0             0             0             0             0
   1.54876e+61  -7.63305e+59   6.02091e+62   -2.8674e+68             0             0    2.8674e+68   -2.8674e+68             0             0             0             0            -0
   1.54876e+61  -7.63305e+59   6.02091e+62   -2.8674e+68             0             0    2.8674e+68   -2.8674e+68             0             0            -0             0            -0
   1.54876e+61  -7.63305e+59   6.02091e+62  -2.86741e+68             0             0   2.86741e+68  -2.86741e+68             0             0            -0             0             0
   1.54876e+61  -7.63305e+59   6.02091e+62  -2.86741e+68             0             0   2.86741e+68  -2.86741e+68             0             0             0             0             0
   1.54876e+61  -7.63305e+59   6.02091e+62   2.86741e+68             0             0   2.86741e+68   2.86741e+68             0             0             0             0            -0
   1.54876e+61  -7.63305e+59   6.02091e+62   2.86741e+68             0             0   2.86741e+68   2.86741e+68             0             0            -0             0            -0
   1.74756e+61  -7.54422e+59   5.98886e+62   2.86741e+68             0             0   2.86741e+68   2.86741e+68             0             0            -0             0             0
   1.74756e+61  -7.54422e+59   5.98886e+62   2.86741e+68             0             0   2.86741e+68   2.86741e+68             0             0             0             0             0
   1.74756e+61  -7.54422e+59   5.98886e+62  -2.86741e+68             0             0   2.86741e+68  -2.86741e+68             0             0             0             0            -0
   1.74756e+61  -7.54422e+59   5.98886e+62  -2.86741e+68             0             0   2.86741e+68  -2.86741e+68             0             0            -0             0            -0
   1.74756e+61  -7.54422e+59   5.98886e+62   -2.8674e+68             0             0    2.8674e+68   -2.8674e+68             0             0            -0             0             0
   1.74756e+61  -7.54422e+59   5.98886e+62   -2.8674e+68             0             0    2.8674e+68   -2.8674e+68             0             0             0             0             0
   1.74756e+61  -7.54422e+59   5.98886e+62    2.8674e+68             0             0    2.8674e+68    2.8674e+68             0             0             0             0            -0
   1.74756e+61  -7.54422e+59   5.98886e+62    2.8674e+68             0             0    2.8674e+68    2.8674e+68             0             0            -0             0            -0
   1.94635e+61   -7.4554e+59   5.95681e+62    2.8674e+68             0             0    2.8674e+68    2.8674e+68             0             0            -0             0             0
   1.94635e+61   -7.4554e+59   5.95681e+62    2.8674e+68             0             0    2.8674e+68    2.8674e+68             0             0             0             0             0
   1.94635e+61   -7.4554e+59   5.95681e+62   -2.8674e+68             0             0    2.8674e+68   -2.8674e+68             0             0             0             0            -0
   1.94635e+61   -7.4554e+59   5.95681e+62   -2.8674e+68             0             0    2.8674e+68   -2.8674e+68             0             0            -0             0            -0
   1.94635e+61   -7.4554e+59   5.95681e+62   -2.8674e+68             0             0    2.8674e+68   -2.8674e+68             0             0            -0             0             0
   1.94635e+61   -7.4554e+59   5.95681e+62   -2.8674e+68             0             0    2.8674e+68   -2.8674e+68             0             0             0             0             0
   1.94635e+61   -7.4554e+59   5.95681e+62    2.8674e+68             0             0    2.8674e+68    2.8674e+68             0             0             0             0            -0
   1.94635e+61   -7.4554e+59   5.95681e+62    2.8674e+68             0             0    2.8674e+68    2.8674e+68             0             0            -0             0            -0
   2.14514e+61  -7.36658e+59   5.92476e+62    2.8674e+68             0             0    2.8674e+68    2.8674e+68             0             0            -0             0             0
   2.14514e+61  -7.36658e+59   5.92476e+62    2.8674e+68             0             0    2.8674e+68    2.8674e+68             0             0             0             0             0
   2.14514e+61  -7.36658e+59   5.92476e+62   -2.8674e+68             0             0    2.8674e+68   -2.8674e+68             0             0             0             0            -0
   2.14514e+61  -7.36658e+59   5.92476e+62   -2.8674e+68             0             0    2.8674e+68   -2.8674e+68             0             0            -0             0            -0
   2.14514e+61  -7.36658e+59   5.92476e+62  -2.86741e+68             0             0   2.86741e+68  -2.86741e+68             0             0            -0             0             0
   2.14514e+61  -7.36658e+59   5.92476e+62  -2.86741e+68             0             0   2.86741e+68  -2.86741e+68             0             0             0             0             0
   2.14514e+61  -7.36658e+59   5.92476e+62   2.86741e+68             0             0   2.86741e+68   2.86741e+68             0             0             0             0            -0
   2.14514e+61  -7.36658e+59   5.92476e+62   2.86741e+68             0             0   2.86741e+68   2.86741e+68             0             0            -0             0            -0
   2.34393e+61  -7.27775e+59   5.89271e+62   2.86741e+68             0             0   2.86741e+68   2.86741e+68             0             0            -0             0             0
   2.34393e+61  -7.27775e+59   5.89271e+62   2.86741e+68             0             0   2.86741e+68   2.86741e+68             0             0             0             0             0
   2.34393e+61  -7.27775e+59   5.89271e+62  -2.86741e+68             0             0   2.86741e+68  -2.86741e+68             0             0             0             0            -0
   2.34393e+61  -7.27775e+59   5.89271e+62  -2.86741e+68             0             0   2.86741e+68  -2.86741e+68             0             0            -0             0            -0
   2.34393e+61  -7.27775e+59   5.89271e+62   -2.8674e+68             0             0    2.8674e+68   -2.8674e+68             0             0            -0             0             0
   2.34393e+61  -7.27775e+59   5.89271e+62   -2.8674e+68             0             0    2.8674e+68   -2.8674e+68             0             0             0             0             0
   2.34393e+61  -7.27775e+59   5.89271e+62    2.8674e+68             0             0    2.8674e+68    2.8674e+68             0             0             0             0            -0
   2.34393e+61  -7.27775e+59   5.89271e+62    2.8674e+68             0             0    2.8674e+68    2.8674e+68             0             0            -0             0            -0
   2.54272e+61  -7.18893e+59   5.86066e+62    2.8674e+68             0             0    2.8674e+68    2.8674e+68             0             0            -0             0             0
   2.54272e+61  -7.18893e+59   5.86066e+62    2.8674e+68             0             0    2.8674e+68    2.8674e+68             0             0             0             0             0
   2.54272e+61  -7.18893e+59   5.86066e+62   -2.8674e+68             0             0    2.8674e+68   -2.8674e+68             0             0             0             0            -0
   2.54272e+61  -7.18893e+59   5.86066e+62   -2.8674e+68             0             0    2.8674e+68   -2.8674e+68             0             0            -0             0            -0
   2.54272e+61  -7.18893e+59   5.86066e+62   -2.8674e+68             0             0    2.8674e+68   -2.8674e+68             0             0            -0             0             0
   2.54272e+61  -7.18893e+59   5.86066e+62   -2.8674e+68             0             0    2.8674e+68   -2.8674e+68             0             0             0             0             0
   2.54272e+61  -7.18893e+59   5.86066e+62    2.8674e+68             0             0    2.8674e+68    2.8674e+68             0             0             0             0            -0
   2.54272e+61  -7.18893e+59   5.86066e+62    2.8674e+68             0             0    2.8674e+68    2.8674e+68             0             0            -0             0            -0
   2.74151e+61  -7.10011e+59   5.82861e+62    2.8674e+68             0             0    2.8674e+68    2.8674e+68             0             0            -0             0             0
   2.74151e+61  -7.10011e+59   5.82861e+62    2.8674e+68             0             0    2.8674e+68    2.8674e+68             0             0             0             0             0
   2.74151e+61  -7.10011e+59   5.82861e+62   -2.8674e+68             0             0    2.8674e+68   -2.8674e+68             0             0             0             0            -0
   2.74151e+61  -7.10011e+59   5.82861e+62   -2.8674e+68             0             0    2.8674e+68   -2.8674e+68             0             0            -0             0            -0
   2.74151e+61  -7.10011e+59   5.82861e+62  -2.86741e+68             0             0   2.86741e+68  -2.86741e+68             0             0            -0             0             0
   2.74151e+61  -7.10011e+59   5.82861e+62  -2.86741e+68             0             0   2.86741e+68  -2.86741e+68             0             0             0             0             0
   2.74151e+61  -7.10011e+59   5.82861e+62   2.86741e+68             0             0   2.86741e+68   2.86741e+68             0             0             0             0            -0
   2.74151e+61  -7.10011e+59   5.82861e+62   2.86741e+68             0             0   2.86741e+68   2.86741e+68             0             0            -0             0            -0
   2.94031e+61  -7.01128e+59   5.79656e+62   2.86741e+68             0             0   2.86741e+68   2.86741e+68             0             0            -0             0             0
   2.94031e+61  -7.01128e+59   5.79656e+62   2.86741e+68             0             0   2.86741e+68   2.86741e+68             0             0             0             0             0
   2.94031e+61  -7.01128e+59   5.79656e+62  -2.86741e+68             0             0   2.86741e+68  -2.86741e+68             0             0             0             0            -0
   2.94031e+61  -7.01128e+59   5.79656e+62  -2.86741e+68             0             0   2.86741e+68  -2.86741e+68             0             0            -0             0            -0
   2.94031e+61  -7.01128e+59   5.79656e+62   -2.8674e+68             0             0    2.8674e+68   -2.8674e+68             0             0            -0             0             0
   2.94031e+61  -7.01128e+59   5.79656e+62   -2.8674e+68             0             0    2.8674e+68   -2.8674e+68             0             0             0             0             0
   2.94031e+61  -7.01128e+59   5.79656e+62    2.8674e+68             0             0    2.8674e+68    2.8674e+68             0             0             0             0            -0
   2.94031e+61  -7.01128e+59   5.79656e+62    2.8674e+68             0             0    2.8674e+68    2.8674e+68             0             0            -0             0            -0
    3.1391e+61  -6.92246e+59   5.76451e+62    2.8674e+68             0             0    2.8674e+68    2.8674e+68             0             0            -0             0             0
    3.1391e+61  -6.92246e+59   5.76451e+62    2.8674e+68             0             0    2.8674e+68    2.8674e+68             0             0             0             0             0
    3.1391e+61  -6.92246e+59   5.76451e+62   -2.8674e+68             0             0    2.8674e+68   -2.8674e+68             0             0             0             0            -0
    3.1391e+61  -6.92246e+59   5.76451e+62   -2.8674e+68             0             0    2.8674e+68   -2.8674e+68             0             0            -0             0            -0
    3.1391e+61  -6.92246e+59   5.76451e+62  -1.23281e+69             0             0   1.23281e+69  -1.23281e+69             0             0            -0             0             0
    3.1391e+61  -6.92246e+59   5.76451e+62  -1.23281e+69             0             0   1.23281e+69  -1.23281e+69             0             0             0             0             0
    3.1391e+61  -6.92246e+59   5.76451e+62   1.23281e+69             0             0   1.23281e+69   1.23281e+69             0             0             0             0            -0
    3.1391e+61  -6.92246e+59   5.76451e+62   1.23281e+69             0             0   1.23281e+69   1.23281e+69             0             0            -0             0            -0
   2.72709e+61  -6.84611e+59   5.76099e+62   1.23281e+69             0             0   1.23281e+69   1.23281e+69             0             0            -0             0             0
   2.72709e+61  -6.84611e+59   5.76099e+62   1.23281e+69             0             0   1.23281e+69   1.23281e+69             0             0             0             0             0
   2.72709e+61  -6.84611e+59   5.76099e+62  -1.23281e+69             0             0   1.23281e+69  -1.23281e+69             0             0             0             0            -0
   2.72709e+61  -6.84611e+59   5.76099e+62  -1.23281e+69             0             0   1.23281e+69  -1.23281e+69             0             0            -0             0            -0
   2.72709e+61  -6.84611e+59   5.76099e+62  -1.23281e+69             0             0   1.23281e+69  -1.23281e+69             0             0            -0             0             0
   2.72709e+61  -6.84611e+59   5.76099e+62  -1.23281e+69             0             0   1.23281e+69  -1.23281e+69             0             0             0             0             0
   2.72709e+61  -6.84611e+59   5.76099e+62   1.23281e+69             0             0   1.23281e+69   1.23281e+69             0             0             0             0            -0
   2.72709e+61  -6.84611e+59   5.76099e+62   1.23281e+69             0             0   1.23281e+69   1.23281e+69             0             0            -0             0            -0
   2.31508e+61  -6.76977e+59   5.75747e+62   1.23281e+69             0             0   1.23281e+69   1.23281e+69             0             0            -0             0             0
   2.31508e+61  -6.76977e+59   5.75747e+62   1.23281e+69             0             0   1.23281e+69   1.23281e+69             0             0             0             0             0
   2.31508e+61  -6.76977e+59   5.75747e+62  -1.23281e+69             0             0   1.23281e+69  -1.23281e+69             0             0             0             0            -0
   2.31508e+61  -6.76977e+59   5.75747e+62  -1.23281e+69             0             0   1.23281e+69  -1.23281e+69             0             0            -0             0            -0
   2.31508e+61  -6.76977e+59   5.75747e+62  -1.23281e+69             0             0   1.23281e+69  -1.23281e+69             0             0            -0             0             0
   2.31508e+61  -6.76977e+59   5.75747e+62  -1.23281e+69             0             0   1.23281e+69  -1.23281e+69             0             0             0             0             0
   2.31508e+61  -6.76977e+59   5.75747e+62   1.23281e+69             0             0   1.23281e+69   1.23281e+69             0             0             0             0            -0
   2.31508e+61  -6.76977e+59   5.75747e+62   1.23281e+69             0             0   1.23281e+69   1.23281e+69             0             0            -0             0            -0
   1.90307e+61  -6.69343e+59   5.75395e+62   1.23281e+69             0             0   1.23281e+69   1.23281e+69             0             0            -0             0             0
   1.90307e+61  -6.69343e+59   5.75395e+62   1.23281e+69             0             0   1.23281e+69   1.23281e+69             0             0             0             0             0
   1.90307e+61  -6.69343e+59   5.75395e+62  -1.23281e+69             0             0   1.23281e+69  -1.23281e+69             0             0             0             0            -0
   1.90307e+61  -6.69343e+59   5.75395e+62  -1.23281e+69             0             0   1.23281e+69  -1.23281e+69             0             0            -0             0            -0
   1.90307e+61  -6.69343e+59   5.75395e+62  -1.23281e+69             0             0   1.23281e+69  -1.23281e+69             0             0            -0             0             0
   1.90307e+61  -6.69343e+59   5.75395e+62  -1.23281e+69             0             0   1.23281e+69  -1.23281e+69             0             0             0             0             0
   1.90307e+61  -6.69343e+59   5.75395e+62   1.23281e+69             0             0   1.23281e+69   1.23281e+69             0             0             0             0            -0
   1.90307e+61  -6.69343e+59   5.75395e+62   1.23281e+69             0             0   1.23281e+69   1.23281e+69             0             0            -0             0            -0
   1.49107e+61  -6.61708e+59   5.75043e+62   1.23281e+69             0             0   1.23281e+69   1.23281e+69             0             0            -0             0             0
   1.49107e+61  -6.61708e+59   5.75043e+62   1.23281e+69             0             0   1.23281e+69   1.23281e+69             0             0             0             0             0
   1.49107e+61  -6.61708e+59   5.75043e+62  -1.23281e+69             0             0   1.23281e+69  -1.23281e+69             0             0             0             0            -0
   1.49107e+61  -6.61708e+59   5.75043e+62  -1.23281e+69             0             0   1.23281e+69  -1.23281e+69             0             0            -0             0            -0
   1.49107e+61  -6.61708e+59   5.75043e+62  -1.23281e+69             0             0   1.23281e+69  -1.23281e+69             0             0            -0             0             0
   1.49107e+61  -6.61708e+59   5.75043e+62  -1.23281e+69             0             0   1.23281e+69  -1.23281e+69             0             0             0             0             0
   1.49107e+61  -6.61708e+59   5.75043e+62   1.23281e+69             0             0   1.23281e+69   1.23281e+69             0             0             0             0            -0
   1.49107e+61  -6.61708e+59   5.75043e+62   1.23281e+69             0             0   1.23281e+69   1.23281e+69             0             0            -0             0            -0
   1.07906e+61  -6.54074e+59   5.74691e+62   1.23281e+69             0             0   1.23281e+69   1.23281e+69             0             0            -0             0             0
   1.07906e+61  -6.54074e+59   5.74691e+62   1.23281e+69             0             0   1.23281e+69   1.23281e+69             0             0             0             0             0
   1.07906e+61  -6.54074e+59   5.74691e+62  -1.23281e+69             0             0   1.23281e+69  -1.23281e+69             0             0             0             0            -0
   1.07906e+61  -6.54074e+59   5.74691e+62  -1.23281e+69             0             0   1.23281e+69  -1.23281e+69             0             0            -0             0            -0
   1.07906e+61  -6.54074e+59   5.74691e+62  -1.23281e+69             0             0   1.23281e+69  -1.23281e+69             0             0            -0             0             0
   1.07906e+61  -6.54074e+59   5.74691e+62  -1.23281e+69             0             0   1.23281e+69  -1.23281e+69             0             0             0             0             0
   1.07906e+61  -6.54074e+59   5.74691e+62   1.23281e+69             0             0   1.23281e+69   1.23281e+69             0             0             0             0            -0
   1.07906e+61  -6.54074e+59   5.74691e+62   1.23281e+69             0             0   1.23281e+69   1.23281e+69             0             0            -0             0            -0
   6.67051e+60  -6.46439e+59   5.74339e+62   1.23281e+69             0             0   1.23281e+69   1.23281e+69             0             0            -0             0             0
   6.67051e+60  -6.46439e+59   5.74339e+62   1.23281e+69             0             0   1.23281e+69   1.23281e+69             0             0             0             0             0
   6.67051e+60  -6.46439e+59   5.74339e+62  -1.23281e+69             0             0   1.23281e+69  -1.23281e+69             0             0             0             0            -0
   6.67051e+60  -6.46439e+59   5.74339e+62  -1.23281e+69             0             0   1.23281e+69  -1.23281e+69             0             0            -0             0            -0
   6.67051e+60  -6.46439e+59   5.74339e+62  -1.23281e+69             0             0   1.23281e+69  -1.23281e+69             0             0            -0             0             0
   6.67051e+60  -6.46439e+59   5.74339e+62  -1.23281e+69             0             0   1.23281e+69  -1.23281e+69             0             0             0             0             0
   6.67051e+60  -6.46439e+59   5.74339e+62   1.23281e+69             0             0   1.23281e+69   1.23281e+69             0             0             0             0            -0
   6.67051e+60  -6.46439e+59   5.74339e+62   1.23281e+69             0             0   1.23281e+69   1.23281e+69             0             0            -0             0            -0
   2.55044e+60  -6.38805e+59   5.73987e+62   1.23281e+69             0             0   1.23281e+69   1.23281e+69             0             0            -0             0             0
   2.55044e+60  -6.38805e+59   5.73987e+62   1.23281e+69             0             0   1.23281e+69   1.23281e+69             0             0             0             0             0
   2.55044e+60  -6.38805e+59   5.73987e+62  -1.23281e+69             0             0   1.23281e+69  -1.23281e+69             0             0             0             0            -0
   2.55044e+60  -6.38805e+59   5.73987e+62  -1.23281e+69             0             0   1.23281e+69  -1.23281e+69             0             0            -0             0            -0
   2.55044e+60  -6.38805e+59   5.73987e+62  -1.23281e+69             0             0   1.23281e+69  -1.23281e+69             0             0            -0             0             0
   2.55044e+60  -6.38805e+59   5.73987e+62  -1.23281e+69             0             0   1.23281e+69  -1.23281e+69             0             0             0             0             0
   2.55044e+60  -6.38805e+59   5.73987e+62   1.23281e+69             0             0   1.23281e+69   1.23281e+69             0             0             0             0            -0
   2.55044e+60  -6.38805e+59   5.73987e+62   1.23281e+69             0             0   1.23281e+69   1.23281e+69             0             0            -0             0            -0
  -1.56964e+60   -6.3117e+59   5.73635e+62   1.23281e+69             0             0   1.23281e+69   1.23281e+69             0             0            -0             0             0
  -1.56964e+60   -6.3117e+59   5.73635e+62   1.23281e+69             0             0   1.23281e+69   1.23281e+69             0             0             0             0             0
  -1.56964e+60   -6.3117e+59   5.73635e+62  -1.23281e+69             0             0   1.23281e+69  -1.23281e+69             0             0             0             0            -0
  -1.56964e+60   -6.3117e+59   5.73635e+62  -1.23281e+69             0             0   1.23281e+69  -1.23281e+69             0             0            -0             0            -0
  -1.56964e+60   -6.3117e+59   5.73635e+62  -6.58236e+66             0             0   6.58236e+66  -6.58236e+66             0             0            -0             0             0
  -1.56964e+60   -6.3117e+59   5.73635e+62  -6.58236e+66             0             0   6.58236e+66  -6.58236e+66             0             0             0             0             0
  -1.56964e+60   -6.3117e+59   5.73635e+62   6.58236e+66             0             0   6.58236e+66   6.58236e+66             0             0             0             0            -0
  -1.56964e+60   -6.3117e+59   5.73635e+62   6.58236e+66             0             0   6.58236e+66   6.58236e+66             0             0            -0             0            -0
  -2.22469e+60  -6.07987e+59   5.65838e+62   6.58236e+66             0             0   6.58236e+66   6.58236e+66             0             0            -0             0             0
  -2.22469e+60  -6.07987e+59   5.65838e+62   6.58236e+66             0             0   6.58236e+66   6.58236e+66             0             0             0             0             0
  -2.22469e+60  -6.07987e+59   5.65838e+62  -6.58236e+66             0             0   6.58236e+66  -6.58236e+66             0             0             0             0            -0
  -2.22469e+60  -6.07987e+59   5.65838e+62  -6.58236e+66             0             0   6.58236e+66  -6.58236e+66             0             0            -0             0            -0
  -2.22469e+60  -6.07987e+59   5.65838e+62  -6.58236e+66             0             0   6.58236e+66  -6.58236e+66             0             0            -0             0             0
  -2.22469e+60  -6.07987e+59   5.65838e+62  -6.58236e+66             0             0   6.58236e+66  -6.58236e+66             0             0             0             0             0
  -2.22469e+60  -6.07987e+59   5.65838e+62   6.58236e+66             0             0   6.58236e+66   6.58236e+66             0             0             0             0            -0
  -2.22469e+60  -6.07987e+59   5.65838e+62   6.58236e+66             0             0   6.58236e+66   6.58236e+66             0             0            -0             0            -0
  -2.87973e+60  -5.84803e+59   5.58042e+62   6.58236e+66             0             0   6.58236e+66   6.58236e+66             0             0            -0             0             0
  -2.87973e+60  -5.84803e+59   5.58042e+62   6.58236e+66             0             0   6.58236e+66   6.58236e+66             0             0             0             0             0
  -2.87973e+60  -5.84803e+59   5.58042e+62  -6.58236e+66             0             0   6.58236e+66  -6.58236e+66             0             0             0             0            -0
  -2.87973e+60  -5.84803e+59   5.58042e+62  -6.58236e+66             0             0   6.58236e+66  -6.58236e+66             0             0            -0             0            -0
  -2.87973e+60  -5.84803e+59   5.58042e+62  -6.58236e+66             0             0   6.58236e+66  -6.58236e+66             0             0            -0             0             0
  -2.87973e+60  -5.84803e+59   5.58042e+62  -6.58236e+66             0             0   6.58236e+66  -6.58236e+66             0             0             0             0             0
  -2.87973e+60  -5.84803e+59   5.58042e+62   6.58236e+66             0             0   6.58236e+66   6.58236e+66             0             0             0             0            -0
  -2.87973e+60  -5.84803e+59   5.58042e+62   6.58236e+66             0             0   6.58236e+66   6.58236e+66             0             0            -0             0            -0
  -3.53477e+60  -5.61619e+59   5.50245e+62   6.58236e+66             0             0   6.58236e+66   6.58236e+66             0             0            -0             0             0
  -3.53477e+60  -5.61619e+59   5.50245e+62   6.58236e+66             0             0   6.58236e+66   6.58236e+66             0             0             0             0             0
  -3.53477e+60  -5.61619e+59   5.50245e+62  -6.58236e+66             0             0   6.58236e+66  -6.58236e+66             0             0             0             0            -0
  -3.53477e+60  -5.61619e+59   5.50245e+62  -6.58236e+66             0             0   6.58236e+66  -6.58236e+66             0             0            -0             0            -0
  -3.53477e+60  -5.61619e+59   5.50245e+62  -6.58236e+66             0             0   6.58236e+66  -6.58236e+66             0             0            -0             0             0
  -3.53477e+60  -5.61619e+59   5.50245e+62  -6.58236e+66             0             0   6.58236e+66  -6.58236e+66             0             0             0             0             0
  -3.53477e+60  -5.61619e+59   5.50245e+62   6.58236e+66             0             0   6.58236e+66   6.58236e+66             0             0             0             0            -0
  -3.53477e+60  -5.61619e+59   5.50245e+62   6.58236e+66             0             0   6.58236e+66   6.58236e+66             0             0            -0             0            -0
  -4.18981e+60  -5.38435e+59   5.42448e+62   6.58236e+66             0             0   6.58236e+66   6.58236e+66             0             0            -0             0             0
  -4.18981e+60  -5.38435e+59   5.42448e+62   6.58236e+66             0             0   6.58236e+66   6.58236e+66             0             0             0             0             0
  -4.18981e+60  -5.38435e+59   5.42448e+62  -6.58236e+66             0             0   6.58236e+66  -6.58236e+66             0             0             0             0            -0
  -4.18981e+60  -5.38435e+59   5.42448e+62  -6.58236e+66             0             0   6.58236e+66  -6.58236e+66             0             0            -0             0            -0
  -4.18981e+60  -5.38435e+59   5.42448e+62  -6.58236e+66             0             0   6.58236e+66  -6.58236e+66             0             0            -0             0             0
  -4.18981e+60  -5.38435e+59   5.42448e+62  -6.58236e+66             0             0   6.58236e+66  -6.58236e+66             0             0             0             0             0
  -4.18981e+60  -5.38435e+59   5.42448e+62   6.58236e+66             0             0   6.58236e+66   6.58236e+66             0             0             0             0            -0
  -4.18981e+60  -5.38435e+59   5.42448e+62   6.58236e+66             0             0   6.58236e+66   6.58236e+66             0             0            -0             0            -0
  -4.84486e+60  -5.15251e+59   5.34652e+62   6.58236e+66             0             0   6.58236e+66   6.58236e+66             0             0            -0             0             0
  -4.84486e+60  -5.15251e+59   5.34652e+62   6.58236e+66             0             0   6.58236e+66   6.58236e+66             0             0             0             0             0
  -4.84486e+60  -5.15251e+59   5.34652e+62  -6.58236e+66             0             0   6.58236e+66  -6.58236e+66             0             0             0             0            -0
  -4.84486e+60  -5.15251e+59   5.34652e+62  -6.58236e+66             0             0   6.58236e+66  -6.58236e+66             0             0            -0             0            -0
  -4.84486e+60  -5.15251e+59   5.34652e+62  -6.58236e+66             0             0   6.58236e+66  -6.58236e+66             0             0            -0             0             0
  -4.84486e+60  -5.15251e+59   5.34652e+62  -6.58236e+66             0             0   6.58236e+66  -6.58236e+66             0             0             0             0             0
  -4.84486e+60  -5.15251e+59   5.34652e+62   6.58236e+66             0             0   6.58236e+66   6.58236e+66             0             0             0             0            -0
  -4.84486e+60  -5.15251e+59   5.34652e+62   6.58236e+66             0             0   6.58236e+66   6.58236e+66             0             0            -0             0            -0
   -5.4999e+60  -4.92067e+59   5.26855e+62   6.58236e+66             0             0   6.58236e+66   6.58236e+66             0             0            -0             0             0
   -5.4999e+60  -4.92067e+59   5.26855e+62   6.58236e+66             0             0   6.58236e+66   6.58236e+66             0             0             0             0             0
   -5.4999e+60  -4.92067e+59   5.26855e+62  -6.58236e+66             0             0   6.58236e+66  -6.58236e+66             0             0             0             0            -0
   -5.4999e+60  -4.92067e+59   5.26855e+62  -6.58236e+66             0             0   6.58236e+66  -6.58236e+66             0             0            -0             0            -0
   -5.4999e+60  -4.92067e+59   5.26855e+62  -6.58237e+66             0             0   6.58237e+66  -6.58237e+66             0             0            -0             0             0
   -5.4999e+60  -4.92067e+59   5.26855e+62  -6.58237e+66             0             0   6.58237e+66  -6.58237e+66             0             0             0             0             0
   -5.4999e+60  -4.92067e+59   5.26855e+62   6.58237e+66             0             0   6.58237e+66   6.58237e+66             0             0             0             0            -0
   -5.4999e+60  -4.92067e+59   5.26855e+62   6.58237e+66             0             0   6.58237e+66   6.58237e+66             0             0            -0             0            -0
  -6.15494e+60  -4.68883e+59   5.19059e+62   6.58237e+66             0             0   6.58237e+66   6.58237e+66             0             0            -0             0             0
  -6.15494e+60  -4.68883e+59   5.19059e+62   6.58237e+66             0             0   6.58237e+66   6.58237e+66             0             0             0             0             0
  -6.15494e+60  -4.68883e+59   5.19059e+62  -6.58237e+66             0             0   6.58237e+66  -6.58237e+66             0             0             0             0            -0
  -6.15494e+60  -4.68883e+59   5.19059e+62  -6.58237e+66             0             0   6.58237e+66  -6.58237e+66             0             0            -0             0            -0
  -6.15494e+60  -4.68883e+59   5.19059e+62  -6.58234e+66             0             0   6.58234e+66  -6.58234e+66             0             0            -0             0             0
  -6.15494e+60  -4.68883e+59   5.19059e+62  -6.58234e+66             0             0   6.58234e+66  -6.58234e+66             0             0             0             0             0
  -6.15494e+60  -4.68883e+59   5.19059e+62   6.58234e+66             0             0   6.58234e+66   6.58234e+66             0             0             0             0            -0
  -6.15494e+60  -4.68883e+59   5.19059e+62   6.58234e+66             0             0   6.58234e+66   6.58234e+66             0             0            -0             0            -0
  -6.80999e+60    -4.457e+59   5.11262e+62   6.58234e+66             0             0   6.58234e+66   6.58234e+66             0             0            -0             0             0
  -6.80999e+60    -4.457e+59   5.11262e+62   6.58234e+66             0             0   6.58234e+66   6.58234e+66             0             0             0             0             0
  -6.80999e+60    -4.457e+59   5.11262e+62  -6.58234e+66             0             0   6.58234e+66  -6.58234e+66             0             0             0             0            -0
  -6.80999e+60    -4.457e+59   5.11262e+62  -6.58234e+66             0             0   6.58234e+66  -6.58234e+66             0             0            -0             0            -0
  -6.80999e+60    -4.457e+59   5.11262e+62  -6.58237e+66             0             0   6.58237e+66  -6.58237e+66             0             0            -0             0             0
  -6.80999e+60    -4.457e+59   5.11262e+62  -6.58237e+66             0             0   6.58237e+66  -6.58237e+66             0             0             0             0             0
  -6.80999e+60    -4.457e+59   5.11262e+62   6.58237e+66             0             0   6.58237e+66   6.58237e+66             0             0             0             0            -0
  -6.80999e+60    -4.457e+59   5.11262e+62   6.58237e+66             0             0   6.58237e+66   6.58237e+66             0             0            -0             0            -0
  -7.46503e+60  -4.22516e+59   5.03465e+62   6.58237e+66             0             0   6.58237e+66   6.58237e+66             0             0            -0             0             0
  -7.46503e+60  -4.22516e+59   5.03465e+62   6.58237e+66             0             0   6.58237e+66   6.58237e+66             0             0             0             0             0
  -7.46503e+60  -4.22516e+59   5.03465e+62  -6.58237e+66             0             0   6.58237e+66  -6.58237e+66             0             0             0             0            -0
  -7.46503e+60  -4.22516e+59   5.03465e+62  -6.58237e+66             0             0   6.58237e+66  -6.58237e+66             0             0            -0             0            -0
  -7.46503e+60  -4.22516e+59   5.03465e+62  -6.58234e+66             0             0   6.58234e+66  -6.58234e+66             0             0            -0             0             0
  -7.46503e+60  -4.22516e+59   5.03465e+62  -6.58234e+66             0             0   6.58234e+66  -6.58234e+66             0             0             0             0             0
  -7.46503e+60  -4.22516e+59   5.03465e+62   6.58234e+66             0             0   6.58234e+66   6.58234e+66             0             0             0             0            -0
  -7.46503e+60  -4.22516e+59   5.03465e+62   6.58234e+66             0             0   6.58234e+66   6.58234e+66             0             0            -0             0            -0
  -8.12007e+60  -3.99332e+59   4.95669e+62   6.58234e+66             0             0   6.58234e+66   6.58234e+66             0             0            -0             0             0
  -8.12007e+60  -3.99332e+59   4.95669e+62   6.58234e+66             0             0   6.58234e+66   6.58234e+66             0             0             0             0             0
  -8.12007e+60  -3.99332e+59   4.95669e+62  -6.58234e+66             0             0   6.58234e+66  -6.58234e+66             0             0             0             0            -0
  -8.12007e+60  -3.99332e+59   4.95669e+62  -6.58234e+66             0             0   6.58234e+66  -6.58234e+66             0             0            -0             0            -0
  -8.12007e+60  -3.99332e+59   4.95669e+62  -6.58237e+66             0             0   6.58237e+66  -6.58237e+66             0             0            -0             0             0
  -8.12007e+60  -3.99332e+59   4.95669e+62  -6.58237e+66             0             0   6.58237e+66  -6.58237e+66             0             0             0             0             0
  -8.12007e+60  -3.99332e+59   4.95669e+62   6.58237e+66             0             0   6.58237e+66   6.58237e+66             0             0             0             0            -0
  -8.12007e+60  -3.99332e+59   4.95669e+62   6.58237e+66             0             0   6.58237e+66   6.58237e+66             0             0            -0             0            -0
  -8.77512e+60  -3.76148e+59   4.87872e+62   6.58237e+66             0             0   6.58237e+66   6.58237e+66             0             0            -0             0             0
  -8.77512e+60  -3.76148e+59   4.87872e+62   6.58237e+66             0             0   6.58237e+66   6.58237e+66             0             0             0             0             0
  -8.77512e+60  -3.76148e+59   4.87872e+62  -6.58237e+66             0             0   6.58237e+66  -6.58237e+66             0             0             0             0            -0
  -8.77512e+60  -3.76148e+59   4.87872e+62  -6.58237e+66             0             0   6.58237e+66  -6.58237e+66             0             0            -0             0            -0
  -8.77512e+60  -3.76148e+59   4.87872e+62  -6.58234e+66             0             0   6.58234e+66  -6.58234e+66             0             0            -0             0             0
  -8.77512e+60  -3.76148e+59   4.87872e+62  -6.58234e+66             0             0   6.58234e+66  -6.58234e+66             0             0             0             0             0
  -8.77512e+60  -3.76148e+59   4.87872e+62   6.58234e+66             0             0   6.58234e+66   6.58234e+66             0             0             0             0            -0
  -8.77512e+60  -3.76148e+59   4.87872e+62   6.58234e+66             0             0   6.58234e+66   6.58234e+66             0             0            -0             0            -0
  -9.43016e+60  -3.52964e+59   4.80075e+62   6.58234e+66             0             0   6.58234e+66   6.58234e+66             0             0            -0             0             0
  -9.43016e+60  -3.52964e+59   4.80075e+62   6.58234e+66             0             0   6.58234e+66   6.58234e+66             0             0             0             0             0
  -9.43016e+60  -3.52964e+59   4.80075e+62  -6.58234e+66             0             0   6.58234e+66  -6.58234e+66             0             0             0             0            -0
  -9.43016e+60  -3.52964e+59   4.80075e+62  -6.58234e+66             0             0   6.58234e+66  -6.58234e+66             0             0            -0             0            -0
  -9.43016e+60  -3.52964e+59   4.80075e+62  -6.58237e+66             0             0   6.58237e+66  -6.58237e+66             0             0            -0             0             0
  -9.43016e+60  -3.52964e+59   4.80075e+62  -6.58237e+66             0             0   6.58237e+66  -6.58237e+66             0             0             0             0             0
  -9.43016e+60  -3.52964e+59   4.80075e+62   6.58237e+66             0             0   6.58237e+66   6.58237e+66             0             0             0             0            -0
  -9.43016e+60  -3.52964e+59   4.80075e+62   6.58237e+66             0             0   6.58237e+66   6.58237e+66             0             0            -0             0            -0
  -1.00852e+61   -3.2978e+59   4.72279e+62   6.58237e+66             0             0   6.58237e+66   6.58237e+66             0             0            -0             0             0
  -1.00852e+61   -3.2978e+59   4.72279e+62   6.58237e+66             0             0   6.58237e+66   6.58237e+66             0             0             0             0             0
  -1.00852e+61   -3.2978e+59   4.72279e+62  -6.58237e+66             0             0   6.58237e+66  -6.58237e+66             0             0             0             0            -0
  -1.00852e+61   -3.2978e+59   4.72279e+62  -6.58237e+66             0             0   6.58237e+66  -6.58237e+66             0             0            -0             0            -0
   1.57221e+60  -8.25481e+59   6.24527e+62  -5.46773e+68             0             0   5.46773e+68  -5.46773e+68             0             0            -0             0             0
   1.57221e+60  -8.25481e+59   6.24527e+62  -5.46773e+68             0             0   5.46773e+68  -5.46773e+68             0             0             0             0             0
   1.57221e+60  -8.25481e+59   6.24527e+62   5.46773e+68             0             0   5.46773e+68   5.46773e+68             0             0             0             0            -0
   1.57221e+60  -8.25481e+59   6.24527e+62   5.46773e+68             0             0   5.46773e+68   5.46773e+68             0             0            -0             0            -0
   3.41316e+60  -8.35719e+59   6.25134e+62   5.46773e+68             0             0   5.46773e+68   5.46773e+68             0             0            -0             0             0
   3.41316e+60  -8.35719e+59   6.25134e+62   5.46773e+68             0             0   5.46773e+68   5.46773e+68             0             0             0             0             0
   3.41316e+60  -8.35719e+59   6.25134e+62  -5.46773e+68             0             0   5.46773e+68  -5.46773e+68             0             0             0             0            -0
   3.41316e+60  -8.35719e+59   6.25134e+62  -5.46773e+68             0             0   5.46773e+68  -5.46773e+68             0             0            -0             0            -0
   3.41316e+60  -8.35719e+59   6.25134e+62  -5.46773e+68             0             0   5.46773e+68  -5.46773e+68             0             0            -0             0             0
   3.41316e+60  -8.35719e+59   6.25134e+62  -5.46773e+68             0             0   5.46773e+68  -5.46773e+68             0             0             0             0             0
   3.41316e+60  -8.35719e+59   6.25134e+62   5.46773e+68             0             0   5.46773e+68   5.46773e+68             0             0             0             0            -0
   3.41316e+60  -8.35719e+59   6.25134e+62   5.46773e+68             0             0   5.46773e+68   5.46773e+68             0             0            -0             0            -0
   5.25412e+60  -8.45956e+59   6.25741e+62   5.46773e+68             0             0   5.46773e+68   5.46773e+68             0             0            -0             0             0
   5.25412e+60  -8.45956e+59   6.25741e+62   5.46773e+68             0             0   5.46773e+68   5.46773e+68             0             0             0             0             0
   5.25412e+60  -8.45956e+59   6.25741e+62  -5.46773e+68             0             0   5.46773e+68  -5.46773e+68             0             0             0             0            -0
   5.25412e+60  -8.45956e+59   6.25741e+62  -5.46773e+68             0             0   5.46773e+68  -5.46773e+68             0             0            -0             0            -0
   5.25412e+60  -8.45956e+59   6.25741e+62  -5.46773e+68             0             0   5.46773e+68  -5.46773e+68             0             0            -0             0             0
   5.25412e+60  -8.45956e+59   6.25741e+62  -5.46773e+68             0             0   5.46773e+68  -5.46773e+68             0             0             0             0             0
   5.25412e+60  -8.45956e+59   6.25741e+62   5.46773e+68             0             0   5.46773e+68   5.46773e+68             0             0             0             0            -0
   5.25412e+60  -8.45956e+59   6.25741e+62   5.46773e+68             0             0   5.46773e+68   5.46773e+68             0             0            -0             0            -0
   7.09507e+60  -8.56194e+59   6.26348e+62   5.46773e+68             0             0   5.46773e+68   5.46773e+68             0             0            -0             0             0
   7.09507e+60  -8.56194e+59   6.26348e+62   5.46773e+68             0             0   5.46773e+68   5.46773e+68             0             0             0             0             0
   7.09507e+60  -8.56194e+59   6.26348e+62  -5.46773e+68             0             0   5.46773e+68  -5.46773e+68             0             0             0             0            -0
   7.09507e+60  -8.56194e+59   6.26348e+62  -5.46773e+68             0             0   5.46773e+68  -5.46773e+68             0             0            -0             0            -0
   7.09507e+60  -8.56194e+59   6.26348e+62  -5.46773e+68             0             0   5.46773e+68  -5.46773e+68             0             0            -0             0             0
   7.09507e+60  -8.56194e+59   6.26348e+62  -5.46773e+68             0             0   5.46773e+68  -5.46773e+68             0             0             0             0             0
   7.09507e+60  -8.56194e+59   6.26348e+62   5.46773e+68             0             0   5.46773e+68   5.46773e+68             0             0             0             0            -0
   7.09507e+60  -8.56194e+59   6.26348e+62   5.46773e+68             0             0   5.46773e+68   5.46773e+68             0             0            -0             0            -0
   8.93602e+60  -8.66432e+59   6.26955e+62   5.46773e+68             0             0   5.46773e+68   5.46773e+68             0             0            -0             0             0
   8.93602e+60  -8.66432e+59   6.26955e+62   5.46773e+68             0             0   5.46773e+68   5.46773e+68             0             0             0             0             0
   8.93602e+60  -8.66432e+59   6.26955e+62  -5.46773e+68             0             0   5.46773e+68  -5.46773e+68             0             0             0             0            -0
   8.93602e+60  -8.66432e+59   6.26955e+62  -5.46773e+68             0             0   5.46773e+68  -5.46773e+68             0             0            -0             0            -0
   8.93602e+60  -8.66432e+59   6.26955e+62  -5.46773e+68             0             0   5.46773e+68  -5.46773e+68             0             0            -0             0             0
   8.93602e+60  -8.66432e+59   6.26955e+62  -5.46773e+68             0             0   5.46773e+68  -5.46773e+68             0             0             0             0             0
   8.93602e+60  -8.66432e+59   6.26955e+62   5.46773e+68             0             0   5.46773e+68   5.46773e+68             0             0             0             0            -0
   8.93602e+60  -8.66432e+59   6.26955e+62   5.46773e+68             0             0   5.46773e+68   5.46773e+68             0             0            -0             0            -0
    1.0777e+61  -8.76669e+59   6.27562e+62   5.46773e+68             0             0   5.46773e+68   5.46773e+68             0             0            -0             0             0
    1.0777e+61  -8.76669e+59   6.27562e+62   5.46773e+68             0             0   5.46773e+68   5.46773e+68             0             0             0             0             0
    1.0777e+61  -8.76669e+59   6.27562e+62  -5.46773e+68             0             0   5.46773e+68  -5.46773e+68             0             0             0             0            -0
    1.0777e+61  -8.76669e+59   6.27562e+62  -5.46773e+68             0             0   5.46773e+68  -5.46773e+68             0             0            -0             0            -0
    1.0777e+61  -8.76669e+59   6.27562e+62  -5.46773e+68             0             0   5.46773e+68  -5.46773e+68             0             0            -0             0             0
    1.0777e+61  -8.76669e+59   6.27562e+62  -5.46773e+68             0             0   5.46773e+68  -5.46773e+68             0             0             0             0             0
    1.0777e+61  -8.76669e+59   6.27562e+62   5.46773e+68             0             0   5.46773e+68   5.46773e+68             0             0             0             0            -0
    1.0777e+61  -8.76669e+59   6.27562e+62   5.46773e+68             0             0   5.46773e+68   5.46773e+68             0             0            -0             0            -0
   1.26179e+61  -8.86907e+59   6.28169e+62   5.46773e+68             0             0   5.46773e+68   5.46773e+68             0             0            -0             0             0
   1.26179e+61  -8.86907e+59   6.28169e+62   5.46773e+68             0             0   5.46773e+68   5.46773e+68             0             0             0             0             0
   1.26179e+61  -8.86907e+59   6.28169e+62  -5.46773e+68             0             0   5.46773e+68  -5.46773e+68             0             0             0             0            -0
   1.26179e+61  -8.86907e+59   6.28169e+62  -5.46773e+68             0             0   5.46773e+68  -5.46773e+68             0             0            -0             0            -0
   1.26179e+61  -8.86907e+59   6.28169e+62  -5.46773e+68             0             0   5.46773e+68  -5.46773e+68             0             0            -0             0             0
   1.26179e+61  -8.86907e+59   6.28169e+62  -5.46773e+68             0             0   5.46773e+68  -5.46773e+68             0             0             0             0             0
   1.26179e+61  -8.86907e+59   6.28169e+62   5.46773e+68             0             0   5.46773e+68   5.46773e+68             0             0             0             0            -0
   1.26179e+61  -8.86907e+59   6.28169e+62   5.46773e+68             0             0   5.46773e+68   5.46773e+68             0             0            -0             0            -0
   1.44589e+61  -8.97144e+59   6.28776e+62   5.46773e+68             0             0   5.46773e+68   5.46773e+68             0             0            -0             0             0
   1.44589e+61  -8.97144e+59   6.28776e+62   5.46773e+68             0             0   5.46773e+68   5.46773e+68             0             0             0             0             0
   1.44589e+61  -8.97144e+59   6.28776e+62  -5.46773e+68             0             0   5.46773e+68  -5.46773e+68             0             0             0             0            -0
   1.44589e+61  -8.97144e+59   6.28776e+62  -5.46773e+68             0             0   5.46773e+68  -5.46773e+68             0             0            -0             0            -0
   1.44589e+61  -8.97144e+59   6.28776e+62  -5.46773e+68             0             0   5.46773e+68  -5.46773e+68             0             0            -0             0             0
   1.44589e+61  -8.97144e+59   6.28776e+62  -5.46773e+68             0             0   5.46773e+68  -5.46773e+68             0             0             0             0             0
   1.44589e+61  -8.97144e+59   6.28776e+62   5.46773e+68             0             0   5.46773e+68   5.46773e+68             0             0             0             0            -0
   1.44589e+61  -8.97144e+59   6.28776e+62   5.46773e+68             0             0   5.46773e+68   5.46773e+68             0             0            -0             0            -0
   1.62998e+61  -9.07382e+59   6.29383e+62   5.46773e+68             0             0   5.46773e+68   5.46773e+68             0             0            -0             0             0
   1.62998e+61  -9.07382e+59   6.29383e+62   5.46773e+68             0             0   5.46773e+68   5.46773e+68             0             0             0             0             0
   1.62998e+61  -9.07382e+59   6.29383e+62  -5.46773e+68             0             0   5.46773e+68  -5.46773e+68             0             0             0             0            -0
   1.62998e+61  -9.07382e+59   6.29383e+62  -5.46773e+68             0             0   5.46773e+68  -5.46773e+68             0             0            -0             0            -0
    3.1391e+61  -6.92246e+59   5.76451e+62  -4.02122e+68             0             0   4.02122e+68  -4.02122e+68             0             0            -0             0             0
    3.1391e+61  -6.92246e+59   5.76451e+62  -4.02122e+68             0             0   4.02122e+68  -4.02122e+68             0             0             0             0             0
    3.1391e+61  -6.92246e+59   5.76451e+62   4.02122e+68             0             0   4.02122e+68   4.02122e+68             0             0             0             0            -0
    3.1391e+61  -6.92246e+59   5.76451e+62   4.02122e+68             0             0   4.02122e+68   4.02122e+68             0             0            -0             0            -0
   2.86259e+61  -6.68081e+59   5.69506e+62   4.02122e+68             0             0   4.02122e+68   4.02122e+68             0             0            -0             0             0
   2.86259e+61  -6.68081e+59   5.69506e+62   4.02122e+68             0             0   4.02122e+68   4.02122e+68             0             0             0             0             0
   2.86259e+61  -6.68081e+59   5.69506e+62  -4.02122e+68             0             0   4.02122e+68  -4.02122e+68             0             0             0             0            -0
   2.86259e+61  -6.68081e+59   5.69506e+62  -4.02122e+68             0             0   4.02122e+68  -4.02122e+68             0             0            -0             0            -0
   2.86259e+61  -6.68081e+59   5.69506e+62  -4.02121e+68             0             0   4.02121e+68  -4.02121e+68             0             0            -0             0             0
   2.86259e+61  -6.68081e+59   5.69506e+62  -4.02121e+68             0             0   4.02121e+68  -4.02121e+68             0             0             0             0             0
   2.86259e+61  -6.68081e+59   5.69506e+62   4.02121e+68             0             0   4.02121e+68   4.02121e+68             0             0             0             0            -0
   2.86259e+61  -6.68081e+59   5.69506e+62   4.02121e+68             0             0   4.02121e+68   4.02121e+68             0             0            -0             0            -0
   2.58608e+61  -6.43917e+59   5.62561e+62   4.02121e+68             0             0   4.02121e+68   4.02121e+68             0             0            -0             0             0
   2.58608e+61  -6.43917e+59   5.62561e+62   4.02121e+68             0             0   4.02121e+68   4.02121e+68             0             0             0             0             0
   2.58608e+61  -6.43917e+59   5.62561e+62  -4.02121e+68             0             0   4.02121e+68  -4.02121e+68             0             0             0             0            -0
   2.58608e+61  -6.43917e+59   5.62561e+62  -4.02121e+68             0             0   4.02121e+68  -4.02121e+68             0             0            -0             0            -0
   2.58608e+61  -6.43917e+59   5.62561e+62  -4.02122e+68             0             0   4.02122e+68  -4.02122e+68             0             0            -0             0             0
   2.58608e+61  -6.43917e+59   5.62561e+62  -4.02122e+68             0             0   4.02122e+68  -4.02122e+68             0             0             0             0             0
   2.58608e+61  -6.43917e+59   5.62561e+62   4.02122e+68             0             0   4.02122e+68   4.02122e+68             0             0             0             0            -0
   2.58608e+61  -6.43917e+59   5.62561e+62   4.02122e+68             0             0   4.02122e+68   4.02122e+68             0             0            -0             0            -0
   2.30957e+61  -6.19753e+59   5.55616e+62   4.02122e+68             0             0   4.02122e+68   4.02122e+68             0             0            -0             0             0
   2.30957e+61  -6.19753e+59   5.55616e+62   4.02122e+68             0             0   4.02122e+68   4.02122e+68             0             0             0             0             0
   2.30957e+61  -6.19753e+59   5.55616e+62  -4.02122e+68             0             0   4.02122e+68  -4.02122e+68             0             0             0             0            -0
   2.30957e+61  -6.19753e+59   5.55616e+62  -4.02122e+68             0             0   4.02122e+68  -4.02122e+68             0             0            -0             0            -0
   2.30957e+61  -6.19753e+59   5.55616e+62  -4.02122e+68             0             0   4.02122e+68  -4.02122e+68             0             0            -0             0             0
   2.30957e+61  -6.19753e+59   5.55616e+62  -4.02122e+68             0             0   4.02122e+68  -4.02122e+68             0             0             0             0             0
   2.30957e+61  -6.19753e+59   5.55616e+62   4.02122e+68             0             0   4.02122e+68   4.02122e+68             0             0             0             0            -0
   2.30957e+61  -6.19753e+59   5.55616e+62   4.02122e+68             0             0   4.02122e+68   4.02122e+68             0             0            -0             0            -0
   2.03307e+61  -5.95588e+59   5.48671e+62   4.02122e+68             0             0   4.02122e+68   4.02122e+68             0             0            -0             0             0
   2.03307e+61  -5.95588e+59   5.48671e+62   4.02122e+68             0             0   4.02122e+68   4.02122e+68             0             0             0             0             0
   2.03307e+61  -5.95588e+59   5.48671e+62  -4.02122e+68             0             0   4.02122e+68  -4.02122e+68             0             0             0             0            -0
   2.03307e+61  -5.95588e+59   5.48671e+62  -4.02122e+68             0             0   4.02122e+68  -4.02122e+68             0             0            -0             0            -0
   2.03307e+61  -5.95588e+59   5.48671e+62  -4.02121e+68             0             0   4.02121e+68  -4.02121e+68             0             0            -0             0             0
   2.03307e+61  -5.95588e+59   5.48671e+62  -4.02121e+68             0             0   4.02121e+68  -4.02121e+68             0             0             0             0             0
   2.03307e+61  -5.95588e+59   5.48671e+62   4.02121e+68             0             0   4.02121e+68   4.02121e+68             0             0             0             0            -0
   2.03307e+61  -5.95588e+59   5.48671e+62   4.02121e+68             0             0   4.02121e+68   4.02121e+68             0             0            -0             0            -0
   1.75656e+61  -5.71424e+59   5.41727e+62   4.02121e+68             0             0   4.02121e+68   4.02121e+68             0             0            -0             0             0
   1.75656e+61  -5.71424e+59   5.41727e+62   4.02121e+68             0             0   4.02121e+68   4.02121e+68             0             0             0             0             0
   1.75656e+61  -5.71424e+59   5.41727e+62  -4.02121e+68             0             0   4.02121e+68  -4.02121e+68             0             0             0             0            -0
   1.75656e+61  -5.71424e+59   5.41727e+62  -4.02121e+68             0             0   4.02121e+68  -4.02121e+68             0             0            -0             0            -0
   1.75656e+61  -5.71424e+59   5.41727e+62  -4.02122e+68             0             0   4.02122e+68  -4.02122e+68             0             0            -0             0             0
   1.75656e+61  -5.71424e+59   5.41727e+62  -4.02122e+68             0             0   4.02122e+68  -4.02122e+68             0             0             0             0             0
   1.75656e+61  -5.71424e+59   5.41727e+62   4.02122e+68             0             0   4.02122e+68   4.02122e+68             0             0             0             0            -0
   1.75656e+61  -5.71424e+59   5.41727e+62   4.02122e+68             0             0   4.02122e+68   4.02122e+68             0             0            -0             0            -0
   1.48005e+61   -5.4726e+59   5.34782e+62   4.02122e+68             0             0   4.02122e+68   4.02122e+68             0             0            -0             0             0
   1.48005e+61   -5.4726e+59   5.34782e+62   4.02122e+68             0             0   4.02122e+68   4.02122e+68             0             0             0             0             0
   1.48005e+61   -5.4726e+59   5.34782e+62  -4.02122e+68             0             0   4.02122e+68  -4.02122e+68             0             0             0             0            -0
   1.48005e+61   -5.4726e+59   5.34782e+62  -4.02122e+68             0             0   4.02122e+68  -4.02122e+68             0             0            -0             0            -0
   1.48005e+61   -5.4726e+59   5.34782e+62  -4.02122e+68             0             0   4.02122e+68  -4.02122e+68             0             0            -0             0             0
   1.48005e+61   -5.4726e+59   5.34782e+62  -4.02122e+68             0             0   4.02122e+68  -4.02122e+68             0             0             0             0             0
   1.48005e+61   -5.4726e+59   5.34782e+62   4.02122e+68             0             0   4.02122e+68   4.02122e+68             0             0             0             0            -0
   1.48005e+61   -5.4726e+59   5.34782e+62   4.02122e+68             0             0   4.02122e+68   4.02122e+68             0             0            -0             0            -0
   1.20354e+61  -5.23095e+59   5.27837e+62   4.02122e+68             0             0   4.02122e+68   4.02122e+68             0             0            -0             0             0
   1.20354e+61  -5.23095e+59   5.27837e+62   4.02122e+68             0             0   4.02122e+68   4.02122e+68             0             0             0             0             0
   1.20354e+61  -5.23095e+59   5.27837e+62  -4.02122e+68             0             0   4.02122e+68  -4.02122e+68             0             0             0             0            -0
   1.20354e+61  -5.23095e+59   5.27837e+62  -4.02122e+68             0             0   4.02122e+68  -4.02122e+68             0             0            -0             0            -0
   1.20354e+61  -5.23095e+59   5.27837e+62  -4.02121e+68             0             0   4.02121e+68  -4.02121e+68             0             0            -0             0             0
   1.20354e+61  -5.23095e+59   5.27837e+62  -4.02121e+68             0             0   4.02121e+68  -4.02121e+68             0             0             0             0             0
   1.20354e+61  -5.23095e+59   5.27837e+62   4.02121e+68             0             0   4.02121e+68   4.02121e+68             0             0             0             0            -0
   1.20354e+61  -5.23095e+59   5.27837e+62   4.02121e+68             0             0   4.02121e+68   4.02121e+68             0             0            -0             0            -0
   9.27036e+60  -4.98931e+59   5.20892e+62   4.02121e+68             0             0   4.02121e+68   4.02121e+68             0             0            -0             0             0
   9.27036e+60  -4.98931e+59   5.20892e+62   4.02121e+68             0             0   4.02121e+68   4.02121e+68             0             0             0             0             0
   9.27036e+60  -4.98931e+59   5.20892e+62  -4.02121e+68             0             0   4.02121e+68  -4.02121e+68             0             0             0             0            -0
   9.27036e+60  -4.98931e+59   5.20892e+62  -4.02121e+68             0             0   4.02121e+68  -4.02121e+68             0             0            -0             0            -0
   9.27036e+60  -4.98931e+59   5.20892e+62  -4.02122e+68             0             0   4.02122e+68  -4.02122e+68             0             0            -0             0             0
   9.27036e+60  -4.98931e+59   5.20892e+62  -4.02122e+68             0             0   4.02122e+68  -4.02122e+68             0             0             0             0             0
   9.27036e+60  -4.98931e+59   5.20892e+62   4.02122e+68             0             0   4.02122e+68   4.02122e+68             0             0             0             0            -0
   9.27036e+60  -4.98931e+59   5.20892e+62   4.02122e+68             0             0   4.02122e+68   4.02122e+68             0             0            -0             0            -0
   6.50527e+60  -4.74767e+59   5.13948e+62   4.02122e+68             0             0   4.02122e+68   4.02122e+68             0             0            -0             0             0
   6.50527e+60  -4.74767e+59   5.13948e+62   4.02122e+68             0             0   4.02122e+68   4.02122e+68             0             0             0             0             0
   6.50527e+60  -4.74767e+59   5.13948e+62  -4.02122e+68             0             0   4.02122e+68  -4.02122e+68             0             0             0             0            -0
   6.50527e+60  -4.74767e+59   5.13948e+62  -4.02122e+68             0             0   4.02122e+68  -4.02122e+68             0             0            -0             0            -0
   6.50527e+60  -4.74767e+59   5.13948e+62  -4.02121e+68             0             0   4.02121e+68  -4.02121e+68             0             0            -0             0             0
   6.50527e+60  -4.74767e+59   5.13948e+62  -4.02121e+68             0             0   4.02121e+68  -4.02121e+68             0             0             0             0             0
   6.50527e+60  -4.74767e+59   5.13948e+62   4.02121e+68             0             0   4.02121e+68   4.02121e+68             0             0             0             0            -0
   6.50527e+60  -4.74767e+59   5.13948e+62   4.02121e+68             0             0   4.02121e+68   4.02121e+68             0             0            -0             0            -0
    3.7402e+60  -4.50602e+59   5.07003e+62   4.02121e+68             0             0   4.02121e+68   4.02121e+68             0             0            -0             0             0
    3.7402e+60  -4.50602e+59   5.07003e+62   4.02121e+68             0             0   4.02121e+68   4.02121e+68             0             0             0             0             0
    3.7402e+60  -4.50602e+59   5.07003e+62  -4.02121e+68             0             0   4.02121e+68  -4.02121e+68             0             0             0             0            -0
    3.7402e+60  -4.50602e+59   5.07003e+62  -4.02121e+68             0             0   4.02121e+68  -4.02121e+68             0             0            -0             0            -0
    3.7402e+60  -4.50602e+59   5.07003e+62  -4.02122e+68             0             0   4.02122e+68  -4.02122e+68             0             0            -0             0             0
    3.7402e+60  -4.50602e+59   5.07003e+62  -4.02122e+68             0             0   4.02122e+68  -4.02122e+68             0             0             0             0             0
    3.7402e+60  -4.50602e+59   5.07003e+62   4.02122e+68             0             0   4.02122e+68   4.02122e+68             0             0             0             0            -0
    3.7402e+60  -4.50602e+59   5.07003e+62   4.02122e+68             0             0   4.02122e+68   4.02122e+68             0             0            -0             0            -0
   9.75101e+59  -4.26438e+59   5.00058e+62   4.02122e+68             0             0   4.02122e+68   4.02122e+68             0             0            -0             0             0
   9.75101e+59  -4.26438e+59   5.00058e+62   4.02122e+68             0             0   4.02122e+68   4.02122e+68             0             0             0             0             0
   9.75101e+59  -4.26438e+59   5.00058e+62  -4.02122e+68             0             0   4.02122e+68  -4.02122e+68             0             0             0             0            -0
   9.75101e+59  -4.26438e+59   5.00058e+62  -4.02122e+68             0             0   4.02122e+68  -4.02122e+68             0             0            -0             0            -0
   9.75101e+59  -4.26438e+59   5.00058e+62  -4.02121e+68             0             0   4.02121e+68  -4.02121e+68             0             0            -0             0             0
   9.75101e+59  -4.26438e+59   5.00058e+62  -4.02121e+68             0             0   4.02121e+68  -4.02121e+68             0             0             0             0             0
   9.75101e+59  -4.26438e+59   5.00058e+62   4.02121e+68             0             0   4.02121e+68   4.02121e+68             0             0             0             0            -0
   9.75101e+59  -4.26438e+59   5.00058e+62   4.02121e+68             0             0   4.02121e+68   4.02121e+68             0             0            -0             0            -0
  -1.78997e+60  -4.02274e+59   4.93113e+62   4.02121e+68             0             0   4.02121e+68   4.02121e+68             0             0            -0             0             0
  -1.78997e+60  -4.02274e+59   4.93113e+62   4.02121e+68             0             0   4.02121e+68   4.02121e+68             0             0             0             0             0
  -1.78997e+60  -4.02274e+59   4.93113e+62  -4.02121e+68             0             0   4.02121e+68  -4.02121e+68             0             0             0             0            -0
  -1.78997e+60  -4.02274e+59   4.93113e+62  -4.02121e+68             0             0   4.02121e+68  -4.02121e+68             0             0            -0             0            -0
  -1.78997e+60  -4.02274e+59   4.93113e+62  -4.02121e+68             0             0   4.02121e+68  -4.02121e+68             0             0            -0             0             0
  -1.78997e+60  -4.02274e+59   4.93113e+62  -4.02121e+68             0             0   4.02121e+68  -4.02121e+68             0             0             0             0             0
  -1.78997e+60  -4.02274e+59   4.93113e+62   4.02121e+68             0             0   4.02121e+68   4.02121e+68             0             0             0             0            -0
  -1.78997e+60  -4.02274e+59   4.93113e+62   4.02121e+68             0             0   4.02121e+68   4.02121e+68             0             0            -0             0            -0
  -4.55503e+60  -3.78109e+59   4.86168e+62   4.02121e+68             0             0   4.02121e+68   4.02121e+68             0             0            -0             0             0
  -4.55503e+60  -3.78109e+59   4.86168e+62   4.02121e+68             0             0   4.02121e+68   4.02121e+68             0             0             0             0             0
  -4.55503e+60  -3.78109e+59   4.86168e+62  -4.02121e+68             0             0   4.02121e+68  -4.02121e+68             0             0             0             0            -0
  -4.55503e+60  -3.78109e+59   4.86168e+62  -4.02121e+68             0             0   4.02121e+68  -4.02121e+68             0             0            -0             0            -0
  -4.55503e+60  -3.78109e+59   4.86168e+62  -4.02122e+68             0             0   4.02122e+68  -4.02122e+68             0             0            -0             0             0
  -4.55503e+60  -3.78109e+59   4.86168e+62  -4.02122e+68             0             0   4.02122e+68  -4.02122e+68             0             0             0             0             0
  -4.55503e+60  -3.78109e+59   4.86168e+62   4.02122e+68             0             0   4.02122e+68   4.02122e+68             0             0             0             0            -0
  -4.55503e+60  -3.78109e+59   4.86168e+62   4.02122e+68             0             0   4.02122e+68   4.02122e+68             0             0            -0             0            -0
  -7.32014e+60  -3.53945e+59   4.79224e+62   4.02122e+68             0             0   4.02122e+68   4.02122e+68             0             0            -0             0             0
  -7.32014e+60  -3.53945e+59   4.79224e+62   4.02122e+68             0             0   4.02122e+68   4.02122e+68             0             0             0             0             0
  -7.32014e+60  -3.53945e+59   4.79224e+62  -4.02122e+68             0             0   4.02122e+68  -4.02122e+68             0             0             0             0            -0
  -7.32014e+60  -3.53945e+59   4.79224e+62  -4.02122e+68             0             0   4.02122e+68  -4.02122e+68             0             0            -0             0            -0
  -7.32014e+60  -3.53945e+59   4.79224e+62  -4.02121e+68             0             0   4.02121e+68  -4.02121e+68             0             0            -0             0             0
  -7.32014e+60  -3.53945e+59   4.79224e+62  -4.02121e+68             0             0   4.02121e+68  -4.02121e+68             0             0             0             0             0
  -7.32014e+60  -3.53945e+59   4.79224e+62   4.02121e+68             0             0   4.02121e+68   4.02121e+68             0             0             0             0            -0
  -7.32014e+60  -3.53945e+59   4.79224e+62   4.02121e+68             0             0   4.02121e+68   4.02121e+68             0             0            -0             0            -0
  -1.00852e+61   -3.2978e+59   4.72279e+62   4.02121e+68             0             0   4.02121e+68   4.02121e+68             0             0            -0             0             0
  -1.00852e+61   -3.2978e+59   4.72279e+62   4.02121e+68             0             0   4.02121e+68   4.02121e+68             0             0             0             0             0
  -1.00852e+61   -3.2978e+59   4.72279e+62  -4.02121e+68             0             0   4.02121e+68  -4.02121e+68             0             0             0             0            -0
  -1.00852e+61   -3.2978e+59   4.72279e+62  -4.02121e+68             0             0   4.02121e+68  -4.02121e+68             0             0            -0             0            -0
  -1.00852e+61   -3.2978e+59   4.72279e+62  -6.09145e+66             0             0   6.09145e+66  -6.09145e+66             0             0            -0             0             0
  -1.00852e+61   -3.2978e+59   4.72279e+62  -6.09145e+66             0             0   6.09145e+66  -6.09145e+66             0             0             0             0             0
  -1.00852e+61   -3.2978e+59   4.72279e+62   6.09145e+66             0             0   6.09145e+66   6.09145e+66             0             0             0             0            -0
  -1.00852e+61   -3.2978e+59   4.72279e+62   6.09145e+66             0             0   6.09145e+66   6.09145e+66             0             0            -0             0            -0
  -9.36264e+60  -3.08326e+59   4.57124e+62   6.09145e+66             0             0   6.09145e+66   6.09145e+66             0             0            -0             0             0
  -9.36264e+60  -3.08326e+59   4.57124e+62   6.09145e+66             0             0   6.09145e+66   6.09145e+66             0             0             0             0             0
  -9.36264e+60  -3.08326e+59   4.57124e+62  -6.09145e+66             0             0   6.09145e+66  -6.09145e+66             0             0             0             0            -0
  -9.36264e+60  -3.08326e+59   4.57124e+62  -6.09145e+66             0             0   6.09145e+66  -6.09145e+66             0             0            -0             0            -0
  -9.36264e+60  -3.08326e+59   4.57124e+62  -6.09143e+66             0             0   6.09143e+66  -6.09143e+66             0             0            -0             0             0
  -9.36264e+60  -3.08326e+59   4.57124e+62  -6.09143e+66             0             0   6.09143e+66  -6.09143e+66             0             0             0             0             0
  -9.36264e+60  -3.08326e+59   4.57124e+62   6.09143e+66             0             0   6.09143e+66   6.09143e+66             0             0             0             0            -0
  -9.36264e+60  -3.08326e+59   4.57124e+62   6.09143e+66             0             0   6.09143e+66   6.09143e+66             0             0            -0             0            -0
  -8.64008e+60  -2.86871e+59   4.41969e+62   6.09143e+66             0             0   6.09143e+66   6.09143e+66             0             0            -0             0             0
  -8.64008e+60  -2.86871e+59   4.41969e+62   6.09143e+66             0             0   6.09143e+66   6.09143e+66             0             0             0             0             0
  -8.64008e+60  -2.86871e+59   4.41969e+62  -6.09143e+66             0             0   6.09143e+66  -6.09143e+66             0             0             0             0            -0
  -8.64008e+60  -2.86871e+59   4.41969e+62  -6.09143e+66             0             0   6.09143e+66  -6.09143e+66             0             0            -0             0            -0
  -8.64008e+60  -2.86871e+59   4.41969e+62  -6.09145e+66             0             0   6.09145e+66  -6.09145e+66             0             0            -0             0             0
  -8.64008e+60  -2.86871e+59   4.41969e+62  -6.09145e+66             0             0   6.09145e+66  -6.09145e+66             0             0             0             0             0
  -8.64008e+60  -2.86871e+59   4.41969e+62   6.09145e+66             0             0   6.09145e+66   6.09145e+66             0             0             0             0            -0
  -8.64008e+60  -2.86871e+59   4.41969e+62   6.09145e+66             0             0   6.09145e+66   6.09145e+66             0             0            -0             0            -0
  -7.91752e+60  -2.65416e+59   4.26814e+62   6.09145e+66             0             0   6.09145e+66   6.09145e+66             0             0            -0             0             0
  -7.91752e+60  -2.65416e+59   4.26814e+62   6.09145e+66             0             0   6.09145e+66   6.09145e+66             0             0             0             0             0
  -7.91752e+60  -2.65416e+59   4.26814e+62  -6.09145e+66             0             0   6.09145e+66  -6.09145e+66             0             0             0             0            -0
  -7.91752e+60  -2.65416e+59   4.26814e+62  -6.09145e+66             0             0   6.09145e+66  -6.09145e+66             0             0            -0             0            -0
  -7.91752e+60  -2.65416e+59   4.26814e+62  -6.09143e+66             0             0   6.09143e+66  -6.09143e+66             0             0            -0             0             0
  -7.91752e+60  -2.65416e+59   4.26814e+62  -6.09143e+66             0             0   6.09143e+66  -6.09143e+66             0             0             0             0             0
  -7.91752e+60  -2.65416e+59   4.26814e+62   6.09143e+66             0             0   6.09143e+66   6.09143e+66             0             0             0             0            -0
  -7.91752e+60  -2.65416e+59   4.26814e+62   6.09143e+66             0             0   6.09143e+66   6.09143e+66             0             0            -0             0            -0
  -7.19496e+60  -2.43961e+59   4.11659e+62   6.09143e+66             0             0   6.09143e+66   6.09143e+66             0             0            -0             0             0
  -7.19496e+60  -2.43961e+59   4.11659e+62   6.09143e+66             0             0   6.09143e+66   6.09143e+66             0             0             0             0             0
  -7.19496e+60  -2.43961e+59   4.11659e+62  -6.09143e+66             0             0   6.09143e+66  -6.09143e+66             0             0             0             0            -0
  -7.19496e+60  -2.43961e+59   4.11659e+62  -6.09143e+66             0             0   6.09143e+66  -6.09143e+66             0             0            -0             0            -0
  -7.19496e+60  -2.43961e+59   4.11659e+62  -6.09145e+66             0             0   6.09145e+66  -6.09145e+66             0             0            -0             0             0
  -7.19496e+60  -2.43961e+59   4.11659e+62  -6.09145e+66             0             0   6.09145e+66  -6.09145e+66             0             0             0             0             0
  -7.19496e+60  -2.43961e+59   4.11659e+62   6.09145e+66             0             0   6.09145e+66   6.09145e+66             0             0             0             0            -0
  -7.19496e+60  -2.43961e+59   4.11659e+62   6.09145e+66             0             0   6.09145e+66   6.09145e+66             0             0            -0             0            -0
   -6.4724e+60  -2.22506e+59   3.96504e+62   6.09145e+66             0             0   6.09145e+66   6.09145e+66             0             0            -0             0             0
   -6.4724e+60  -2.22506e+59   3.96504e+62   6.09145e+66             0             0   6.09145e+66   6.09145e+66             0             0             0             0             0
   -6.4724e+60  -2.22506e+59   3.96504e+62  -6.09145e+66             0             0   6.09145e+66  -6.09145e+66             0             0             0             0            -0
   -6.4724e+60  -2.22506e+59   3.96504e+62  -6.09145e+66             0             0   6.09145e+66  -6.09145e+66             0             0            -0             0            -0
   -6.4724e+60  -2.22506e+59   3.96504e+62  -6.09143e+66             0             0   6.09143e+66  -6.09143e+66             0             0            -0             0             0
   -6.4724e+60  -2.22506e+59   3.96504e+62  -6.09143e+66             0             0   6.09143e+66  -6.09143e+66             0             0             0             0             0
   -6.4724e+60  -2.22506e+59   3.96504e+62   6.09143e+66             0             0   6.09143e+66   6.09143e+66             0             0             0             0            -0
   -6.4724e+60  -2.22506e+59   3.96504e+62   6.09143e+66             0             0   6.09143e+66   6.09143e+66             0             0            -0             0            -0
  -5.74984e+60  -2.01052e+59    3.8135e+62   6.09143e+66             0             0   6.09143e+66   6.09143e+66             0             0            -0             0             0
  -5.74984e+60  -2.01052e+59    3.8135e+62   6.09143e+66             0             0   6.09143e+66   6.09143e+66             0             0             0             0             0
  -5.74984e+60  -2.01052e+59    3.8135e+62  -6.09143e+66             0             0   6.09143e+66  -6.09143e+66             0             0             0             0            -0
  -5.74984e+60  -2.01052e+59    3.8135e+62  -6.09143e+66             0             0   6.09143e+66  -6.09143e+66             0             0            -0             0            -0
  -5.74984e+60  -2.01052e+59    3.8135e+62  -6.09145e+66             0             0   6.09145e+66  -6.09145e+66             0             0            -0             0             0
  -5.74984e+60  -2.01052e+59    3.8135e+62  -6.09145e+66             0             0   6.09145e+66  -6.09145e+66             0             0             0             0             0
  -5.74984e+60  -2.01052e+59    3.8135e+62   6.09145e+66             0             0   6.09145e+66   6.09145e+66             0             0             0             0            -0
  -5.74984e+60  -2.01052e+59    3.8135e+62   6.09145e+66             0             0   6.09145e+66   6.09145e+66             0             0            -0             0            -0
  -5.02727e+60  -1.79597e+59   3.66195e+62   6.09145e+66             0             0   6.09145e+66   6.09145e+66             0             0            -0             0             0
  -5.02727e+60  -1.79597e+59   3.66195e+62   6.09145e+66             0             0   6.09145e+66   6.09145e+66             0             0             0             0             0
  -5.02727e+60  -1.79597e+59   3.66195e+62  -6.09145e+66             0             0   6.09145e+66  -6.09145e+66             0             0             0             0            -0
  -5.02727e+60  -1.79597e+59   3.66195e+62  -6.09145e+66             0             0   6.09145e+66  -6.09145e+66             0             0            -0             0            -0
  -5.02727e+60  -1.79597e+59   3.66195e+62  -6.09143e+66             0             0   6.09143e+66  -6.09143e+66             0             0            -0             0             0
  -5.02727e+60  -1.79597e+59   3.66195e+62  -6.09143e+66             0             0   6.09143e+66  -6.09143e+66             0             0             0             0             0
  -5.02727e+60  -1.79597e+59   3.66195e+62   6.09143e+66             0             0   6.09143e+66   6.09143e+66             0             0             0             0            -0
  -5.02727e+60  -1.79597e+59   3.66195e+62   6.09143e+66             0             0   6.09143e+66   6.09143e+66             0             0            -0             0            -0
  -4.30471e+60  -1.58142e+59    3.5104e+62   6.09143e+66             0             0   6.09143e+66   6.09143e+66             0             0            -0             0             0
  -4.30471e+60  -1.58142e+59    3.5104e+62   6.09143e+66             0             0   6.09143e+66   6.09143e+66             0             0             0             0             0
  -4.30471e+60  -1.58142e+59    3.5104e+62  -6.09143e+66             0             0   6.09143e+66  -6.09143e+66             0             0             0             0            -0
  -4.30471e+60  -1.58142e+59    3.5104e+62  -6.09143e+66             0             0   6.09143e+66  -6.09143e+66             0             0            -0             0            -0
  -4.30471e+60  -1.58142e+59    3.5104e+62  -6.09145e+66             0             0   6.09145e+66  -6.09145e+66             0             0            -0             0             0
  -4.30471e+60  -1.58142e+59    3.5104e+62  -6.09145e+66             0             0   6.09145e+66  -6.09145e+66             0             0             0             0             0
  -4.30471e+60  -1.58142e+59    3.5104e+62   6.09145e+66             0             0   6.09145e+66   6.09145e+66             0             0             0             0            -0
  -4.30471e+60  -1.58142e+59    3.5104e+62   6.09145e+66             0             0   6.09145e+66   6.09145e+66             0             0            -0             0            -0
  -3.58215e+60  -1.36687e+59   3.35885e+62   6.09145e+66             0             0   6.09145e+66   6.09145e+66             0             0            -0             0             0
  -3.58215e+60  -1.36687e+59   3.35885e+62   6.09145e+66             0             0   6.09145e+66   6.09145e+66             0             0             0             0             0
  -3.58215e+60  -1.36687e+59   3.35885e+62  -6.09145e+66             0             0   6.09145e+66  -6.09145e+66             0             0             0             0            -0
  -3.58215e+60  -1.36687e+59   3.35885e+62  -6.09145e+66             0             0   6.09145e+66  -6.09145e+66             0             0            -0             0            -0
  -3.58215e+60  -1.36687e+59   3.35885e+62  -6.09143e+66             0             0   6.09143e+66  -6.09143e+66             0             0            -0             0             0
  -3.58215e+60  -1.36687e+59   3.35885e+62  -6.09143e+66             0             0   6.09143e+66  -6.09143e+66             0             0             0             0             0
  -3.58215e+60  -1.36687e+59   3.35885e+62   6.09143e+66             0             0   6.09143e+66   6.09143e+66             0             0             0             0            -0
  -3.58215e+60  -1.36687e+59   3.35885e+62   6.09143e+66             0             0   6.09143e+66   6.09143e+66             0             0            -0             0            -0
  -2.85959e+60  -1.15233e+59    3.2073e+62   6.09143e+66             0             0   6.09143e+66   6.09143e+66             0             0            -0             0             0
  -2.85959e+60  -1.15233e+59    3.2073e+62   6.09143e+66             0             0   6.09143e+66   6.09143e+66             0             0             0             0             0
  -2.85959e+60  -1.15233e+59    3.2073e+62  -6.09143e+66             0             0   6.09143e+66  -6.09143e+66             0             0             0             0            -0
  -2.85959e+60  -1.15233e+59    3.2073e+62  -6.09143e+66             0             0   6.09143e+66  -6.09143e+66             0             0            -0             0            -0
  -2.85959e+60  -1.15233e+59    3.2073e+62  -6.09145e+66             0             0   6.09145e+66  -6.09145e+66             0             0            -0             0             0
  -2.85959e+60  -1.15233e+59    3.2073e+62  -6.09145e+66             0             0   6.09145e+66  -6.09145e+66             0             0             0             0             0
  -2.85959e+60  -1.15233e+59    3.2073e+62   6.09145e+66             0             0   6.09145e+66   6.09145e+66             0             0             0             0            -0
  -2.85959e+60  -1.15233e+59    3.2073e+62   6.09145e+66             0             0   6.09145e+66   6.09145e+66             0             0            -0             0            -0
  -2.13703e+60  -9.37779e+58   3.05575e+62   6.09145e+66             0             0   6.09145e+66   6.09145e+66             0             0            -0             0             0
  -2.13703e+60  -9.37779e+58   3.05575e+62   6.09145e+66             0             0   6.09145e+66   6.09145e+66             0             0             0             0             0
  -2.13703e+60  -9.37779e+58   3.05575e+62  -6.09145e+66             0             0   6.09145e+66  -6.09145e+66             0             0             0             0            -0
  -2.13703e+60  -9.37779e+58   3.05575e+62  -6.09145e+66             0             0   6.09145e+66  -6.09145e+66             0             0            -0             0            -0
  -2.13703e+60  -9.37779e+58   3.05575e+62  -6.09143e+66             0             0   6.09143e+66  -6.09143e+66             0             0            -0             0             0
  -2.13703e+60  -9.37779e+58   3.05575e+62  -6.09143e+66             0             0   6.09143e+66  -6.09143e+66             0             0             0             0             0
  -2.13703e+60  -9.37779e+58   3.05575e+62   6.09143e+66             0             0   6.09143e+66   6.09143e+66             0             0             0             0            -0
  -2.13703e+60  -9.37779e+58   3.05575e+62   6.09143e+66             0             0   6.09143e+66   6.09143e+66             0             0            -0             0            -0
  -1.41447e+60  -7.23233e+58   2.90421e+62   6.09143e+66             0             0   6.09143e+66   6.09143e+66             0             0            -0             0             0
  -1.41447e+60  -7.23233e+58   2.90421e+62   6.09143e+66             0             0   6.09143e+66   6.09143e+66             0             0             0             0             0
  -1.41447e+60  -7.23233e+58   2.90421e+62  -6.09143e+66             0             0   6.09143e+66  -6.09143e+66             0             0             0             0            -0
  -1.41447e+60  -7.23233e+58   2.90421e+62  -6.09143e+66             0             0   6.09143e+66  -6.09143e+66             0             0            -0             0            -0
  -1.41447e+60  -7.23233e+58   2.90421e+62  -6.09145e+66             0             0   6.09145e+66  -6.09145e+66             0             0            -0             0             0
  -1.41447e+60  -7.23233e+58   2.90421e+62  -6.09145e+66             0             0   6.09145e+66  -6.09145e+66             0             0             0             0             0
  -1.41447e+60  -7.23233e+58   2.90421e+62   6.09145e+66             0             0   6.09145e+66   6.09145e+66             0             0             0             0            -0
  -1.41447e+60  -7.23233e+58   2.90421e+62   6.09145e+66             0             0   6.09145e+66   6.09145e+66             0             0            -0             0            -0
  -6.91909e+59  -5.08684e+58   2.75266e+62   6.09145e+66             0             0   6.09145e+66   6.09145e+66             0             0            -0             0             0
  -6.91909e+59  -5.08684e+58   2.75266e+62   6.09145e+66             0             0   6.09145e+66   6.09145e+66             0             0             0             0             0
  -6.91909e+59  -5.08684e+58   2.75266e+62  -6.09145e+66             0             0   6.09145e+66  -6.09145e+66             0             0             0             0            -0
  -6.91909e+59  -5.08684e+58   2.75266e+62  -6.09145e+66             0             0   6.09145e+66  -6.09145e+66             0             0            -0             0            -0
  -1.00852e+61   -3.2978e+59   4.72279e+62   -7.4441e+68             0             0    7.4441e+68   -7.4441e+68             0             0            -0             0             0
  -1.00852e+61   -3.2978e+59   4.72279e+62   -7.4441e+68             0             0    7.4441e+68   -7.4441e+68             0             0             0             0             0
  -1.00852e+61   -3.2978e+59   4.72279e+62    7.4441e+68             0             0    7.4441e+68    7.4441e+68             0             0             0             0            -0
  -1.00852e+61   -3.2978e+59   4.72279e+62    7.4441e+68             0             0    7.4441e+68    7.4441e+68             0             0            -0             0            -0
  -5.02937e+60  -2.52693e+59   4.59412e+62    7.4441e+68             0             0    7.4441e+68    7.4441e+68             0             0            -0             0             0
  -5.02937e+60  -2.52693e+59   4.59412e+62    7.4441e+68             0             0    7.4441e+68    7.4441e+68             0             0             0             0             0
  -5.02937e+60  -2.52693e+59   4.59412e+62   -7.4441e+68             0             0    7.4441e+68   -7.4441e+68             0             0             0             0            -0
  -5.02937e+60  -2.52693e+59   4.59412e+62   -7.4441e+68             0             0    7.4441e+68   -7.4441e+68             0             0            -0             0            -0
  -5.02937e+60  -2.52693e+59   4.59412e+62  -7.44413e+68             0             0   7.44413e+68  -7.44413e+68             0             0            -0             0             0
  -5.02937e+60  -2.52693e+59   4.59412e+62  -7.44413e+68             0             0   7.44413e+68  -7.44413e+68             0             0             0             0             0
  -5.02937e+60  -2.52693e+59   4.59412e+62   7.44413e+68             0             0   7.44413e+68   7.44413e+68             0             0             0             0            -0
  -5.02937e+60  -2.52693e+59   4.59412e+62   7.44413e+68             0             0   7.44413e+68   7.44413e+68             0             0            -0             0            -0
    2.6532e+58  -1.75604e+59   4.46545e+62   7.44413e+68             0             0   7.44413e+68   7.44413e+68             0             0            -0             0             0
    2.6532e+58  -1.75604e+59   4.46545e+62   7.44413e+68             0             0   7.44413e+68   7.44413e+68             0             0             0             0             0
    2.6532e+58  -1.75604e+59   4.46545e+62  -7.44413e+68             0             0   7.44413e+68  -7.44413e+68             0             0             0             0            -0
    2.6532e+58  -1.75604e+59   4.46545e+62  -7.44413e+68             0             0   7.44413e+68  -7.44413e+68             0             0            -0             0            -0
    2.6532e+58  -1.75604e+59   4.46545e+62   -7.4441e+68             0             0    7.4441e+68   -7.4441e+68             0             0            -0             0             0
    2.6532e+58  -1.75604e+59   4.46545e+62   -7.4441e+68             0             0    7.4441e+68   -7.4441e+68             0             0             0             0             0
    2.6532e+58  -1.75604e+59   4.46545e+62    7.4441e+68             0             0    7.4441e+68    7.4441e+68             0             0             0             0            -0
    2.6532e+58  -1.75604e+59   4.46545e+62    7.4441e+68             0             0    7.4441e+68    7.4441e+68             0             0            -0             0            -0
   5.08236e+60  -9.85159e+58   4.33678e+62    7.4441e+68             0             0    7.4441e+68    7.4441e+68             0             0            -0             0             0
   5.08236e+60  -9.85159e+58   4.33678e+62    7.4441e+68             0             0    7.4441e+68    7.4441e+68             0             0             0             0             0
   5.08236e+60  -9.85159e+58   4.33678e+62   -7.4441e+68             0             0    7.4441e+68   -7.4441e+68             0             0             0             0            -0
   5.08236e+60  -9.85159e+58   4.33678e+62   -7.4441e+68             0             0    7.4441e+68   -7.4441e+68             0             0            -0             0            -0
   5.08236e+60  -9.85159e+58   4.33678e+62   -7.4441e+68             0             0    7.4441e+68   -7.4441e+68             0             0            -0             0             0
   5.08236e+60  -9.85159e+58   4.33678e+62   -7.4441e+68             0             0    7.4441e+68   -7.4441e+68             0             0             0             0             0
   5.08236e+60  -9.85159e+58   4.33678e+62    7.4441e+68             0             0    7.4441e+68    7.4441e+68             0             0             0             0            -0
   5.08236e+60  -9.85159e+58   4.33678e+62    7.4441e+68             0             0    7.4441e+68    7.4441e+68             0             0            -0             0            -0
   1.01382e+61   -2.1428e+58   4.20811e+62    7.4441e+68             0             0    7.4441e+68    7.4441e+68             0             0            -0             0             0
   1.01382e+61   -2.1428e+58   4.20811e+62    7.4441e+68             0             0    7.4441e+68    7.4441e+68             0             0             0             0             0
   1.01382e+61   -2.1428e+58   4.20811e+62   -7.4441e+68             0             0    7.4441e+68   -7.4441e+68             0             0             0             0            -0
   1.01382e+61   -2.1428e+58   4.20811e+62   -7.4441e+68             0             0    7.4441e+68   -7.4441e+68             0             0            -0             0            -0
   1.01382e+61   -2.1428e+58   4.20811e+62  -7.44413e+68             0             0   7.44413e+68  -7.44413e+68             0             0            -0             0             0
   1.01382e+61   -2.1428e+58   4.20811e+62  -7.44413e+68             0             0   7.44413e+68  -7.44413e+68             0             0             0             0             0
   1.01382e+61   -2.1428e+58   4.20811e+62   7.44413e+68             0             0   7.44413e+68   7.44413e+68             0             0             0             0            -0
   1.01382e+61   -2.1428e+58   4.20811e+62   7.44413e+68             0             0   7.44413e+68   7.44413e+68             0             0            -0             0            -0
   1.51941e+61   5.56608e+58   4.07944e+62   7.44413e+68             0             0   7.44413e+68   7.44413e+68             0             0            -0             0             0
   1.51941e+61   5.56608e+58   4.07944e+62   7.44413e+68             0             0   7.44413e+68   7.44413e+68             0             0             0             0             0
   1.51941e+61   5.56608e+58   4.07944e+62  -7.44413e+68             0             0   7.44413e+68  -7.44413e+68             0             0             0             0            -0
   1.51941e+61   5.56608e+58   4.07944e+62  -7.44413e+68             0             0   7.44413e+68  -7.44413e+68             0             0            -0             0            -0
   1.51941e+61   5.56608e+58   4.07944e+62   -7.4441e+68             0             0    7.4441e+68   -7.4441e+68             0             0            -0             0             0
   1.51941e+61   5.56608e+58   4.07944e+62   -7.4441e+68             0             0    7.4441e+68   -7.4441e+68             0             0             0             0             0
   1.51941e+61   5.56608e+58   4.07944e+62    7.4441e+68             0             0    7.4441e+68    7.4441e+68             0             0             0             0            -0
   1.51941e+61   5.56608e+58   4.07944e+62    7.4441e+68             0             0    7.4441e+68    7.4441e+68             0             0            -0             0            -0
   2.02499e+61   1.32749e+59   3.95078e+62    7.4441e+68             0             0    7.4441e+68    7.4441e+68             0             0            -0             0             0
   2.02499e+61   1.32749e+59   3.95078e+62    7.4441e+68             0             0    7.4441e+68    7.4441e+68             0             0             0             0             0
   2.02499e+61   1.32749e+59   3.95078e+62   -7.4441e+68             0             0    7.4441e+68   -7.4441e+68             0             0             0             0            -0
   2.02499e+61   1.32749e+59   3.95078e+62   -7.4441e+68             0             0    7.4441e+68   -7.4441e+68             0             0            -0             0            -0
   2.02499e+61   1.32749e+59   3.95078e+62   -7.4441e+68             0             0    7.4441e+68   -7.4441e+68             0             0            -0             0             0
   2.02499e+61   1.32749e+59   3.95078e+62   -7.4441e+68             0             0    7.4441e+68   -7.4441e+68             0             0             0             0             0
   2.02499e+61   1.32749e+59   3.95078e+62    7.4441e+68             0             0    7.4441e+68    7.4441e+68             0             0             0             0            -0
   2.02499e+61   1.32749e+59   3.95078e+62    7.4441e+68             0             0    7.4441e+68    7.4441e+68             0             0            -0             0            -0
   2.53058e+61   2.09837e+59   3.82211e+62    7.4441e+68             0             0    7.4441e+68    7.4441e+68             0             0            -0             0             0
   2.53058e+61   2.09837e+59   3.82211e+62    7.4441e+68             0             0    7.4441e+68    7.4441e+68             0             0             0             0             0
   2.53058e+61   2.09837e+59   3.82211e+62   -7.4441e+68             0             0    7.4441e+68   -7.4441e+68             0             0             0             0            -0
   2.53058e+61   2.09837e+59   3.82211e+62   -7.4441e+68             0             0    7.4441e+68   -7.4441e+68             0             0            -0             0            -0
   2.53058e+61   2.09837e+59   3.82211e+62  -7.44413e+68             0             0   7.44413e+68  -7.44413e+68             0             0            -0             0             0
   2.53058e+61   2.09837e+59   3.82211e+62  -7.44413e+68             0             0   7.44413e+68  -7.44413e+68             0             0             0             0             0
   2.53058e+61   2.09837e+59   3.82211e+62   7.44413e+68             0             0   7.44413e+68   7.44413e+68             0             0             0             0            -0
   2.53058e+61   2.09837e+59   3.82211e+62   7.44413e+68             0             0   7.44413e+68   7.44413e+68             0             0            -0             0            -0
   3.03617e+61   2.86925e+59   3.69344e+62   7.44413e+68             0             0   7.44413e+68   7.44413e+68             0             0            -0             0             0
   3.03617e+61   2.86925e+59   3.69344e+62   7.44413e+68             0             0   7.44413e+68   7.44413e+68             0             0             0             0             0
   3.03617e+61   2.86925e+59   3.69344e+62  -7.44413e+68             0             0   7.44413e+68  -7.44413e+68             0             0             0             0            -0
   3.03617e+61   2.86925e+59   3.69344e+62  -7.44413e+68             0             0   7.44413e+68  -7.44413e+68             0             0            -0             0            -0
   3.03617e+61   2.86925e+59   3.69344e+62   -7.4441e+68             0             0    7.4441e+68   -7.4441e+68             0             0            -0             0             0
   3.03617e+61   2.86925e+59   3.69344e+62   -7.4441e+68             0             0    7.4441e+68   -7.4441e+68             0             0             0             0             0
   3.03617e+61   2.86925e+59   3.69344e+62    7.4441e+68             0             0    7.4441e+68    7.4441e+68             0             0             0             0            -0
   3.03617e+61   2.86925e+59   3.69344e+62    7.4441e+68             0             0    7.4441e+68    7.4441e+68             0             0            -0             0            -0
   3.54175e+61   3.64013e+59   3.56477e+62    7.4441e+68             0             0    7.4441e+68    7.4441e+68             0             0            -0             0             0
   3.54175e+61   3.64013e+59   3.56477e+62    7.4441e+68             0             0    7.4441e+68    7.4441e+68             0             0             0             0             0
   3.54175e+61   3.64013e+59   3.56477e+62   -7.4441e+68             0             0    7.4441e+68   -7.4441e+68             0             0             0             0            -0
   3.54175e+61   3.64013e+59   3.56477e+62   -7.4441e+68             0             0    7.4441e+68   -7.4441e+68             0             0            -0             0            -0
   3.54175e+61   3.64013e+59   3.56477e+62   -7.4441e+68             0             0    7.4441e+68   -7.4441e+68             0             0            -0             0             0
   3.54175e+61   3.64013e+59   3.56477e+62   -7.4441e+68             0             0    7.4441e+68   -7.4441e+68             0             0             0             0             0
   3.54175e+61   3.64013e+59   3.56477e+62    7.4441e+68             0             0    7.4441e+68    7.4441e+68             0             0             0             0            -0
   3.54175e+61   3.64013e+59   3.56477e+62    7.4441e+68             0             0    7.4441e+68    7.4441e+68             0             0            -0             0            -0
   4.04733e+61   4.41101e+59    3.4361e+62    7.4441e+68             0             0    7.4441e+68    7.4441e+68             0             0            -0             0             0
   4.04733e+61   4.41101e+59    3.4361e+62    7.4441e+68             0             0    7.4441e+68    7.4441e+68             0             0             0             0             0
   4.04733e+61   4.41101e+59    3.4361e+62   -7.4441e+68             0             0    7.4441e+68   -7.4441e+68             0             0             0             0            -0
   4.04733e+61   4.41101e+59    3.4361e+62   -7.4441e+68             0             0    7.4441e+68   -7.4441e+68             0             0            -0             0            -0
   4.04733e+61   4.41101e+59    3.4361e+62  -7.44413e+68             0             0   7.44413e+68  -7.44413e+68             0             0            -0             0             0
   4.04733e+61   4.41101e+59    3.4361e+62  -7.44413e+68             0             0   7.44413e+68  -7.44413e+68             0             0             0             0             0
   4.04733e+61   4.41101e+59    3.4361e+62   7.44413e+68             0             0   7.44413e+68   7.44413e+68             0             0             0             0            -0
   4.04733e+61   4.41101e+59    3.4361e+62   7.44413e+68             0             0   7.44413e+68   7.44413e+68             0             0            -0             0            -0
   4.55292e+61    5.1819e+59   3.30743e+62   7.44413e+68             0             0   7.44413e+68   7.44413e+68             0             0            -0             0             0
   4.55292e+61    5.1819e+59   3.30743e+62   7.44413e+68             0             0   7.44413e+68   7.44413e+68             0             0             0             0             0
   4.55292e+61    5.1819e+59   3.30743e+62  -7.44413e+68             0             0   7.44413e+68  -7.44413e+68             0             0             0             0            -0
   4.55292e+61    5.1819e+59   3.30743e+62  -7.44413e+68             0             0   7.44413e+68  -7.44413e+68             0             0            -0             0            -0
   4.55292e+61    5.1819e+59   3.30743e+62   -7.4441e+68             0             0    7.4441e+68   -7.4441e+68             0             0            -0             0             0
   4.55292e+61    5.1819e+59   3.30743e+62   -7.4441e+68             0             0    7.4441e+68   -7.4441e+68             0             0             0             0             0
   4.55292e+61    5.1819e+59   3.30743e+62    7.4441e+68             0             0    7.4441e+68    7.4441e+68             0             0             0             0            -0
   4.55292e+61    5.1819e+59   3.30743e+62    7.4441e+68             0             0    7.4441e+68    7.4441e+68             0             0            -0             0            -0
   5.05851e+61   5.95278e+59   3.17877e+62    7.4441e+68             0             0    7.4441e+68    7.4441e+68             0             0            -0             0             0
   5.05851e+61   5.95278e+59   3.17877e+62    7.4441e+68             0             0    7.4441e+68    7.4441e+68             0             0             0             0             0
   5.05851e+61   5.95278e+59   3.17877e+62   -7.4441e+68             0             0    7.4441e+68   -7.4441e+68             0             0             0             0            -0
   5.05851e+61   5.95278e+59   3.17877e+62   -7.4441e+68             0             0    7.4441e+68   -7.4441e+68             0             0            -0             0            -0
   5.05851e+61   5.95278e+59   3.17877e+62   -7.4441e+68             0             0    7.4441e+68   -7.4441e+68             0             0            -0             0             0
   5.05851e+61   5.95278e+59   3.17877e+62   -7.4441e+68             0             0    7.4441e+68   -7.4441e+68             0             0             0             0             0
   5.05851e+61   5.95278e+59   3.17877e+62    7.4441e+68             0             0    7.4441e+68    7.4441e+68             0             0             0             0            -0
   5.05851e+61   5.95278e+59   3.17877e+62    7.4441e+68             0             0    7.4441e+68    7.4441e+68             0             0            -0             0            -0
   5.56409e+61   6.72366e+59    3.0501e+62    7.4441e+68             0             0    7.4441e+68    7.4441e+68             0             0            -0             0             0
   5.56409e+61   6.72366e+59    3.0501e+62    7.4441e+68             0             0    7.4441e+68    7.4441e+68             0             0             0             0             0
   5.56409e+61   6.72366e+59    3.0501e+62   -7.4441e+68             0             0    7.4441e+68   -7.4441e+68             0             0             0             0            -0
   5.56409e+61   6.72366e+59    3.0501e+62   -7.4441e+68             0             0    7.4441e+68   -7.4441e+68             0             0            -0             0            -0
   5.56409e+61   6.72366e+59    3.0501e+62  -7.44413e+68             0             0   7.44413e+68  -7.44413e+68             0             0            -0             0             0
   5.56409e+61   6.72366e+59    3.0501e+62  -7.44413e+68             0             0   7.44413e+68  -7.44413e+68             0             0             0             0             0
   5.56409e+61   6.72366e+59    3.0501e+62   7.44413e+68             0             0   7.44413e+68   7.44413e+68             0             0             0             0            -0
   5.56409e+61   6.72366e+59    3.0501e+62   7.44413e+68             0             0   7.44413e+68   7.44413e+68             0             0            -0             0            -0
   6.06968e+61   7.49454e+59   2.92143e+62   7.44413e+68             0             0   7.44413e+68   7.44413e+68             0             0            -0             0             0
   6.06968e+61   7.49454e+59   2.92143e+62   7.44413e+68             0             0   7.44413e+68   7.44413e+68             0             0             0             0             0
   6.06968e+61   7.49454e+59   2.92143e+62  -7.44413e+68             0             0   7.44413e+68  -7.44413e+68             0             0             0             0            -0
   6.06968e+61   7.49454e+59   2.92143e+62  -7.44413e+68             0             0   7.44413e+68  -7.44413e+68             0             0            -0             0            -0
   6.06968e+61   7.49454e+59   2.92143e+62   -7.4441e+68             0             0    7.4441e+68   -7.4441e+68             0             0            -0             0             0
   6.06968e+61   7.49454e+59   2.92143e+62   -7.4441e+68             0             0    7.4441e+68   -7.4441e+68             0             0             0             0             0
   6.06968e+61   7.49454e+59   2.92143e+62    7.4441e+68             0             0    7.4441e+68    7.4441e+68             0             0             0             0            -0
   6.06968e+61   7.49454e+59   2.92143e+62    7.4441e+68             0             0    7.4441e+68    7.4441e+68             0             0            -0             0            -0
   6.57526e+61   8.26542e+59   2.79276e+62    7.4441e+68             0             0    7.4441e+68    7.4441e+68             0             0            -0             0             0
   6.57526e+61   8.26542e+59   2.79276e+62    7.4441e+68             0             0    7.4441e+68    7.4441e+68             0             0             0             0             0
   6.57526e+61   8.26542e+59   2.79276e+62   -7.4441e+68             0             0    7.4441e+68   -7.4441e+68             0             0             0             0            -0
   6.57526e+61   8.26542e+59   2.79276e+62   -7.4441e+68             0             0    7.4441e+68   -7.4441e+68             0             0            -0             0            -0
   6.57526e+61   8.26542e+59   2.79276e+62  -2.44784e+69             0             0   2.44784e+69  -2.44784e+69             0             0            -0             0             0
   6.57526e+61   8.26542e+59   2.79276e+62  -2.44784e+69             0             0   2.44784e+69  -2.44784e+69             0             0             0             0             0
   6.57526e+61   8.26542e+59   2.79276e+62   2.44784e+69             0             0   2.44784e+69   2.44784e+69             0             0             0             0            -0
   6.57526e+61   8.26542e+59   2.79276e+62   2.44784e+69             0             0   2.44784e+69   2.44784e+69             0             0            -0             0            -0
   5.74471e+61   7.16866e+59   2.78775e+62   2.44784e+69             0             0   2.44784e+69   2.44784e+69             0             0            -0             0             0
   5.74471e+61   7.16866e+59   2.78775e+62   2.44784e+69             0             0   2.44784e+69   2.44784e+69             0             0             0             0             0
   5.74471e+61   7.16866e+59   2.78775e+62  -2.44784e+69             0             0   2.44784e+69  -2.44784e+69             0             0             0             0            -0
   5.74471e+61   7.16866e+59   2.78775e+62  -2.44784e+69             0             0   2.44784e+69  -2.44784e+69             0             0            -0             0            -0
   5.74471e+61   7.16866e+59   2.78775e+62  -2.44784e+69             0             0   2.44784e+69  -2.44784e+69             0             0            -0             0             0
   5.74471e+61   7.16866e+59   2.78775e+62  -2.44784e+69             0             0   2.44784e+69  -2.44784e+69             0             0             0             0             0
   5.74471e+61   7.16866e+59   2.78775e+62   2.44784e+69             0             0   2.44784e+69   2.44784e+69             0             0             0             0            -0
   5.74471e+61   7.16866e+59   2.78775e+62   2.44784e+69             0             0   2.44784e+69   2.44784e+69             0             0            -0             0            -0
   4.91415e+61    6.0719e+59   2.78273e+62   2.44784e+69             0             0   2.44784e+69   2.44784e+69             0             0            -0             0             0
   4.91415e+61    6.0719e+59   2.78273e+62   2.44784e+69             0             0   2.44784e+69   2.44784e+69             0             0             0             0             0
   4.91415e+61    6.0719e+59   2.78273e+62  -2.44784e+69             0             0   2.44784e+69  -2.44784e+69             0             0             0             0            -0
   4.91415e+61    6.0719e+59   2.78273e+62  -2.44784e+69             0             0   2.44784e+69  -2.44784e+69             0             0            -0             0            -0
   4.91415e+61    6.0719e+59   2.78273e+62  -2.44784e+69             0             0   2.44784e+69  -2.44784e+69             0             0            -0             0             0
   4.91415e+61    6.0719e+59   2.78273e+62  -2.44784e+69             0             0   2.44784e+69  -2.44784e+69             0             0             0             0             0
   4.91415e+61    6.0719e+59   2.78273e+62   2.44784e+69             0             0   2.44784e+69   2.44784e+69             0             0             0             0            -0
   4.91415e+61    6.0719e+59   2.78273e+62   2.44784e+69             0             0   2.44784e+69   2.44784e+69             0             0            -0             0            -0
   4.08359e+61   4.97513e+59   2.77772e+62   2.44784e+69             0             0   2.44784e+69   2.44784e+69             0             0            -0             0             0
   4.08359e+61   4.97513e+59   2.77772e+62   2.44784e+69             0             0   2.44784e+69   2.44784e+69             0             0             0             0             0
   4.08359e+61   4.97513e+59   2.77772e+62  -2.44784e+69             0             0   2.44784e+69  -2.44784e+69             0             0             0             0            -0
   4.08359e+61   4.97513e+59   2.77772e+62  -2.44784e+69             0             0   2.44784e+69  -2.44784e+69             0             0            -0             0            -0
   4.08359e+61   4.97513e+59   2.77772e+62  -2.44784e+69             0             0   2.44784e+69  -2.44784e+69             0             0            -0             0             0
   4.08359e+61   4.97513e+59   2.77772e+62  -2.44784e+69             0             0   2.44784e+69  -2.44784e+69             0             0             0             0             0
   4.08359e+61   4.97513e+59   2.77772e+62   2.44784e+69             0             0   2.44784e+69   2.44784e+69             0             0             0             0            -0
   4.08359e+61   4.97513e+59   2.77772e+62   2.44784e+69             0             0   2.44784e+69   2.44784e+69             0             0            -0             0            -0
   3.25304e+61   3.87837e+59   2.77271e+62   2.44784e+69             0             0   2.44784e+69   2.44784e+69             0             0            -0             0             0
   3.25304e+61   3.87837e+59   2.77271e+62   2.44784e+69             0             0   2.44784e+69   2.44784e+69             0             0             0             0             0
   3.25304e+61   3.87837e+59   2.77271e+62  -2.44784e+69             0             0   2.44784e+69  -2.44784e+69             0             0             0             0            -0
   3.25304e+61   3.87837e+59   2.77271e+62  -2.44784e+69             0             0   2.44784e+69  -2.44784e+69             0             0            -0             0            -0
   3.25304e+61   3.87837e+59   2.77271e+62  -2.44784e+69             0             0   2.44784e+69  -2.44784e+69             0             0            -0             0             0
   3.25304e+61   3.87837e+59   2.77271e+62  -2.44784e+69             0             0   2.44784e+69  -2.44784e+69             0             0             0             0             0
   3.25304e+61   3.87837e+59   2.77271e+62   2.44784e+69             0             0   2.44784e+69   2.44784e+69             0             0             0             0            -0
   3.25304e+61   3.87837e+59   2.77271e+62   2.44784e+69             0             0   2.44784e+69   2.44784e+69             0             0            -0             0            -0
   2.42248e+61   2.78161e+59    2.7677e+62   2.44784e+69             0             0   2.44784e+69   2.44784e+69             0             0            -0             0             0
   2.42248e+61   2.78161e+59    2.7677e+62   2.44784e+69             0             0   2.44784e+69   2.44784e+69             0             0             0             0             0
   2.42248e+61   2.78161e+59    2.7677e+62  -2.44784e+69             0             0   2.44784e+69  -2.44784e+69             0             0             0             0            -0
   2.42248e+61   2.78161e+59    2.7677e+62  -2.44784e+69             0             0   2.44784e+69  -2.44784e+69             0             0            -0             0            -0
   2.42248e+61   2.78161e+59    2.7677e+62  -2.44784e+69             0             0   2.44784e+69  -2.44784e+69             0             0            -0             0             0
   2.42248e+61   2.78161e+59    2.7677e+62  -2.44784e+69             0             0   2.44784e+69  -2.44784e+69             0             0             0             0             0
   2.42248e+61   2.78161e+59    2.7677e+62   2.44784e+69             0             0   2.44784e+69   2.44784e+69             0             0             0             0            -0
   2.42248e+61   2.78161e+59    2.7677e+62   2.44784e+69             0             0   2.44784e+69   2.44784e+69             0             0            -0             0            -0
   1.59192e+61   1.68484e+59   2.76268e+62   2.44784e+69             0             0   2.44784e+69   2.44784e+69             0             0            -0             0             0
   1.59192e+61   1.68484e+59   2.76268e+62   2.44784e+69             0             0   2.44784e+69   2.44784e+69             0             0             0             0             0
   1.59192e+61   1.68484e+59   2.76268e+62  -2.44784e+69             0             0   2.44784e+69  -2.44784e+69             0             0             0             0            -0
   1.59192e+61   1.68484e+59   2.76268e+62  -2.44784e+69             0             0   2.44784e+69  -2.44784e+69             0             0            -0             0            -0
   1.59192e+61   1.68484e+59   2.76268e+62  -2.44784e+69             0             0   2.44784e+69  -2.44784e+69             0             0            -0             0             0
   1.59192e+61   1.68484e+59   2.76268e+62  -2.44784e+69             0             0   2.44784e+69  -2.44784e+69             0             0             0             0             0
   1.59192e+61   1.68484e+59   2.76268e+62   2.44784e+69             0             0   2.44784e+69   2.44784e+69             0             0             0             0            -0
   1.59192e+61   1.68484e+59   2.76268e+62   2.44784e+69             0             0   2.44784e+69   2.44784e+69             0             0            -0             0            -0
   7.61366e+60   5.88079e+58   2.75767e+62   2.44784e+69             0             0   2.44784e+69   2.44784e+69             0             0            -0             0             0
   7.61366e+60   5.88079e+58   2.75767e+62   2.44784e+69             0             0   2.44784e+69   2.44784e+69             0             0             0             0             0
   7.61366e+60   5.88079e+58   2.75767e+62  -2.44784e+69             0             0   2.44784e+69  -2.44784e+69             0             0             0             0            -0
   7.61366e+60   5.88079e+58   2.75767e+62  -2.44784e+69             0             0   2.44784e+69  -2.44784e+69             0             0            -0             0            -0
   7.61366e+60   5.88079e+58   2.75767e+62  -2.44784e+69             0             0   2.44784e+69  -2.44784e+69             0             0            -0             0             0
   7.61366e+60   5.88079e+58   2.75767e+62  -2.44784e+69             0             0   2.44784e+69  -2.44784e+69             0             0             0             0             0
   7.61366e+60   5.88079e+58   2.75767e+62   2.44784e+69             0             0   2.44784e+69   2.44784e+69             0             0             0             0            -0
   7.61366e+60   5.88079e+58   2.75767e+62   2.44784e+69             0             0   2.44784e+69   2.44784e+69             0             0            -0             0            -0
  -6.91909e+59  -5.08684e+58   2.75266e+62   2.44784e+69             0             0   2.44784e+69   2.44784e+69             0             0            -0             0             0
  -6.91909e+59  -5.08684e+58   2.75266e+62   2.44784e+69             0             0   2.44784e+69   2.44784e+69             0             0             0             0             0
  -6.91909e+59  -5.08684e+58   2.75266e+62  -2.44784e+69             0             0   2.44784e+69  -2.44784e+69             0             0             0             0            -0
  -6.91909e+59  -5.08684e+58   2.75266e+62  -2.44784e+69             0             0   2.44784e+69  -2.44784e+69             0             0            -0             0            -0
  -6.91909e+59  -5.08684e+58   2.75266e+62   2.75052e+67             0             0   2.75052e+67   2.75052e+67             0             0            -0             0             0
  -6.91909e+59  -5.08684e+58   2.75266e+62   2.75052e+67             0             0   2.75052e+67   2.75052e+67             0             0             0             0             0
  -6.91909e+59  -5.08684e+58   2.75266e+62  -2.75052e+67             0             0   2.75052e+67  -2.75052e+67             0             0             0             0            -0
  -6.91909e+59  -5.08684e+58   2.75266e+62  -2.75052e+67             0             0   2.75052e+67  -2.75052e+67             0             0            -0             0            -0
  -8.02634e+59  -1.47745e+59   2.54582e+62  -2.75052e+67             0             0   2.75052e+67  -2.75052e+67             0             0            -0             0             0
  -8.02634e+59  -1.47745e+59   2.54582e+62  -2.75052e+67             0             0   2.75052e+67  -2.75052e+67             0             0             0             0             0
  -8.02634e+59  -1.47745e+59   2.54582e+62   2.75052e+67             0             0   2.75052e+67   2.75052e+67             0             0             0             0            -0
  -8.02634e+59  -1.47745e+59   2.54582e+62   2.75052e+67             0             0   2.75052e+67   2.75052e+67             0             0            -0             0            -0
  -8.02634e+59  -1.47745e+59   2.54582e+62   2.75051e+67             0             0   2.75051e+67   2.75051e+67             0             0            -0             0             0
  -8.02634e+59  -1.47745e+59   2.54582e+62   2.75051e+67             0             0   2.75051e+67   2.75051e+67             0             0             0             0             0
  -8.02634e+59  -1.47745e+59   2.54582e+62  -2.75051e+67             0             0   2.75051e+67  -2.75051e+67             0             0             0             0            -0
  -8.02634e+59  -1.47745e+59   2.54582e+62  -2.75051e+67             0             0   2.75051e+67  -2.75051e+67             0             0            -0             0            -0
   -9.1336e+59  -2.44621e+59   2.33898e+62  -2.75051e+67             0             0   2.75051e+67  -2.75051e+67             0             0            -0             0             0
   -9.1336e+59  -2.44621e+59   2.33898e+62  -2.75051e+67             0             0   2.75051e+67  -2.75051e+67             0             0             0             0             0
   -9.1336e+59  -2.44621e+59   2.33898e+62   2.75051e+67             0             0   2.75051e+67   2.75051e+67             0             0             0             0            -0
   -9.1336e+59  -2.44621e+59   2.33898e+62   2.75051e+67             0             0   2.75051e+67   2.75051e+67             0             0            -0             0            -0
   -9.1336e+59  -2.44621e+59   2.33898e+62   2.75052e+67             0             0   2.75052e+67   2.75052e+67             0             0            -0             0             0
   -9.1336e+59  -2.44621e+59   2.33898e+62   2.75052e+67             0             0   2.75052e+67   2.75052e+67             0             0             0             0             0
   -9.1336e+59  -2.44621e+59   2.33898e+62  -2.75052e+67             0             0   2.75052e+67  -2.75052e+67             0             0             0             0            -0
   -9.1336e+59  -2.44621e+59   2.33898e+62  -2.75052e+67             0             0   2.75052e+67  -2.75052e+67             0             0            -0             0            -0
  -1.02409e+60  -3.41498e+59   2.13214e+62  -2.75052e+67             0             0   2.75052e+67  -2.75052e+67             0             0            -0             0             0
  -1.02409e+60  -3.41498e+59   2.13214e+62  -2.75052e+67             0             0   2.75052e+67  -2.75052e+67             0             0             0             0             0
  -1.02409e+60  -3.41498e+59   2.13214e+62   2.75052e+67             0             0   2.75052e+67   2.75052e+67             0             0             0             0            -0
  -1.02409e+60  -3.41498e+59   2.13214e+62   2.75052e+67             0             0   2.75052e+67   2.75052e+67             0             0            -0             0            -0
  -1.02409e+60  -3.41498e+59   2.13214e+62   2.75051e+67             0             0   2.75051e+67   2.75051e+67             0             0            -0             0             0
  -1.02409e+60  -3.41498e+59   2.13214e+62   2.75051e+67             0             0   2.75051e+67   2.75051e+67             0             0             0             0             0
  -1.02409e+60  -3.41498e+59   2.13214e+62  -2.75051e+67             0             0   2.75051e+67  -2.75051e+67             0             0             0             0            -0
  -1.02409e+60  -3.41498e+59   2.13214e+62  -2.75051e+67             0             0   2.75051e+67  -2.75051e+67             0             0            -0             0            -0
  -1.13481e+60  -4.38374e+59    1.9253e+62  -2.75051e+67             0             0   2.75051e+67  -2.75051e+67             0             0            -0             0             0
  -1.13481e+60  -4.38374e+59    1.9253e+62  -2.75051e+67             0             0   2.75051e+67  -2.75051e+67             0             0             0             0             0
  -1.13481e+60  -4.38374e+59    1.9253e+62   2.75051e+67             0             0   2.75051e+67   2.75051e+67             0             0             0             0            -0
  -1.13481e+60  -4.38374e+59    1.9253e+62   2.75051e+67             0             0   2.75051e+67   2.75051e+67             0             0            -0             0            -0
  -1.13481e+60  -4.38374e+59    1.9253e+62   2.75052e+67             0             0   2.75052e+67   2.75052e+67             0             0            -0             0             0
  -1.13481e+60  -4.38374e+59    1.9253e+62   2.75052e+67             0             0   2.75052e+67   2.75052e+67             0             0             0             0             0
  -1.13481e+60  -4.38374e+59    1.9253e+62  -2.75052e+67             0             0   2.75052e+67  -2.75052e+67             0             0             0             0            -0
  -1.13481e+60  -4.38374e+59    1.9253e+62  -2.75052e+67             0             0   2.75052e+67  -2.75052e+67             0             0            -0             0            -0
  -1.24554e+60  -5.35251e+59   1.71846e+62  -2.75052e+67             0             0   2.75052e+67  -2.75052e+67             0             0            -0             0             0
  -1.24554e+60  -5.35251e+59   1.71846e+62  -2.75052e+67             0             0   2.75052e+67  -2.75052e+67             0             0             0             0             0
  -1.24554e+60  -5.35251e+59   1.71846e+62   2.75052e+67             0             0   2.75052e+67   2.75052e+67             0             0             0             0            -0
  -1.24554e+60  -5.35251e+59   1.71846e+62   2.75052e+67             0             0   2.75052e+67   2.75052e+67             0             0            -0             0            -0
  -1.24554e+60  -5.35251e+59   1.71846e+62   2.75051e+67             0             0   2.75051e+67   2.75051e+67             0             0            -0             0             0
  -1.24554e+60  -5.35251e+59   1.71846e+62   2.75051e+67             0             0   2.75051e+67   2.75051e+67             0             0             0             0             0
  -1.24554e+60  -5.35251e+59   1.71846e+62  -2.75051e+67             0             0   2.75051e+67  -2.75051e+67             0             0             0             0            -0
  -1.24554e+60  -5.35251e+59   1.71846e+62  -2.75051e+67             0             0   2.75051e+67  -2.75051e+67             0             0            -0             0            -0
  -1.35626e+60  -6.32126e+59   1.51163e+62  -2.75051e+67             0             0   2.75051e+67  -2.75051e+67             0             0            -0             0             0
  -1.35626e+60  -6.32126e+59   1.51163e+62  -2.75051e+67             0             0   2.75051e+67  -2.75051e+67             0             0             0             0             0
  -1.35626e+60  -6.32126e+59   1.51163e+62   2.75051e+67             0             0   2.75051e+67   2.75051e+67             0             0             0             0            -0
  -1.35626e+60  -6.32126e+59   1.51163e+62   2.75051e+67             0             0   2.75051e+67   2.75051e+67             0             0            -0             0            -0
  -1.35626e+60  -6.32126e+59   1.51163e+62   2.75052e+67             0             0   2.75052e+67   2.75052e+67             0             0            -0             0             0
  -1.35626e+60  -6.32126e+59   1.51163e+62   2.75052e+67             0             0   2.75052e+67   2.75052e+67             0             0             0             0             0
  -1.35626e+60  -6.32126e+59   1.51163e+62  -2.75052e+67             0             0   2.75052e+67  -2.75052e+67             0             0             0             0            -0
  -1.35626e+60  -6.32126e+59   1.51163e+62  -2.75052e+67             0             0   2.75052e+67  -2.75052e+67             0             0            -0             0            -0
  -1.46699e+60  -7.29003e+59   1.30479e+62  -2.75052e+67             0             0   2.75052e+67  -2.75052e+67             0             0            -0             0             0
  -1.46699e+60  -7.29003e+59   1.30479e+62  -2.75052e+67             0             0   2.75052e+67  -2.75052e+67             0             0             0             0             0
  -1.46699e+60  -7.29003e+59   1.30479e+62   2.75052e+67             0             0   2.75052e+67   2.75052e+67             0             0             0             0            -0
  -1.46699e+60  -7.29003e+59   1.30479e+62   2.75052e+67             0             0   2.75052e+67   2.75052e+67             0             0            -0             0            -0
  -1.46699e+60  -7.29003e+59   1.30479e+62   2.75051e+67             0             0   2.75051e+67   2.75051e+67             0             0            -0             0             0
  -1.46699e+60  -7.29003e+59   1.30479e+62   2.75051e+67             0             0   2.75051e+67   2.75051e+67             0             0             0             0             0
  -1.46699e+60  -7.29003e+59   1.30479e+62  -2.75051e+67             0             0   2.75051e+67  -2.75051e+67             0             0             0             0            -0
  -1.46699e+60  -7.29003e+59   1.30479e+62  -2.75051e+67             0             0   2.75051e+67  -2.75051e+67             0             0            -0             0            -0
  -1.57771e+60  -8.25879e+59   1.09795e+62  -2.75051e+67             0             0   2.75051e+67  -2.75051e+67             0             0            -0             0             0
  -1.57771e+60  -8.25879e+59   1.09795e+62  -2.75051e+67             0             0   2.75051e+67  -2.75051e+67             0             0             0             0             0
  -1.57771e+60  -8.25879e+59   1.09795e+62   2.75051e+67             0             0   2.75051e+67   2.75051e+67             0             0             0             0            -0
  -1.57771e+60  -8.25879e+59   1.09795e+62   2.75051e+67             0             0   2.75051e+67   2.75051e+67             0             0            -0             0            -0
  -1.57771e+60  -8.25879e+59   1.09795e+62   2.75052e+67             0             0   2.75052e+67   2.75052e+67             0             0            -0             0             0
  -1.57771e+60  -8.25879e+59   1.09795e+62   2.75052e+67             0             0   2.75052e+67   2.75052e+67             0             0             0             0             0
  -1.57771e+60  -8.25879e+59   1.09795e+62  -2.75052e+67             0             0   2.75052e+67  -2.75052e+67             0             0             0             0            -0
  -1.57771e+60  -8.25879e+59   1.09795e+62  -2.75052e+67             0             0   2.75052e+67  -2.75052e+67             0             0            -0             0            -0
  -1.68844e+60  -9.22756e+59    8.9111e+61  -2.75052e+67             0             0   2.75052e+67  -2.75052e+67             0             0            -0             0             0
  -1.68844e+60  -9.22756e+59    8.9111e+61  -2.75052e+67             0             0   2.75052e+67  -2.75052e+67             0             0             0             0             0
  -1.68844e+60  -9.22756e+59    8.9111e+61   2.75052e+67             0             0   2.75052e+67   2.75052e+67             0             0             0             0            -0
  -1.68844e+60  -9.22756e+59    8.9111e+61   2.75052e+67             0             0   2.75052e+67   2.75052e+67             0             0            -0             0            -0
  -1.68844e+60  -9.22756e+59    8.9111e+61   2.75051e+67             0             0   2.75051e+67   2.75051e+67             0             0            -0             0             0
  -1.68844e+60  -9.22756e+59    8.9111e+61   2.75051e+67             0             0   2.75051e+67   2.75051e+67             0             0             0             0             0
  -1.68844e+60  -9.22756e+59    8.9111e+61  -2.75051e+67             0             0   2.75051e+67  -2.75051e+67             0             0             0             0            -0
  -1.68844e+60  -9.22756e+59    8.9111e+61  -2.75051e+67             0             0   2.75051e+67  -2.75051e+67             0             0            -0             0            -0
  -1.79916e+60  -1.01963e+60   6.84273e+61  -2.75051e+67             0             0   2.75051e+67  -2.75051e+67             0             0            -0             0             0
  -1.79916e+60  -1.01963e+60   6.84273e+61  -2.75051e+67             0             0   2.75051e+67  -2.75051e+67             0             0             0             0             0
  -1.79916e+60  -1.01963e+60   6.84273e+61   2.75051e+67             0             0   2.75051e+67   2.75051e+67             0             0             0             0            -0
  -1.79916e+60  -1.01963e+60   6.84273e+61   2.75051e+67             0             0   2.75051e+67   2.75051e+67             0             0            -0             0            -0
  -1.79916e+60  -1.01963e+60   6.84273e+61   2.75052e+67             0             0   2.75052e+67   2.75052e+67             0             0            -0             0             0
  -1.79916e+60  -1.01963e+60   6.84273e+61   2.75052e+67             0             0   2.75052e+67   2.75052e+67             0             0             0             0             0
  -1.79916e+60  -1.01963e+60   6.84273e+61  -2.75052e+67             0             0   2.75052e+67  -2.75052e+67             0             0             0             0            -0
  -1.79916e+60  -1.01963e+60   6.84273e+61  -2.75052e+67             0             0   2.75052e+67  -2.75052e+67             0             0            -0             0            -0
  -1.90989e+60  -1.11651e+60   4.77434e+61  -2.75052e+67             0             0   2.75052e+67  -2.75052e+67             0             0            -0             0             0
  -1.90989e+60  -1.11651e+60   4.77434e+61  -2.75052e+67             0             0   2.75052e+67  -2.75052e+67             0             0             0             0             0
  -1.90989e+60  -1.11651e+60   4.77434e+61   2.75052e+67             0             0   2.75052e+67   2.75052e+67             0             0             0             0            -0
  -1.90989e+60  -1.11651e+60   4.77434e+61   2.75052e+67             0             0   2.75052e+67   2.75052e+67             0             0            -0             0            -0
  -1.90989e+60  -1.11651e+60   4.77434e+61   2.75051e+67             0             0   2.75051e+67   2.75051e+67             0             0            -0             0             0
  -1.90989e+60  -1.11651e+60   4.77434e+61   2.75051e+67             0             0   2.75051e+67   2.75051e+67             0             0             0             0             0
  -1.90989e+60  -1.11651e+60   4.77434e+61  -2.75051e+67             0             0   2.75051e+67  -2.75051e+67             0             0             0             0            -0
  -1.90989e+60  -1.11651e+60   4.77434e+61  -2.75051e+67             0             0   2.75051e+67  -2.75051e+67             0             0            -0             0            -0
  -2.02061e+60  -1.21338e+60   2.70596e+61  -2.75051e+67             0             0   2.75051e+67  -2.75051e+67             0             0            -0             0             0
  -2.02061e+60  -1.21338e+60   2.70596e+61  -2.75051e+67             0             0   2.75051e+67  -2.75051e+67             0             0             0             0             0
  -2.02061e+60  -1.21338e+60   2.70596e+61   2.75051e+67             0             0   2.75051e+67   2.75051e+67             0             0             0             0            -0
  -2.02061e+60  -1.21338e+60   2.70596e+61   2.75051e+67             0             0   2.75051e+67   2.75051e+67             0             0            -0             0            -0
  -2.02061e+60  -1.21338e+60   2.70596e+61   2.75052e+67             0             0   2.75052e+67   2.75052e+67             0             0            -0             0             0
  -2.02061e+60  -1.21338e+60   2.70596e+61   2.75052e+67             0             0   2.75052e+67   2.75052e+67             0             0             0             0             0
  -2.02061e+60  -1.21338e+60   2.70596e+61  -2.75052e+67             0             0   2.75052e+67  -2.75052e+67             0             0             0             0            -0
  -2.02061e+60  -1.21338e+60   2.70596e+61  -2.75052e+67             0             0   2.75052e+67  -2.75052e+67             0             0            -0             0            -0
  -2.13134e+60  -1.31026e+60   6.37566e+60  -2.75052e+67             0             0   2.75052e+67  -2.75052e+67             0             0            -0             0             0
  -2.13134e+60  -1.31026e+60   6.37566e+60  -2.75052e+67             0             0   2.75052e+67  -2.75052e+67             0             0             0             0             0
  -2.13134e+60  -1.31026e+60   6.37566e+60   2.75052e+67             0             0   2.75052e+67   2.75052e+67             0             0             0             0            -0
  -2.13134e+60  -1.31026e+60   6.37566e+60   2.75052e+67             0             0   2.75052e+67   2.75052e+67             0             0            -0             0            -0
  -1.00852e+61   -3.2978e+59   4.72279e+62  -1.79262e+69             0             0   1.79262e+69  -1.79262e+69             0             0            -0             0             0
  -1.00852e+61   -3.2978e+59   4.72279e+62  -1.79262e+69             0             0   1.79262e+69  -1.79262e+69             0             0             0             0             0
  -1.00852e+61   -3.2978e+59   4.72279e+62   1.79262e+69             0             0   1.79262e+69   1.79262e+69             0             0             0             0            -0
  -1.00852e+61   -3.2978e+59   4.72279e+62   1.79262e+69             0             0   1.79262e+69   1.79262e+69             0             0            -0             0            -0
  -4.03721e+60  -3.75689e+59   4.73954e+62   1.79262e+69             0             0   1.79262e+69   1.79262e+69             0             0            -0             0             0
  -4.03721e+60  -3.75689e+59   4.73954e+62   1.79262e+69             0             0   1.79262e+69   1.79262e+69             0             0             0             0             0
  -4.03721e+60  -3.75689e+59   4.73954e+62  -1.79262e+69             0             0   1.79262e+69  -1.79262e+69             0             0             0             0            -0
  -4.03721e+60  -3.75689e+59   4.73954e+62  -1.79262e+69             0             0   1.79262e+69  -1.79262e+69             0             0            -0             0            -0
  -4.03721e+60  -3.75689e+59   4.73954e+62  -1.79262e+69             0             0   1.79262e+69  -1.79262e+69             0             0            -0             0             0
  -4.03721e+60  -3.75689e+59   4.73954e+62  -1.79262e+69             0             0   1.79262e+69  -1.79262e+69             0             0             0             0             0
  -4.03721e+60  -3.75689e+59   4.73954e+62   1.79262e+69             0             0   1.79262e+69   1.79262e+69             0             0             0             0            -0
  -4.03721e+60  -3.75689e+59   4.73954e+62   1.79262e+69             0             0   1.79262e+69   1.79262e+69             0             0            -0             0            -0
   2.01077e+60  -4.21599e+59    4.7563e+62   1.79262e+69             0             0   1.79262e+69   1.79262e+69             0             0            -0             0             0
   2.01077e+60  -4.21599e+59    4.7563e+62   1.79262e+69             0             0   1.79262e+69   1.79262e+69             0             0             0             0             0
   2.01077e+60  -4.21599e+59    4.7563e+62  -1.79262e+69             0             0   1.79262e+69  -1.79262e+69             0             0             0             0            -0
   2.01077e+60  -4.21599e+59    4.7563e+62  -1.79262e+69             0             0   1.79262e+69  -1.79262e+69             0             0            -0             0            -0
   2.01077e+60  -4.21599e+59    4.7563e+62  -1.79262e+69             0             0   1.79262e+69  -1.79262e+69             0             0            -0             0             0
   2.01077e+60  -4.21599e+59    4.7563e+62  -1.79262e+69             0             0   1.79262e+69  -1.79262e+69             0             0             0             0             0
   2.01077e+60  -4.21599e+59    4.7563e+62   1.79262e+69             0             0   1.79262e+69   1.79262e+69             0             0             0             0            -0
   2.01077e+60  -4.21599e+59    4.7563e+62   1.79262e+69             0             0   1.79262e+69   1.79262e+69             0             0            -0             0            -0
   8.05876e+60  -4.67508e+59   4.77306e+62   1.79262e+69             0             0   1.79262e+69   1.79262e+69             0             0            -0             0             0
   8.05876e+60  -4.67508e+59   4.77306e+62   1.79262e+69             0             0   1.79262e+69   1.79262e+69             0             0             0             0             0
   8.05876e+60  -4.67508e+59   4.77306e+62  -1.79262e+69             0             0   1.79262e+69  -1.79262e+69             0             0             0             0            -0
   8.05876e+60  -4.67508e+59   4.77306e+62  -1.79262e+69             0             0   1.79262e+69  -1.79262e+69             0             0            -0             0            -0
   8.05876e+60  -4.67508e+59   4.77306e+62  -1.79262e+69             0             0   1.79262e+69  -1.79262e+69             0             0            -0             0             0
   8.05876e+60  -4.67508e+59   4.77306e+62  -1.79262e+69             0             0   1.79262e+69  -1.79262e+69             0             0             0             0             0
   8.05876e+60  -4.67508e+59   4.77306e+62   1.79262e+69             0             0   1.79262e+69   1.79262e+69             0             0             0             0            -0
   8.05876e+60  -4.67508e+59   4.77306e+62   1.79262e+69             0             0   1.79262e+69   1.79262e+69             0             0            -0             0            -0
   1.41067e+61  -5.13417e+59   4.78981e+62   1.79262e+69             0             0   1.79262e+69   1.79262e+69             0             0            -0             0             0
   1.41067e+61  -5.13417e+59   4.78981e+62   1.79262e+69             0             0   1.79262e+69   1.79262e+69             0             0             0             0             0
   1.41067e+61  -5.13417e+59   4.78981e+62  -1.79262e+69             0             0   1.79262e+69  -1.79262e+69             0             0             0             0            -0
   1.41067e+61  -5.13417e+59   4.78981e+62  -1.79262e+69             0             0   1.79262e+69  -1.79262e+69             0             0            -0             0            -0
   1.41067e+61  -5.13417e+59   4.78981e+62  -1.79262e+69             0             0   1.79262e+69  -1.79262e+69             0             0            -0             0             0
   1.41067e+61  -5.13417e+59   4.78981e+62  -1.79262e+69             0             0   1.79262e+69  -1.79262e+69             0             0             0             0             0
   1.41067e+61  -5.13417e+59   4.78981e+62   1.79262e+69             0             0   1.79262e+69   1.79262e+69             0             0             0             0            -0
   1.41067e+61  -5.13417e+59   4.78981e+62   1.79262e+69             0             0   1.79262e+69   1.79262e+69             0             0            -0             0            -0
   2.01547e+61  -5.59326e+59   4.80657e+62   1.79262e+69             0             0   1.79262e+69   1.79262e+69             0             0            -0             0             0
   2.01547e+61  -5.59326e+59   4.80657e+62   1.79262e+69             0             0   1.79262e+69   1.79262e+69             0             0             0             0             0
   2.01547e+61  -5.59326e+59   4.80657e+62  -1.79262e+69             0             0   1.79262e+69  -1.79262e+69             0             0             0             0            -0
   2.01547e+61  -5.59326e+59   4.80657e+62  -1.79262e+69             0             0   1.79262e+69  -1.79262e+69             0             0            -0             0            -0
   2.01547e+61  -5.59326e+59   4.80657e+62  -1.79262e+69             0             0   1.79262e+69  -1.79262e+69             0             0            -0             0             0
   2.01547e+61  -5.59326e+59   4.80657e+62  -1.79262e+69             0             0   1.79262e+69  -1.79262e+69             0             0             0             0             0
   2.01547e+61  -5.59326e+59   4.80657e+62   1.79262e+69             0             0   1.79262e+69   1.79262e+69             0             0             0             0            -0
   2.01547e+61  -5.59326e+59   4.80657e+62   1.79262e+69             0             0   1.79262e+69   1.79262e+69             0             0            -0             0            -0
   2.62027e+61  -6.05235e+59   4.82332e+62   1.79262e+69             0             0   1.79262e+69   1.79262e+69             0             0            -0             0             0
   2.62027e+61  -6.05235e+59   4.82332e+62   1.79262e+69             0             0   1.79262e+69   1.79262e+69             0             0             0             0             0
   2.62027e+61  -6.05235e+59   4.82332e+62  -1.79262e+69             0             0   1.79262e+69  -1.79262e+69             0             0             0             0            -0
   2.62027e+61  -6.05235e+59   4.82332e+62  -1.79262e+69             0             0   1.79262e+69  -1.79262e+69             0             0            -0             0            -0
   2.62027e+61  -6.05235e+59   4.82332e+62  -1.79262e+69             0             0   1.79262e+69  -1.79262e+69             0             0            -0             0             0
   2.62027e+61  -6.05235e+59   4.82332e+62  -1.79262e+69             0             0   1.79262e+69  -1.79262e+69             0             0             0             0             0
   2.62027e+61  -6.05235e+59   4.82332e+62   1.79262e+69             0             0   1.79262e+69   1.79262e+69             0             0             0             0            -0
   2.62027e+61  -6.05235e+59   4.82332e+62   1.79262e+69             0             0   1.79262e+69   1.79262e+69             0             0            -0             0            -0
   3.22507e+61  -6.51144e+59   4.84008e+62   1.79262e+69             0             0   1.79262e+69   1.79262e+69             0             0            -0             0             0
   3.22507e+61  -6.51144e+59   4.84008e+62   1.79262e+69             0             0   1.79262e+69   1.79262e+69             0             0             0             0             0
   3.22507e+61  -6.51144e+59   4.84008e+62  -1.79262e+69             0             0   1.79262e+69  -1.79262e+69             0             0             0             0            -0
   3.22507e+61  -6.51144e+59   4.84008e+62  -1.79262e+69             0             0   1.79262e+69  -1.79262e+69             0             0            -0             0            -0
   3.22507e+61  -6.51144e+59   4.84008e+62  -1.79262e+69             0             0   1.79262e+69  -1.79262e+69             0             0            -0             0             0
   3.22507e+61  -6.51144e+59   4.84008e+62  -1.79262e+69             0             0   1.79262e+69  -1.79262e+69             0             0             0             0             0
   3.22507e+61  -6.51144e+59   4.84008e+62   1.79262e+69             0             0   1.79262e+69   1.79262e+69             0             0             0             0            -0
   3.22507e+61  -6.51144e+59   4.84008e+62   1.79262e+69             0             0   1.79262e+69   1.79262e+69             0             0            -0             0            -0
   3.82987e+61  -6.97053e+59   4.85683e+62   1.79262e+69             0             0   1.79262e+69   1.79262e+69             0             0            -0             0             0
   3.82987e+61  -6.97053e+59   4.85683e+62   1.79262e+69             0             0   1.79262e+69   1.79262e+69             0             0             0             0             0
   3.82987e+61  -6.97053e+59   4.85683e+62  -1.79262e+69             0             0   1.79262e+69  -1.79262e+69             0             0             0             0            -0
   3.82987e+61  -6.97053e+59   4.85683e+62  -1.79262e+69             0             0   1.79262e+69  -1.79262e+69             0             0            -0             0            -0
   6.57526e+61   8.26542e+59   2.79276e+62  -6.07562e+68             0             0   6.07562e+68  -6.07562e+68             0             0            -0             0             0
   6.57526e+61   8.26542e+59   2.79276e+62  -6.07562e+68             0             0   6.07562e+68  -6.07562e+68             0             0             0             0             0
   6.57526e+61   8.26542e+59   2.79276e+62   6.07562e+68             0             0   6.07562e+68   6.07562e+68             0             0             0             0            -0
   6.57526e+61   8.26542e+59   2.79276e+62   6.07562e+68             0             0   6.07562e+68   6.07562e+68             0             0            -0             0            -0
   6.12271e+61   6.84089e+59   2.61083e+62   6.07562e+68             0             0   6.07562e+68   6.07562e+68             0             0            -0             0             0
   6.12271e+61   6.84089e+59   2.61083e+62   6.07562e+68             0             0   6.07562e+68   6.07562e+68             0             0             0             0             0
   6.12271e+61   6.84089e+59   2.61083e+62  -6.07562e+68             0             0   6.07562e+68  -6.07562e+68             0             0             0             0            -0
   6.12271e+61   6.84089e+59   2.61083e+62  -6.07562e+68             0             0   6.07562e+68  -6.07562e+68             0             0            -0             0            -0
   6.12271e+61   6.84089e+59   2.61083e+62  -6.07571e+68             0             0   6.07571e+68  -6.07571e+68             0             0            -0             0             0
   6.12271e+61   6.84089e+59   2.61083e+62  -6.07571e+68             0             0   6.07571e+68  -6.07571e+68             0             0             0             0             0
   6.12271e+61   6.84089e+59   2.61083e+62   6.07571e+68             0             0   6.07571e+68   6.07571e+68             0             0             0             0            -0
   6.12271e+61   6.84089e+59   2.61083e+62   6.07571e+68             0             0   6.07571e+68   6.07571e+68             0             0            -0             0            -0
   5.67014e+61   5.41635e+59   2.42889e+62   6.07571e+68             0             0   6.07571e+68   6.07571e+68             0             0            -0             0             0
   5.67014e+61   5.41635e+59   2.42889e+62   6.07571e+68             0             0   6.07571e+68   6.07571e+68             0             0             0             0             0
   5.67014e+61   5.41635e+59   2.42889e+62  -6.07571e+68             0             0   6.07571e+68  -6.07571e+68             0             0             0             0            -0
   5.67014e+61   5.41635e+59   2.42889e+62  -6.07571e+68             0             0   6.07571e+68  -6.07571e+68             0             0            -0             0            -0
   5.67014e+61   5.41635e+59   2.42889e+62  -6.07562e+68             0             0   6.07562e+68  -6.07562e+68             0             0            -0             0             0
   5.67014e+61   5.41635e+59   2.42889e+62  -6.07562e+68             0             0   6.07562e+68  -6.07562e+68             0             0             0             0             0
   5.67014e+61   5.41635e+59   2.42889e+62   6.07562e+68             0             0   6.07562e+68   6.07562e+68             0             0             0             0            -0
   5.67014e+61   5.41635e+59   2.42889e+62   6.07562e+68             0             0   6.07562e+68   6.07562e+68             0             0            -0             0            -0
   5.21758e+61   3.99182e+59   2.24696e+62   6.07562e+68             0             0   6.07562e+68   6.07562e+68             0             0            -0             0             0
   5.21758e+61   3.99182e+59   2.24696e+62   6.07562e+68             0             0   6.07562e+68   6.07562e+68             0             0             0             0             0
   5.21758e+61   3.99182e+59   2.24696e+62  -6.07562e+68             0             0   6.07562e+68  -6.07562e+68             0             0             0             0            -0
   5.21758e+61   3.99182e+59   2.24696e+62  -6.07562e+68             0             0   6.07562e+68  -6.07562e+68             0             0            -0             0            -0
   5.21758e+61   3.99182e+59   2.24696e+62  -6.07562e+68             0             0   6.07562e+68  -6.07562e+68             0             0            -0             0             0
   5.21758e+61   3.99182e+59   2.24696e+62  -6.07562e+68             0             0   6.07562e+68  -6.07562e+68             0             0             0             0             0
   5.21758e+61   3.99182e+59   2.24696e+62   6.07562e+68             0             0   6.07562e+68   6.07562e+68             0             0             0             0            -0
   5.21758e+61   3.99182e+59   2.24696e+62   6.07562e+68             0             0   6.07562e+68   6.07562e+68             0             0            -0             0            -0
   4.76503e+61   2.56728e+59   2.06503e+62   6.07562e+68             0             0   6.07562e+68   6.07562e+68             0             0            -0             0             0
   4.76503e+61   2.56728e+59   2.06503e+62   6.07562e+68             0             0   6.07562e+68   6.07562e+68             0             0             0             0             0
   4.76503e+61   2.56728e+59   2.06503e+62  -6.07562e+68             0             0   6.07562e+68  -6.07562e+68             0             0             0             0            -0
   4.76503e+61   2.56728e+59   2.06503e+62  -6.07562e+68             0             0   6.07562e+68  -6.07562e+68             0             0            -0             0            -0
   4.76503e+61   2.56728e+59   2.06503e+62  -6.07571e+68             0             0   6.07571e+68  -6.07571e+68             0             0            -0             0             0
   4.76503e+61   2.56728e+59   2.06503e+62  -6.07571e+68             0             0   6.07571e+68  -6.07571e+68             0             0             0             0             0
   4.76503e+61   2.56728e+59   2.06503e+62   6.07571e+68             0             0   6.07571e+68   6.07571e+68             0             0             0             0            -0
   4.76503e+61   2.56728e+59   2.06503e+62   6.07571e+68             0             0   6.07571e+68   6.07571e+68             0             0            -0             0            -0
   4.31246e+61   1.14274e+59   1.88309e+62   6.07571e+68             0             0   6.07571e+68   6.07571e+68             0             0            -0             0             0
   4.31246e+61   1.14274e+59   1.88309e+62   6.07571e+68             0             0   6.07571e+68   6.07571e+68             0             0             0             0             0
   4.31246e+61   1.14274e+59   1.88309e+62  -6.07571e+68             0             0   6.07571e+68  -6.07571e+68             0             0             0             0            -0
   4.31246e+61   1.14274e+59   1.88309e+62  -6.07571e+68             0             0   6.07571e+68  -6.07571e+68             0             0            -0             0            -0
   4.31246e+61   1.14274e+59   1.88309e+62  -6.07562e+68             0             0   6.07562e+68  -6.07562e+68             0             0            -0             0             0
   4.31246e+61   1.14274e+59   1.88309e+62  -6.07562e+68             0             0   6.07562e+68  -6.07562e+68             0             0             0             0             0
   4.31246e+61   1.14274e+59   1.88309e+62   6.07562e+68             0             0   6.07562e+68   6.07562e+68             0             0             0             0            -0
   4.31246e+61   1.14274e+59   1.88309e+62   6.07562e+68             0             0   6.07562e+68   6.07562e+68             0             0            -0             0            -0
    3.8599e+61  -2.81792e+58   1.70116e+62   6.07562e+68             0             0   6.07562e+68   6.07562e+68             0             0            -0             0             0
    3.8599e+61  -2.81792e+58   1.70116e+62   6.07562e+68             0             0   6.07562e+68   6.07562e+68             0             0             0             0             0
    3.8599e+61  -2.81792e+58   1.70116e+62  -6.07562e+68             0             0   6.07562e+68  -6.07562e+68             0             0             0             0            -0
    3.8599e+61  -2.81792e+58   1.70116e+62  -6.07562e+68             0             0   6.07562e+68  -6.07562e+68             0             0            -0             0            -0
    3.8599e+61  -2.81792e+58   1.70116e+62  -6.07562e+68             0             0   6.07562e+68  -6.07562e+68             0             0            -0             0             0
    3.8599e+61  -2.81792e+58   1.70116e+62  -6.07562e+68             0             0   6.07562e+68  -6.07562e+68             0             0             0             0             0
    3.8599e+61  -2.81792e+58   1.70116e+62   6.07562e+68             0             0   6.07562e+68   6.07562e+68             0             0             0             0            -0
    3.8599e+61  -2.81792e+58   1.70116e+62   6.07562e+68             0             0   6.07562e+68   6.07562e+68             0             0            -0             0            -0
   3.40735e+61  -1.70632e+59   1.51923e+62   6.07562e+68             0             0   6.07562e+68   6.07562e+68             0             0            -0             0             0
   3.40735e+61  -1.70632e+59   1.51923e+62   6.07562e+68             0             0   6.07562e+68   6.07562e+68             0             0             0             0             0
   3.40735e+61  -1.70632e+59   1.51923e+62  -6.07562e+68             0             0   6.07562e+68  -6.07562e+68             0             0             0             0            -0
   3.40735e+61  -1.70632e+59   1.51923e+62  -6.07562e+68             0             0   6.07562e+68  -6.07562e+68             0             0            -0             0            -0
   3.40735e+61  -1.70632e+59   1.51923e+62  -6.07571e+68             0             0   6.07571e+68  -6.07571e+68             0             0            -0             0             0
   3.40735e+61  -1.70632e+59   1.51923e+62  -6.07571e+68             0             0   6.07571e+68  -6.07571e+68             0             0             0             0             0
   3.40735e+61  -1.70632e+59   1.51923e+62   6.07571e+68             0             0   6.07571e+68   6.07571e+68             0             0             0             0            -0
   3.40735e+61  -1.70632e+59   1.51923e+62   6.07571e+68             0             0   6.07571e+68   6.07571e+68             0             0            -0             0            -0
   2.95478e+61  -3.13087e+59   1.33729e+62   6.07571e+68             0             0   6.07571e+68   6.07571e+68             0             0            -0             0             0
   2.95478e+61  -3.13087e+59   1.33729e+62   6.07571e+68             0             0   6.07571e+68   6.07571e+68             0             0             0             0             0
   2.95478e+61  -3.13087e+59   1.33729e+62  -6.07571e+68             0             0   6.07571e+68  -6.07571e+68             0             0             0             0            -0
   2.95478e+61  -3.13087e+59   1.33729e+62  -6.07571e+68             0             0   6.07571e+68  -6.07571e+68             0             0            -0             0            -0
   2.95478e+61  -3.13087e+59   1.33729e+62  -6.07562e+68             0             0   6.07562e+68  -6.07562e+68             0             0            -0             0             0
   2.95478e+61  -3.13087e+59   1.33729e+62  -6.07562e+68             0             0   6.07562e+68  -6.07562e+68             0             0             0             0             0
   2.95478e+61  -3.13087e+59   1.33729e+62   6.07562e+68             0             0   6.07562e+68   6.07562e+68             0             0             0             0            -0
   2.95478e+61  -3.13087e+59   1.33729e+62   6.07562e+68             0             0   6.07562e+68   6.07562e+68             0             0            -0             0            -0
   2.50222e+61   -4.5554e+59   1.15536e+62   6.07562e+68             0             0   6.07562e+68   6.07562e+68             0             0            -0             0             0
   2.50222e+61   -4.5554e+59   1.15536e+62   6.07562e+68             0             0   6.07562e+68   6.07562e+68             0             0             0             0             0
   2.50222e+61   -4.5554e+59   1.15536e+62  -6.07562e+68             0             0   6.07562e+68  -6.07562e+68             0             0             0             0            -0
   2.50222e+61   -4.5554e+59   1.15536e+62  -6.07562e+68             0             0   6.07562e+68  -6.07562e+68             0             0            -0             0            -0
   2.50222e+61   -4.5554e+59   1.15536e+62  -6.07562e+68             0             0   6.07562e+68  -6.07562e+68             0             0            -0             0             0
   2.50222e+61   -4.5554e+59   1.15536e+62  -6.07562e+68             0             0   6.07562e+68  -6.07562e+68             0             0             0             0             0
   2.50222e+61   -4.5554e+59   1.15536e+62   6.07562e+68             0             0   6.07562e+68   6.07562e+68             0             0             0             0            -0
   2.50222e+61   -4.5554e+59   1.15536e+62   6.07562e+68             0             0   6.07562e+68   6.07562e+68             0             0            -0             0            -0
   2.04967e+61  -5.97993e+59   9.73425e+61   6.07562e+68             0             0   6.07562e+68   6.07562e+68             0             0            -0             0             0
   2.04967e+61  -5.97993e+59   9.73425e+61   6.07562e+68             0             0   6.07562e+68   6.07562e+68             0             0             0             0             0
   2.04967e+61  -5.97993e+59   9.73425e+61  -6.07562e+68             0             0   6.07562e+68  -6.07562e+68             0             0             0             0            -0
   2.04967e+61  -5.97993e+59   9.73425e+61  -6.07562e+68             0             0   6.07562e+68  -6.07562e+68             0             0            -0             0            -0
   2.04967e+61  -5.97993e+59   9.73425e+61  -6.07571e+68             0             0   6.07571e+68  -6.07571e+68             0             0            -0             0             0
   2.04967e+61  -5.97993e+59   9.73425e+61  -6.07571e+68             0             0   6.07571e+68  -6.07571e+68             0             0             0             0             0
   2.04967e+61  -5.97993e+59   9.73425e+61   6.07571e+68             0             0   6.07571e+68   6.07571e+68             0             0             0             0            -0
   2.04967e+61  -5.97993e+59   9.73425e+61   6.07571e+68             0             0   6.07571e+68   6.07571e+68             0             0            -0             0            -0
    1.5971e+61  -7.40448e+59    7.9149e+61   6.07571e+68             0             0   6.07571e+68   6.07571e+68             0             0            -0             0             0
    1.5971e+61  -7.40448e+59    7.9149e+61   6.07571e+68             0             0   6.07571e+68   6.07571e+68             0             0             0             0             0
    1.5971e+61  -7.40448e+59    7.9149e+61  -6.07571e+68             0             0   6.07571e+68  -6.07571e+68             0             0             0             0            -0
    1.5971e+61  -7.40448e+59    7.9149e+61  -6.07571e+68             0             0   6.07571e+68  -6.07571e+68             0             0            -0             0            -0
    1.5971e+61  -7.40448e+59    7.9149e+61  -6.07562e+68             0             0   6.07562e+68  -6.07562e+68             0             0            -0             0             0
    1.5971e+61  -7.40448e+59    7.9149e+61  -6.07562e+68             0             0   6.07562e+68  -6.07562e+68             0             0             0             0             0
    1.5971e+61  -7.40448e+59    7.9149e+61   6.07562e+68             0             0   6.07562e+68   6.07562e+68             0             0             0             0            -0
    1.5971e+61  -7.40448e+59    7.9149e+61   6.07562e+68             0             0   6.07562e+68   6.07562e+68             0             0            -0             0            -0
   1.14455e+61  -8.82901e+59   6.09557e+61   6.07562e+68             0             0   6.07562e+68   6.07562e+68             0             0            -0             0             0
   1.14455e+61  -8.82901e+59   6.09557e+61   6.07562e+68             0             0   6.07562e+68   6.07562e+68             0             0             0             0             0
   1.14455e+61  -8.82901e+59   6.09557e+61  -6.07562e+68             0             0   6.07562e+68  -6.07562e+68             0             0             0             0            -0
   1.14455e+61  -8.82901e+59   6.09557e+61  -6.07562e+68             0             0   6.07562e+68  -6.07562e+68             0             0            -0             0            -0
   1.14455e+61  -8.82901e+59   6.09557e+61  -6.07562e+68             0             0   6.07562e+68  -6.07562e+68             0             0            -0             0             0
   1.14455e+61  -8.82901e+59   6.09557e+61  -6.07562e+68             0             0   6.07562e+68  -6.07562e+68             0             0             0             0             0
   1.14455e+61  -8.82901e+59   6.09557e+61   6.07562e+68             0             0   6.07562e+68   6.07562e+68             0             0             0             0            -0
   1.14455e+61  -8.82901e+59   6.09557e+61   6.07562e+68             0             0   6.07562e+68   6.07562e+68             0             0            -0             0            -0
   6.91989e+60  -1.02535e+60   4.27625e+61   6.07562e+68             0             0   6.07562e+68   6.07562e+68             0             0            -0             0             0
   6.91989e+60  -1.02535e+60   4.27625e+61   6.07562e+68             0             0   6.07562e+68   6.07562e+68             0             0             0             0             0
   6.91989e+60  -1.02535e+60   4.27625e+61  -6.07562e+68             0             0   6.07562e+68  -6.07562e+68             0             0             0             0            -0
   6.91989e+60  -1.02535e+60   4.27625e+61  -6.07562e+68             0             0   6.07562e+68  -6.07562e+68             0             0            -0             0            -0
   6.91989e+60  -1.02535e+60   4.27625e+61  -6.07571e+68             0             0   6.07571e+68  -6.07571e+68             0             0            -0             0             0
   6.91989e+60  -1.02535e+60   4.27625e+61  -6.07571e+68             0             0   6.07571e+68  -6.07571e+68             0             0             0             0             0
   6.91989e+60  -1.02535e+60   4.27625e+61   6.07571e+68             0             0   6.07571e+68   6.07571e+68             0             0             0             0            -0
   6.91989e+60  -1.02535e+60   4.27625e+61   6.07571e+68             0             0   6.07571e+68   6.07571e+68             0             0            -0             0            -0
   2.39422e+60  -1.16781e+60   2.45689e+61   6.07571e+68             0             0   6.07571e+68   6.07571e+68             0             0            -0             0             0
   2.39422e+60  -1.16781e+60   2.45689e+61   6.07571e+68             0             0   6.07571e+68   6.07571e+68             0             0             0             0             0
   2.39422e+60  -1.16781e+60   2.45689e+61  -6.07571e+68             0             0   6.07571e+68  -6.07571e+68             0             0             0             0            -0
   2.39422e+60  -1.16781e+60   2.45689e+61  -6.07571e+68             0             0   6.07571e+68  -6.07571e+68             0             0            -0             0            -0
   2.39422e+60  -1.16781e+60   2.45689e+61  -6.07562e+68             0             0   6.07562e+68  -6.07562e+68             0             0            -0             0             0
   2.39422e+60  -1.16781e+60   2.45689e+61  -6.07562e+68             0             0   6.07562e+68  -6.07562e+68             0             0             0             0             0
   2.39422e+60  -1.16781e+60   2.45689e+61   6.07562e+68             0             0   6.07562e+68   6.07562e+68             0             0             0             0            -0
   2.39422e+60  -1.16781e+60   2.45689e+61   6.07562e+68             0             0   6.07562e+68   6.07562e+68             0             0            -0             0            -0
  -2.13134e+60  -1.31026e+60   6.37566e+60   6.07562e+68             0             0   6.07562e+68   6.07562e+68             0             0            -0             0             0
  -2.13134e+60  -1.31026e+60   6.37566e+60   6.07562e+68             0             0   6.07562e+68   6.07562e+68             0             0             0             0             0
  -2.13134e+60  -1.31026e+60   6.37566e+60  -6.07562e+68             0             0   6.07562e+68  -6.07562e+68             0             0             0             0            -0
  -2.13134e+60  -1.31026e+60   6.37566e+60  -6.07562e+68             0             0   6.07562e+68  -6.07562e+68             0             0            -0             0            -0
             1             2             3             4             5             6             7             8
             9            10            11            12            13            14            15            16
            17            18            19            20            21            22            23            24
            25            26            27            28            29            30            31            32
            33            34            35            36            37            38            39            40
            41            42            43            44            45            46            47            48
            49            50            51            52            53            54            55            56
            57            58            59            60            61            62            63            64
            65            66            67            68            69            70            71            72
            73            74            75            76            77            78            79            80
            81            82            83            84            85            86            87            88
            89            90            91            92            93            94            95            96
            97            98            99           100           101           102           103           104
           105           106           107           108           109           110           111           112
           113           114           115           116           117           118           119           120
           121           122           123           124           125           126           127           128
           129           130           131           132           133           134           135           136
           137           138           139           140           141           142           143           144
           145           146           147           148           149           150           151           152
           153           154           155           156           157           158           159           160
           161           162           163           164           165           166           167           168
           169           170           171           172           173           174           175           176
           177           178           179           180           181           182           183           184
           185           186           187           188           189           190           191           192
           193           194           195           196           197           198           199           200
           201           202           203           204           205           206           207           208
           209           210           211           212           213           214           215           216
           217           218           219           220           221           222           223           224
           225           226           227           228           229           230           231           232
           233           234           235           236           237           238           239           240
           241           242           243           244           245           246           247           248
           249           250           251           252           253           254           255           256
           257           258           259           260           261           262           263           264
           265           266           267           268           269           270           271           272
           273           274           275           276           277           278           279           280
           281           282           283           284           285           286           287           288
           289           290           291           292           293           294           295           296
           297           298           299           300           301           302           303           304
           305           306           307           308           309           310           311           312
           313           314           315           316           317           318           319           320
           321           322           323           324           325           326           327           328
           329           330           331           332           333           334           335           336
           337           338           339           340           341           342           343           344
           345           346           347           348           349           350           351           352
           353           354           355           356           357           358           359           360
           361           362           363           364           365           366           367           368
           369           370           371           372           373           374           375           376
           377           378           379           380           381           382           383           384
           385           386           387           388           389           390           391           392
           393           394           395           396           397           398           399           400
           401           402           403           404           405           406           407           408
           409           410           411           412           413           414           415           416
           417           418           419           420           421           422           423           424
           425           426           427           428           429           430           431           432
           433           434           435           436           437           438           439           440
           441           442           443           444           445           446           447           448
           449           450           451           452           453           454           455           456
           457           458           459           460           461           462           463           464
           465           466           467           468           469           470           471           472
           473           474           475           476           477           478           479           480
           481           482           483           484           485           486           487           488
           489           490           491           492           493           494           495           496
           497           498           499           500           501           502           503           504
           505           506           507           508           509           510           511           512
           513           514           515           516           517           518           519           520
           521           522           523           524           525           526           527           528
           529           530           531           532           533           534           535           536
           537           538           539           540           541           542           543           544
           545           546           547           548           549           550           551           552
           553           554           555           556           557           558           559           560
           561           562           563           564           565           566           567           568
           569           570           571           572           573           574           575           576
           577           578           579           580           581           582           583           584
           585           586           587           588           589           590           591           592
           593           594           595           596           597           598           599           600
           601           602           603           604           605           606           607           608
           609           610           611           612           613           614           615           616
           617           618           619           620           621           622           623           624
           625           626           627           628           629           630           631           632
           633           634           635           636           637           638           639           640
           641           642           643           644           645           646           647           648
           649           650           651           652           653           654           655           656
           657           658           659           660           661           662           663           664
           665           666           667           668           669           670           671           672
           673           674           675           676           677           678           679           680
           681           682           683           684           685           686           687           688
           689           690           691           692           693           694           695           696
           697           698           699           700           701           702           703           704
           705           706           707           708           709           710           711           712
           713           714           715           716           717           718           719           720
           721           722           723           724           725           726           727           728
           729           730           731           732           733           734           735           736
           737           738           739           740           741           742           743           744
           745           746           747           748           749           750           751           752
           753           754           755           756           757           758           759           760
           761           762           763           764           765           766           767           768
           769           770           771           772           773           774           775           776
           777           778           779           780           781           782           783           784
           785           786           787           788           789           790           791           792
           793           794           795           796           797           798           799           800
           801           802           803           804           805           806           807           808
           809           810           811           812           813           814           815           816
           817           818           819           820           821           822           823           824
           825           826           827           828           829           830           831           832
           833           834           835           836           837           838           839           840
           841           842           843           844           845           846           847           848
           849           850           851           852           853           854           855           856
           857           858           859           860           861           862           863           864
           865           866           867           868           869           870           871           872
           873           874           875           876           877           878           879           880
           881           882           883           884           885           886           887           888
           889           890           891           892           893           894           895           896
           897           898           899           900           901           902           903           904
           905           906           907           908           909           910           911           912
           913           914           915           916           917           918           919           920
           921           922           923           924           925           926           927           928
           929           930           931           932           933           934           935           936
           937           938           939           940           941           942           943           944
           945           946           947           948           949           950           951           952
           953           954           955           956           957           958           959           960
           961           962           963           964           965           966           967           968
           969           970           971           972           973           974           975           976
           977           978           979           980           981           982           983           984
           985           986           987           988           989           990           991           992
           993           994           995           996           997           998           999          1000
          1001          1002          1003          1004          1005          1006          1007          1008
          1009          1010          1011          1012          1013          1014          1015          1016
          1017          1018          1019          1020          1021          1022          1023          1024
          1025          1026          1027          1028          1029          1030          1031          1032
          1033          1034          1035          1036          1037          1038          1039          1040
          1041          1042          1043          1044          1045          1046          1047          1048
          1049          1050          1051          1052          1053          1054          1055          1056
          1057          1058          1059          1060          1061          1062          1063          1064
          1065          1066          1067          1068          1069          1070          1071          1072
          1073          1074          1075          1076          1077          1078          1079          1080
          1081          1082          1083          1084          1085          1086          1087          1088
          1089          1090          1091          1092          1093          1094          1095          1096
          1097          1098          1099          1100          1101          1102          1103          1104
          1105          1106          1107          1108          1109          1110          1111          1112
          1113          1114          1115          1116          1117          1118          1119          1120
          1121          1122          1123          1124          1125          1126          1127          1128
          1129          1130          1131          1132          1133          1134          1135          1136
          1137          1138          1139          1140          1141          1142          1143          1144
          1145          1146          1147          1148          1149          1150          1151          1152
          1153          1154          1155          1156          1157          1158          1159          1160
          1161          1162          1163          1164          1165          1166          1167          1168
          1169          1170          1171          1172          1173          1174          1175          1176
          1177          1178          1179          1180          1181          1182          1183          1184
          1185          1186          1187          1188          1189          1190          1191          1192
          1193          1194          1195          1196          1197          1198          1199          1200
          1201          1202          1203          1204          1205          1206          1207          1208
          1209          1210          1211          1212          1213          1214          1215          1216
          1217          1218          1219          1220          1221          1222          1223          1224
          1225          1226          1227          1228          1229          1230          1231          1232
          1233          1234          1235          1236          1237          1238          1239          1240
          1241          1242          1243          1244          1245          1246          1247          1248
          1249          1250          1251          1252          1253          1254          1255          1256
          1257          1258          1259          1260          1261          1262          1263          1264
          1265          1266          1267          1268          1269          1270          1271          1272
          1273          1274          1275          1276          1277          1278          1279          1280
          1281          1282          1283          1284          1285          1286          1287          1288
          1289          1290          1291          1292          1293          1294          1295          1296
          1297          1298          1299          1300          1301          1302          1303          1304
          1305          1306          1307          1308          1309          1310          1311          1312
          1313          1314          1315          1316          1317          1318          1319          1320
          1321          1322          1323          1324          1325          1326          1327          1328
          1329          1330          1331          1332          1333          1334          1335          1336
          1337          1338          1339          1340          1341          1342          1343          1344
          1345          1346          1347          1348          1349          1350          1351          1352
          1353          1354          1355          1356          1357          1358          1359          1360
          1361          1362          1363          1364          1365          1366          1367          1368
          1369          1370          1371          1372          1373          1374          1375          1376
          1377          1378          1379          1380          1381          1382          1383          1384
          1385          1386          1387          1388          1389          1390          1391          1392
          1393          1394          1395          1396          1397          1398          1399          1400
          1401          1402          1403          1404          1405          1406          1407          1408
          1409          1410          1411          1412          1413          1414          1415          1416
          1417          1418          1419          1420          1421          1422          1423          1424
          1425          1426          1427          1428          1429          1430          1431          1432
          1433          1434          1435          1436          1437          1438          1439          1440
          1441          1442          1443          1444          1445          1446          1447          1448
          1449          1450          1451          1452          1453          1454          1455          1456
          1457          1458          1459          1460          1461          1462          1463          1464
          1465          1466          1467          1468          1469          1470          1471          1472
          1473          1474          1475          1476          1477          1478          1479          1480
          1481          1482          1483          1484          1485          1486          1487          1488
          1489          1490          1491          1492          1493          1494          1495          1496
          1497          1498          1499          1500          1501          1502          1503          1504
          1505          1506          1507          1508          1509          1510          1511          1512
          1513          1514          1515          1516          1517          1518          1519          1520
          1521          1522          1523          1524          1525          1526          1527          1528
          1529          1530          1531          1532          1533          1534          1535          1536
          1537          1538          1539          1540          1541          1542          1543          1544
          1545          1546          1547          1548          1549          1550          1551          1552
          1553          1554          1555          1556          1557          1558          1559          1560
          1561          1562          1563          1564          1565          1566          1567          1568
          1569          1570          1571          1572          1573          1574          1575          1576
          1577          1578          1579          1580          1581          1582          1583          1584
          1585          1586          1587          1588          1589          1590          1591          1592
          1593          1594          1595          1596          1597          1598          1599          1600
          1601          1602          1603          1604          1605          1606          1607          1608
          1609          1610          1611          1612          1613          1614          1615          1616
          1617          1618          1619          1620          1621          1622          1623          1624
          1625          1626          1627          1628          1629          1630          1631          1632
          1633          1634          1635          1636          1637          1638          1639          1640
          1641          1642          1643          1644          1645          1646          1647          1648
          1649          1650          1651          1652          1653          1654          1655          1656
          1657          1658          1659          1660          1661          1662          1663          1664
          1665          1666          1667          1668          1669          1670          1671          1672
          1673          1674          1675          1676          1677          1678          1679          1680
          1681          1682          1683          1684          1685          1686          1687          1688
          1689          1690          1691          1692          1693          1694          1695          1696
          1697          1698          1699          1700          1701          1702          1703          1704
          1705          1706          1707          1708          1709          1710          1711          1712
          1713          1714          1715          1716          1717          1718          1719          1720
          1721          1722          1723          1724          1725          1726          1727          1728
          1729          1730          1731          1732          1733          1734          1735          1736
          1737          1738          1739          1740          1741          1742          1743          1744
          1745          1746          1747          1748          1749          1750          1751          1752
          1753          1754          1755          1756          1757          1758          1759          1760
          1761          1762          1763          1764          1765          1766          1767          1768
          1769          1770          1771          1772          1773          1774          1775          1776
          1777          1778          1779          1780          1781          1782          1783          1784
          1785          1786          1787          1788          1789          1790          1791          1792
          1793          1794          1795          1796          1797          1798          1799          1800
          1801          1802          1803          1804          1805          1806          1807          1808
          1809          1810          1811          1812          1813          1814          1815          1816
          1817          1818          1819          1820          1821          1822          1823          1824
          1825          1826          1827          1828          1829          1830          1831          1832
          1833          1834          1835          1836          1837          1838          1839          1840
          1841          1842          1843          1844          1845          1846          1847          1848
          1849          1850          1851          1852          1853          1854          1855          1856
          1857          1858          1859          1860          1861          1862          1863          1864
          1865          1866          1867          1868          1869          1870          1871          1872
          1873          1874          1875          1876          1877          1878          1879          1880
          1881          1882          1883          1884          1885          1886          1887          1888
          1889          1890          1891          1892          1893          1894          1895          1896
          1897          1898          1899          1900          1901          1902          1903          1904
          1905          1906          1907          1908          1909          1910          1911          1912
          1913          1914          1915          1916          1917          1918          1919          1920
          1921          1922          1923          1924          1925          1926          1927          1928
          1929          1930          1931          1932          1933          1934          1935          1936
          1937          1938          1939          1940          1941          1942          1943          1944
          1945          1946          1947          1948          1949          1950          1951          1952
          1953          1954          1955          1956          1957          1958          1959          1960
          1961          1962          1963          1964          1965          1966          1967          1968
          1969          1970          1971          1972          1973          1974          1975          1976
          1977          1978          1979          1980          1981          1982          1983          1984
          1985          1986          1987          1988          1989          1990          1991          1992
          1993          1994          1995          1996          1997          1998          1999          2000
          2001          2002          2003          2004          2005          2006          2007          2008
          2009          2010          2011          2012          2013          2014          2015          2016
          2017          2018          2019          2020          2021          2022          2023          2024
          2025          2026          2027          2028          2029          2030          2031          2032
          2033          2034          2035          2036          2037          2038          2039          2040
          2041          2042          2043          2044          2045          2046          2047          2048
          2049          2050          2051          2052          2053          2054          2055          2056
          2057          2058          2059          2060          2061          2062          2063          2064
          2065          2066          2067          2068          2069          2070          2071          2072
          2073          2074          2075          2076          2077          2078          2079          2080
          2081          2082          2083          2084          2085          2086          2087          2088
          2089          2090          2091          2092          2093          2094          2095          2096
          2097          2098          2099          2100          2101          2102          2103          2104
          2105          2106          2107          2108          2109          2110          2111          2112
          2113          2114          2115          2116          2117          2118          2119          2120
          2121          2122          2123          2124          2125          2126          2127          2128
          2129          2130          2131          2132          2133          2134          2135          2136
          2137          2138          2139          2140          2141          2142          2143          2144
          2145          2146          2147          2148          2149          2150          2151          2152
          2153          2154          2155          2156          2157          2158          2159          2160
          2161          2162          2163          2164          2165          2166          2167          2168
          2169          2170          2171          2172          2173          2174          2175          2176
          2177          2178          2179          2180          2181          2182          2183          2184
          2185          2186          2187          2188          2189          2190          2191          2192
          2193          2194          2195          2196          2197          2198          2199          2200
          2201          2202          2203          2204          2205          2206          2207          2208
          2209          2210          2211          2212          2213          2214          2215          2216
          2217          2218          2219          2220          2221          2222          2223          2224
          2225          2226          2227          2228          2229          2230          2231          2232
          2233          2234          2235          2236          2237          2238          2239          2240
          2241          2242          2243          2244          2245          2246          2247          2248
          2249          2250          2251          2252          2253          2254          2255          2256
          2257          2258          2259          2260          2261          2262          2263          2264
          2265          2266          2267          2268          2269          2270          2271          2272
          2273          2274          2275          2276          2277          2278          2279          2280
          2281          2282          2283          2284          2285          2286          2287          2288
          2289          2290          2291          2292          2293          2294          2295          2296
          2297          2298          2299          2300          2301          2302          2303          2304
          2305          2306          2307          2308          2309          2310          2311          2312
          2313          2314          2315          2316          2317          2318          2319          2320
          2321          2322          2323          2324          2325          2326          2327          2328
          2329          2330          2331          2332          2333          2334          2335          2336
          2337          2338          2339          2340          2341          2342          2343          2344
          2345          2346          2347          2348          2349          2350          2351          2352
          2353          2354          2355          2356          2357          2358          2359          2360
          2361          2362          2363          2364          2365          2366          2367          2368
          2369          2370          2371          2372          2373          2374          2375          2376
          2377          2378          2379          2380          2381          2382          2383          2384
          2385          2386          2387          2388          2389          2390          2391          2392
          2393          2394          2395          2396          2397          2398          2399          2400
          2401          2402          2403          2404          2405          2406          2407          2408
          2409          2410          2411          2412          2413          2414          2415          2416
          2417          2418          2419          2420          2421          2422          2423          2424
          2425          2426          2427          2428          2429          2430          2431          2432
          2433          2434          2435          2436          2437          2438          2439          2440
          2441          2442          2443          2444          2445          2446          2447          2448
          2449          2450          2451          2452          2453          2454          2455          2456
          2457          2458          2459          2460          2461          2462          2463          2464
          2465          2466          2467          2468          2469          2470          2471          2472
          2473          2474          2475          2476          2477          2478          2479          2480
          2481          2482          2483          2484          2485          2486          2487          2488
          2489          2490          2491          2492          2493          2494          2495          2496
          2497          2498          2499          2500          2501          2502          2503          2504
          2505          2506          2507          2508          2509          2510          2511          2512
          2513          2514          2515          2516          2517          2518          2519          2520
          2521          2522          2523          2524          2525          2526          2527          2528
          2529          2530          2531          2532          2533          2534          2535          2536
          2537          2538          2539          2540          2541          2542          2543          2544
          2545          2546          2547          2548          2549          2550          2551          2552
          2553          2554          2555          2556          2557          2558          2559          2560
          2561          2562          2563          2564          2565          2566          2567          2568
          2569          2570          2571          2572          2573          2574          2575          2576
          2577          2578          2579          2580          2581          2582          2583          2584
          2585          2586          2587          2588          2589          2590          2591          2592
          2593          2594          2595          2596          2597          2598          2599          2600
          2601          2602          2603          2604          2605          2606          2607          2608
          2609          2610          2611          2612          2613          2614          2615          2616
          2617          2618          2619          2620          2621          2622          2623          2624
          2625          2626          2627          2628          2629          2630          2631          2632
          2633          2634          2635          2636          2637          2638          2639          2640
          2641          2642          2643          2644          2645          2646          2647          2648
          2649          2650          2651          2652          2653          2654          2655          2656
          2657          2658          2659          2660          2661          2662          2663          2664
          2665          2666          2667          2668          2669          2670          2671          2672
          2673          2674          2675          2676          2677          2678          2679          2680
          2681          2682          2683          2684          2685          2686          2687          2688
          2689          2690          2691          2692          2693          2694          2695          2696
          2697          2698          2699          2700          2701          2702          2703          2704
          2705          2706          2707          2708          2709          2710          2711          2712
          2713          2714          2715          2716          2717          2718          2719          2720
          2721          2722          2723          2724          2725          2726          2727          2728
          2729          2730          2731          2732          2733          2734          2735          2736
          2737          2738          2739          2740          2741          2742          2743          2744
          2745          2746          2747          2748          2749          2750          2751          2752
          2753          2754          2755          2756          2757          2758          2759          2760
          2761          2762          2763          2764          2765          2766          2767          2768
          2769          2770          2771          2772          2773          2774          2775          2776
          2777          2778          2779          2780          2781          2782          2783          2784
          2785          2786          2787          2788          2789          2790          2791          2792
          2793          2794          2795          2796          2797          2798          2799          2800
          2801          2802          2803          2804          2805          2806          2807          2808
          2809          2810          2811          2812          2813          2814          2815          2816
          2817          2818          2819          2820          2821          2822          2823          2824
          2825          2826          2827          2828          2829          2830          2831          2832
          2833          2834          2835          2836          2837          2838          2839          2840
          2841          2842          2843          2844          2845          2846          2847          2848
          2849          2850          2851          2852          2853          2854          2855          2856
          2857          2858          2859          2860          2861          2862          2863          2864
          2865          2866          2867          2868          2869          2870          2871          2872
          2873          2874          2875          2876          2877          2878          2879          2880
          2881          2882          2883          2884          2885          2886          2887          2888
          2889          2890          2891          2892          2893          2894          2895          2896
          2897          2898          2899          2900          2901          2902          2903          2904
          2905          2906          2907          2908          2909          2910          2911          2912
          2913          2914          2915          2916          2917          2918          2919          2920
          2921          2922          2923          2924          2925          2926          2927          2928
          2929          2930          2931          2932          2933          2934          2935          2936
          2937          2938          2939          2940          2941          2942          2943          2944
          2945          2946          2947          2948          2949          2950          2951          2952
          2953          2954          2955          2956          2957          2958          2959          2960
          2961          2962          2963          2964          2965          2966          2967          2968
          2969          2970          2971          2972          2973          2974          2975          2976
          2977          2978          2979          2980          2981          2982          2983          2984
          2985          2986          2987          2988          2989          2990          2991          2992
          2993          2994          2995          2996          2997          2998          2999          3000
          3001          3002          3003          3004          3005          3006          3007          3008
          3009          3010          3011          3012          3013          3014          3015          3016
          3017          3018          3019          3020          3021          3022          3023          3024
          3025          3026          3027          3028          3029          3030          3031          3032
          3033          3034          3035          3036          3037          3038          3039          3040
          3041          3042          3043          3044          3045          3046          3047          3048
          3049          3050          3051          3052          3053          3054          3055          3056
          3057          3058          3059          3060          3061          3062          3063          3064
          3065          3066          3067          3068          3069          3070          3071          3072
          3073          3074          3075          3076          3077          3078          3079          3080
          3081          3082          3083          3084          3085          3086          3087          3088
          3089          3090          3091          3092          3093          3094          3095          3096
          3097          3098          3099          3100          3101          3102          3103          3104
          3105          3106          3107          3108          3109          3110          3111          3112
          3113          3114          3115          3116          3117          3118          3119          3120
          3121          3122          3123          3124          3125          3126          3127          3128
          3129          3130          3131          3132          3133          3134          3135          3136
          3137          3138          3139          3140          3141          3142          3143          3144
          3145          3146          3147          3148          3149          3150          3151          3152
          3153          3154          3155          3156          3157          3158          3159          3160
          3161          3162          3163          3164          3165          3166          3167          3168
          3169          3170          3171          3172          3173          3174          3175          3176
          3177          3178          3179          3180          3181          3182          3183          3184
          3185          3186          3187          3188          3189          3190          3191          3192
          3193          3194          3195          3196          3197          3198          3199          3200
          3201          3202          3203          3204          3205          3206          3207          3208
          3209          3210          3211          3212          3213          3214          3215          3216
          3217          3218          3219          3220          3221          3222          3223          3224
          3225          3226          3227          3228          3229          3230          3231          3232
          3233          3234          3235          3236          3237          3238          3239          3240
          3241          3242          3243          3244          3245          3246          3247          3248
          3249          3250          3251          3252          3253          3254          3255          3256
          3257          3258          3259          3260          3261          3262          3263          3264
          3265          3266          3267          3268          3269          3270          3271          3272
          3273          3274          3275          3276          3277          3278          3279          3280
          3281          3282          3283          3284          3285          3286          3287          3288
          3289          3290          3291          3292          3293          3294          3295          3296
          3297          3298          3299          3300          3301          3302          3303          3304
          3305          3306          3307          3308          3309          3310          3311          3312
          3313          3314          3315          3316          3317          3318          3319          3320
          3321          3322          3323          3324          3325          3326          3327          3328
          3329          3330          3331          3332          3333          3334          3335          3336
          3337          3338          3339          3340          3341          3342          3343          3344
          3345          3346          3347          3348          3349          3350          3351          3352
          3353          3354          3355          3356          3357          3358          3359          3360
          3361          3362          3363          3364          3365          3366          3367          3368
          3369          3370          3371          3372          3373          3374          3375          3376
          3377          3378          3379          3380          3381          3382          3383          3384
          3385          3386          3387          3388          3389          3390          3391          3392
          3393          3394          3395          3396          3397          3398          3399          3400
          3401          3402          3403          3404          3405          3406          3407          3408
          3409          3410          3411          3412          3413          3414          3415          3416
          3417          3418          3419          3420          3421          3422          3423          3424
          3425          3426          3427          3428          3429          3430          3431          3432
          3433          3434          3435          3436          3437          3438          3439          3440
          3441          3442          3443          3444          3445          3446          3447          3448
          3449          3450          3451          3452          3453          3454          3455          3456
          3457          3458          3459          3460          3461          3462          3463          3464
          3465          3466          3467          3468          3469          3470          3471          3472
          3473          3474          3475          3476          3477          3478          3479          3480
          3481          3482          3483          3484          3485          3486          3487          3488
          3489          3490          3491          3492          3493          3494          3495          3496
          3497          3498          3499          3500          3501          3502          3503          3504
          3505          3506          3507          3508          3509          3510          3511          3512
          3513          3514          3515          3516          3517          3518          3519          3520
          3521          3522          3523          3524          3525          3526          3527          3528
          3529          3530          3531          3532          3533          3534          3535          3536
          3537          3538          3539          3540          3541          3542          3543          3544
          3545          3546          3547          3548          3549          3550          3551          3552
          3553          3554          3555          3556          3557          3558          3559          3560
          3561          3562          3563          3564          3565          3566          3567          3568
          3569          3570          3571          3572          3573          3574          3575          3576
          3577          3578          3579          3580          3581          3582          3583          3584
          3585          3586          3587          3588          3589          3590          3591          3592
          3593          3594          3595          3596          3597          3598          3599          3600
          3601          3602          3603          3604          3605          3606          3607          3608
          3609          3610          3611          3612          3613          3614          3615          3616
          3617          3618          3619          3620          3621          3622          3623          3624
          3625          3626          3627          3628          3629          3630          3631          3632
          3633          3634          3635          3636          3637          3638          3639          3640
          3641          3642          3643          3644          3645          3646          3647          3648
          3649          3650          3651          3652          3653          3654          3655          3656
          3657          3658          3659          3660          3661          3662          3663          3664
          3665          3666          3667          3668          3669          3670          3671          3672
          3673          3674          3675          3676          3677          3678          3679          3680
          3681          3682          3683          3684          3685          3686          3687          3688
          3689          3690          3691          3692          3693          3694          3695          3696
          3697          3698          3699          3700          3701          3702          3703          3704
          3705          3706          3707          3708          3709          3710          3711          3712
          3713          3714          3715          3716          3717          3718          3719          3720
          3721          3722          3723          3724          3725          3726          3727          3728
          3729          3730          3731          3732          3733          3734          3735          3736
          3737          3738          3739          3740          3741          3742          3743          3744
          3745          3746          3747          3748          3749          3750          3751          3752
          3753          3754          3755          3756          3757          3758          3759          3760
          3761          3762          3763          3764          3765          3766          3767          3768
          3769          3770          3771          3772          3773          3774          3775          3776
          3777          3778          3779          3780          3781          3782          3783          3784
          3785          3786          3787          3788          3789          3790          3791          3792
          3793          3794          3795          3796          3797          3798          3799          3800
          3801          3802          3803          3804          3805          3806          3807          3808
          3809          3810          3811          3812          3813          3814          3815          3816
          3817          3818          3819          3820          3821          3822          3823          3824
          3825          3826          3827          3828          3829          3830          3831          3832
          3833          3834          3835          3836          3837          3838          3839          3840
          3841          3842          3843          3844          3845          3846          3847          3848
          3849          3850          3851          3852          3853          3854          3855          3856
          3857          3858          3859          3860          3861          3862          3863          3864
          3865          3866          3867          3868          3869          3870          3871          3872
          3873          3874          3875          3876          3877          3878          3879          3880
          3881          3882          3883          3884          3885          3886          3887          3888
          3889          3890          3891          3892          3893          3894          3895          3896
          3897          3898          3899          3900          3901          3902          3903          3904
          3905          3906          3907          3908          3909          3910          3911          3912
          3913          3914          3915          3916          3917          3918          3919          3920
          3921          3922          3923          3924          3925          3926          3927          3928
          3929          3930          3931          3932          3933          3934          3935          3936
          3937          3938          3939          3940          3941          3942          3943          3944
          3945          3946          3947          3948          3949          3950          3951          3952
          3953          3954          3955          3956          3957          3958          3959          3960
          3961          3962          3963          3964          3965          3966          3967          3968
          3969          3970          3971          3972          3973          3974          3975          3976
          3977          3978          3979          3980          3981          3982          3983          3984
          3985          3986          3987          3988          3989          3990          3991          3992
          3993          3994          3995          3996          3997          3998          3999          4000
          4001          4002          4003          4004          4005          4006          4007          4008
          4009          4010          4011          4012          4013          4014          4015          4016
          4017          4018          4019          4020          4021          4022          4023          4024
          4025          4026          4027          4028          4029          4030          4031          4032
          4033          4034          4035          4036          4037          4038          4039          4040
          4041          4042          4043          4044          4045          4046          4047          4048
          4049          4050          4051          4052          4053          4054          4055          4056
          4057          4058          4059          4060          4061          4062          4063          4064
          4065          4066          4067          4068          4069          4070          4071          4072
          4073          4074          4075          4076          4077          4078          4079          4080
          4081          4082          4083          4084          4085          4086          4087          4088
          4089          4090          4091          4092          4093          4094          4095          4096
          4097          4098          4099          4100          4101          4102          4103          4104
          4105          4106          4107          4108          4109          4110          4111          4112
          4113          4114          4115          4116          4117          4118          4119          4120
          4121          4122          4123          4124          4125          4126          4127          4128
          4129          4130          4131          4132          4133          4134          4135          4136
          4137          4138          4139          4140          4141          4142          4143          4144
          4145          4146          4147          4148          4149          4150          4151          4152
          4153          4154          4155          4156          4157          4158          4159          4160
          4161          4162          4163          4164          4165          4166          4167          4168
          4169          4170          4171          4172          4173          4174          4175          4176
          4177          4178          4179          4180          4181          4182          4183          4184
          4185          4186          4187          4188          4189          4190          4191          4192
          4193          4194          4195          4196          4197          4198          4199          4200
          4201          4202          4203          4204          4205          4206          4207          4208
          4209          4210          4211          4212          4213          4214          4215          4216
          4217          4218          4219          4220          4221          4222          4223          4224
          4225          4226          4227          4228          4229          4230          4231          4232
          4233          4234          4235          4236          4237          4238          4239          4240
          4241          4242          4243          4244          4245          4246          4247          4248
          4249          4250          4251          4252          4253          4254          4255          4256
          4257          4258          4259          4260          4261          4262          4263          4264
          4265          4266          4267          4268          4269          4270          4271          4272
          4273          4274          4275          4276          4277          4278          4279          4280
          4281          4282          4283          4284          4285          4286          4287          4288
          4289          4290          4291          4292          4293          4294          4295          4296
          4297          4298          4299          4300          4301          4302          4303          4304
          4305          4306          4307          4308          4309          4310          4311          4312
          4313          4314          4315          4316          4317          4318          4319          4320
          4321          4322          4323          4324          4325          4326          4327          4328
          4329          4330          4331          4332          4333          4334          4335          4336
          4337          4338          4339          4340          4341          4342          4343          4344
          4345          4346          4347          4348          4349          4350          4351          4352
          4353          4354          4355          4356          4357          4358          4359          4360
          4361          4362          4363          4364          4365          4366          4367          4368
          4369          4370          4371          4372          4373          4374          4375          4376
          4377          4378          4379          4380          4381          4382          4383          4384
          4385          4386          4387          4388          4389          4390          4391          4392
          4393          4394          4395          4396          4397          4398          4399          4400
          4401          4402          4403          4404          4405          4406          4407          4408
          4409          4410          4411          4412          4413          4414          4415          4416
          4417          4418          4419          4420          4421          4422          4423          4424
          4425          4426          4427          4428          4429          4430          4431          4432
          4433          4434          4435          4436          4437          4438          4439          4440
          4441          4442          4443          4444          4445          4446          4447          4448
          4449          4450          4451          4452          4453          4454          4455          4456
          4457          4458          4459          4460          4461          4462          4463          4464
          4465          4466          4467          4468          4469          4470          4471          4472
          4473          4474          4475          4476          4477          4478          4479          4480
          4481          4482          4483          4484          4485          4486          4487          4488
          4489          4490          4491          4492          4493          4494          4495          4496
          4497          4498          4499          4500          4501          4502          4503          4504
          4505          4506          4507          4508          4509          4510          4511          4512
          4513          4514          4515          4516          4517          4518          4519          4520
          4521          4522          4523          4524          4525          4526          4527          4528
          4529          4530          4531          4532          4533          4534          4535          4536
          4537          4538          4539          4540          4541          4542          4543          4544
          4545          4546          4547          4548          4549          4550          4551          4552
          4553          4554          4555          4556          4557          4558          4559          4560
          4561          4562          4563          4564          4565          4566          4567          4568
          4569          4570          4571          4572          4573          4574          4575          4576
          4577          4578          4579          4580          4581          4582          4583          4584
          4585          4586          4587          4588          4589          4590          4591          4592
          4593          4594          4595          4596          4597          4598          4599          4600
          4601          4602          4603          4604          4605          4606          4607          4608
          4609          4610          4611          4612          4613          4614          4615          4616
          4617          4618          4619          4620          4621          4622          4623          4624
          4625          4626          4627          4628          4629          4630          4631          4632
          4633          4634          4635          4636          4637          4638          4639          4640
          4641          4642          4643          4644          4645          4646          4647          4648
          4649          4650          4651          4652          4653          4654          4655          4656
          4657          4658          4659          4660          4661          4662          4663          4664
          4665          4666          4667          4668          4669          4670          4671          4672
          4673          4674          4675          4676          4677          4678          4679          4680
          4681          4682          4683          4684          4685          4686          4687          4688
          4689          4690          4691          4692          4693          4694          4695          4696
          4697          4698          4699          4700          4701          4702          4703          4704
          4705          4706          4707          4708          4709          4710          4711          4712
          4713          4714          4715          4716          4717          4718          4719          4720
          4721          4722          4723          4724          4725          4726          4727          4728
          4729          4730          4731          4732          4733          4734          4735          4736
          4737          4738          4739          4740          4741          4742          4743          4744
          4745          4746          4747          4748          4749          4750          4751          4752
          4753          4754          4755          4756          4757          4758          4759          4760
          4761          4762          4763          4764          4765          4766          4767          4768
          4769          4770          4771          4772          4773          4774          4775          4776
          4777          4778          4779          4780          4781          4782          4783          4784
          4785          4786          4787          4788          4789          4790          4791          4792
          4793          4794          4795          4796          4797          4798          4799          4800
          4801          4802          4803          4804          4805          4806          4807          4808
          4809          4810          4811          4812          4813          4814          4815          4816
          4817          4818          4819          4820          4821          4822          4823          4824
          4825          4826          4827          4828          4829          4830          4831          4832
          4833          4834          4835          4836          4837          4838          4839          4840
          4841          4842          4843          4844          4845          4846          4847          4848
          4849          4850          4851          4852          4853          4854          4855          4856
          4857          4858          4859          4860          4861          4862          4863          4864
          4865          4866          4867          4868          4869          4870          4871          4872
          4873          4874          4875          4876          4877          4878          4879          4880
          4881          4882          4883          4884          4885          4886          4887          4888
          4889          4890          4891          4892          4893          4894          4895          4896
          4897          4898          4899          4900          4901          4902          4903          4904
          4905          4906          4907          4908          4909          4910          4911          4912
          4913          4914          4915          4916          4917          4918          4919          4920
          4921          4922          4923          4924          4925          4926          4927          4928
          4929          4930          4931          4932          4933          4934          4935          4936
          4937          4938          4939          4940          4941          4942          4943          4944
          4945          4946          4947          4948          4949          4950          4951          4952
          4953          4954          4955          4956          4957          4958          4959          4960
          4961          4962          4963          4964          4965          4966          4967          4968
          4969          4970          4971          4972          4973          4974          4975          4976
          4977          4978          4979          4980          4981          4982          4983          4984
          4985          4986          4987          4988          4989          4990          4991          4992
          4993          4994          4995          4996          4997          4998          4999          5000
          5001          5002          5003          5004          5005          5006          5007          5008
          5009          5010          5011          5012          5013          5014          5015          5016
          5017          5018          5019          5020          5021          5022          5023          5024
          5025          5026          5027          5028          5029          5030          5031          5032
          5033          5034          5035          5036          5037          5038          5039          5040
          5041          5042          5043          5044          5045          5046          5047          5048
          5049          5050          5051          5052          5053          5054          5055          5056
          5057          5058          5059          5060          5061          5062          5063          5064
          5065          5066          5067          5068          5069          5070          5071          5072
          5073          5074          5075          5076          5077          5078          5079          5080
          5081          5082          5083          5084          5085          5086          5087          5088
          5089          5090          5091          5092          5093          5094          5095          5096
          5097          5098          5099          5100          5101          5102          5103          5104
          5105          5106          5107          5108          5109          5110          5111          5112
          5113          5114          5115          5116          5117          5118          5119          5120
          5121          5122          5123          5124          5125          5126          5127          5128
          5129          5130          5131          5132          5133          5134          5135          5136
          5137          5138          5139          5140          5141          5142          5143          5144
          5145          5146          5147          5148          5149          5150          5151          5152
          5153          5154          5155          5156          5157          5158          5159          5160
          5161          5162          5163          5164          5165          5166          5167          5168
          5169          5170          5171          5172          5173          5174          5175          5176
          5177          5178          5179          5180          5181          5182          5183          5184
          5185          5186          5187          5188          5189          5190          5191          5192
          5193          5194          5195          5196          5197          5198          5199          5200
          5201          5202          5203          5204          5205          5206          5207          5208
          5209          5210          5211          5212          5213          5214          5215          5216
          5217          5218          5219          5220          5221          5222          5223          5224
          5225          5226          5227          5228          5229          5230          5231          5232
          5233          5234          5235          5236          5237          5238          5239          5240
          5241          5242          5243          5244          5245          5246          5247          5248
          5249          5250          5251          5252          5253          5254          5255          5256
          5257          5258          5259          5260          5261          5262          5263          5264
          5265          5266          5267          5268          5269          5270          5271          5272
          5273          5274          5275          5276          5277          5278          5279          5280
          5281          5282          5283          5284          5285          5286          5287          5288
          5289          5290          5291          5292          5293          5294          5295          5296
          5297          5298          5299          5300          5301          5302          5303          5304
          5305          5306          5307          5308          5309          5310          5311          5312
          5313          5314          5315          5316          5317          5318          5319          5320
          5321          5322          5323          5324          5325          5326          5327          5328
          5329          5330          5331          5332          5333          5334          5335          5336
          5337          5338          5339          5340          5341          5342          5343          5344
          5345          5346          5347          5348          5349          5350          5351          5352
          5353          5354          5355          5356          5357          5358          5359          5360
          5361          5362          5363          5364          5365          5366          5367          5368
          5369          5370          5371          5372          5373          5374          5375          5376
          5377          5378          5379          5380          5381          5382          5383          5384
          5385          5386          5387          5388          5389          5390          5391          5392
          5393          5394          5395          5396          5397          5398          5399          5400
          5401          5402          5403          5404          5405          5406          5407          5408
          5409          5410          5411          5412          5413          5414          5415          5416
          5417          5418          5419          5420          5421          5422          5423          5424
          5425          5426          5427          5428          5429          5430          5431          5432
          5433          5434          5435          5436          5437          5438          5439          5440
          5441          5442          5443          5444          5445          5446          5447          5448
          5449          5450          5451          5452          5453          5454          5455          5456
          5457          5458          5459          5460          5461          5462          5463          5464
          5465          5466          5467          5468          5469          5470          5471          5472
          5473          5474          5475          5476          5477          5478          5479          5480
          5481          5482          5483          5484          5485          5486          5487          5488
          5489          5490          5491          5492          5493          5494          5495          5496
          5497          5498          5499          5500          5501          5502          5503          5504
          5505          5506          5507          5508          5509          5510          5511          5512
          5513          5514          5515          5516          5517          5518          5519          5520
          5521          5522          5523          5524          5525          5526          5527          5528
          5529          5530          5531          5532          5533          5534          5535          5536
          5537          5538          5539          5540          5541          5542          5543          5544
          5545          5546          5547          5548          5549          5550          5551          5552
          5553          5554          5555          5556          5557          5558          5559          5560
          5561          5562          5563          5564          5565          5566          5567          5568
          5569          5570          5571          5572          5573          5574          5575          5576
          5577          5578          5579          5580          5581          5582          5583          5584
          5585          5586          5587          5588          5589          5590          5591          5592
          5593          5594          5595          5596          5597          5598          5599          5600
          5601          5602          5603          5604          5605          5606          5607          5608
          5609          5610          5611          5612          5613          5614          5615          5616
          5617          5618          5619          5620          5621          5622          5623          5624
          5625          5626          5627          5628          5629          5630          5631          5632

ZONE T = "Bridge", N = 160, E = 20, F = FEPOINT , ET = BRICK, C = RED
  -1.62998e+61   9.07382e+59   6.29383e+62  -2.71903e+69             0             0   2.71903e+69  -2.71903e+69             0             0             0             0             0
  -1.62998e+61   9.07382e+59   6.29383e+62  -2.71903e+69             0             0   2.71903e+69  -2.71903e+69             0             0             0             0             0
  -1.62998e+61   9.07382e+59   6.29383e+62  -2.71903e+69             0             0   2.71903e+69  -2.71903e+69             0             0             0             0             0
  -1.62998e+61   9.07382e+59   6.29383e+62  -2.71903e+69             0             0   2.71903e+69  -2.71903e+69             0             0             0             0             0
   6.01701e+50  -2.44936e+63   2.36624e+62  -2.71903e+69             0             0   2.71903e+69  -2.71903e+69             0             0             0             0             0
   6.01701e+50  -2.44936e+63   2.36624e+62  -2.71903e+69             0             0   2.71903e+69  -2.71903e+69             0             0             0             0             0
   6.01701e+50  -2.44936e+63   2.36624e+62  -2.71903e+69             0             0   2.71903e+69  -2.71903e+69             0             0             0             0             0
   6.01701e+50  -2.44936e+63   2.36624e+62  -2.71903e+69             0             0   2.71903e+69  -2.71903e+69             0             0             0             0             0
   -3.1391e+61   6.92246e+59   5.76451e+62  -1.72206e+69             0             0   1.72206e+69  -1.72206e+69             0             0             0             0             0
   -3.1391e+61   6.92246e+59   5.76451e+62  -1.72206e+69             0             0   1.72206e+69  -1.72206e+69             0             0             0             0             0
   -3.1391e+61   6.92246e+59   5.76451e+62  -1.72206e+69             0             0   1.72206e+69  -1.72206e+69             0             0             0             0             0
   -3.1391e+61   6.92246e+59   5.76451e+62  -1.72206e+69             0             0   1.72206e+69  -1.72206e+69             0             0             0             0             0
   6.01701e+50  -2.44936e+63   2.36624e+62  -1.72206e+69             0             0   1.72206e+69  -1.72206e+69             0             0             0             0             0
   6.01701e+50  -2.44936e+63   2.36624e+62  -1.72206e+69             0             0   1.72206e+69  -1.72206e+69             0             0             0             0             0
   6.01701e+50  -2.44936e+63   2.36624e+62  -1.72206e+69             0             0   1.72206e+69  -1.72206e+69             0             0             0             0             0
   6.01701e+50  -2.44936e+63   2.36624e+62  -1.72206e+69             0             0   1.72206e+69  -1.72206e+69             0             0             0             0             0
  -3.82987e+61   6.97053e+59   4.85683e+62  -8.21968e+68             0             0   8.21968e+68  -8.21968e+68             0             0             0             0             0
  -3.82987e+61   6.97053e+59   4.85683e+62  -8.21968e+68             0             0   8.21968e+68  -8.21968e+68             0             0             0             0             0
  -3.82987e+61   6.97053e+59   4.85683e+62  -8.21968e+68             0             0   8.21968e+68  -8.21968e+68             0             0             0             0             0
  -3.82987e+61   6.97053e+59   4.85683e+62  -8.21968e+68             0             0   8.21968e+68  -8.21968e+68             0             0             0             0             0
   6.01701e+50  -2.44936e+63   2.36624e+62  -8.21968e+68             0             0   8.21968e+68  -8.21968e+68             0             0             0             0             0
   6.01701e+50  -2.44936e+63   2.36624e+62  -8.21968e+68             0             0   8.21968e+68  -8.21968e+68             0             0             0             0             0
   6.01701e+50  -2.44936e+63   2.36624e+62  -8.21968e+68             0             0   8.21968e+68  -8.21968e+68             0             0             0             0             0
   6.01701e+50  -2.44936e+63   2.36624e+62  -8.21968e+68             0             0   8.21968e+68  -8.21968e+68             0             0             0             0             0
  -6.57526e+61  -8.26542e+59   2.79276e+62    1.2641e+68             0             0    1.2641e+68    1.2641e+68             0             0             0             0             0
  -6.57526e+61  -8.26542e+59   2.79276e+62    1.2641e+68             0             0    1.2641e+68    1.2641e+68             0             0             0             0             0
  -6.57526e+61  -8.26542e+59   2.79276e+62    1.2641e+68             0             0    1.2641e+68    1.2641e+68             0             0             0             0             0
  -6.57526e+61  -8.26542e+59   2.79276e+62    1.2641e+68             0             0    1.2641e+68    1.2641e+68             0             0             0             0             0
   6.01701e+50  -2.44936e+63   2.36624e+62    1.2641e+68             0             0    1.2641e+68    1.2641e+68             0             0             0             0             0
   6.01701e+50  -2.44936e+63   2.36624e+62    1.2641e+68             0             0    1.2641e+68    1.2641e+68             0             0             0             0             0
   6.01701e+50  -2.44936e+63   2.36624e+62    1.2641e+68             0             0    1.2641e+68    1.2641e+68             0             0             0             0             0
   6.01701e+50  -2.44936e+63   2.36624e+62    1.2641e+68             0             0    1.2641e+68    1.2641e+68             0             0             0             0             0
  -8.42671e+60   6.61299e+59   1.02401e+61   4.96413e+68             0             0   4.96413e+68   4.96413e+68             0             0             0             0             0
  -8.42671e+60   6.61299e+59   1.02401e+61   4.96413e+68             0             0   4.96413e+68   4.96413e+68             0             0             0             0             0
  -8.42671e+60   6.61299e+59   1.02401e+61   4.96413e+68             0             0   4.96413e+68   4.96413e+68             0             0             0             0             0
  -8.42671e+60   6.61299e+59   1.02401e+61   4.96413e+68             0             0   4.96413e+68   4.96413e+68             0             0             0             0             0
   6.01701e+50  -2.44936e+63   2.36624e+62   4.96413e+68             0             0   4.96413e+68   4.96413e+68             0             0             0             0             0
   6.01701e+50  -2.44936e+63   2.36624e+62   4.96413e+68             0             0   4.96413e+68   4.96413e+68             0             0             0             0             0
   6.01701e+50  -2.44936e+63   2.36624e+62   4.96413e+68             0             0   4.96413e+68   4.96413e+68             0             0             0             0             0
   6.01701e+50  -2.44936e+63   2.36624e+62   4.96413e+68             0             0   4.96413e+68   4.96413e+68             0             0             0             0             0
  -1.62998e+61  -9.07382e+59   6.29383e+62  -2.71903e+69             0             0   2.71903e+69  -2.71903e+69             0             0             0             0             0
  -1.62998e+61  -9.07382e+59   6.29383e+62  -2.71903e+69             0             0   2.71903e+69  -2.71903e+69             0             0             0             0             0
  -1.62998e+61  -9.07382e+59   6.29383e+62  -2.71903e+69             0             0   2.71903e+69  -2.71903e+69             0             0             0             0             0
  -1.62998e+61  -9.07382e+59   6.29383e+62  -2.71903e+69             0             0   2.71903e+69  -2.71903e+69             0             0             0             0             0
   -9.6264e+50   2.44936e+63   2.36624e+62  -2.71903e+69             0             0   2.71903e+69  -2.71903e+69             0             0             0             0             0
   -9.6264e+50   2.44936e+63   2.36624e+62  -2.71903e+69             0             0   2.71903e+69  -2.71903e+69             0             0             0             0             0
   -9.6264e+50   2.44936e+63   2.36624e+62  -2.71903e+69             0             0   2.71903e+69  -2.71903e+69             0             0             0             0             0
   -9.6264e+50   2.44936e+63   2.36624e+62  -2.71903e+69             0             0   2.71903e+69  -2.71903e+69             0             0             0             0             0
   -3.1391e+61  -6.92246e+59   5.76451e+62  -1.72206e+69             0             0   1.72206e+69  -1.72206e+69             0             0             0             0             0
   -3.1391e+61  -6.92246e+59   5.76451e+62  -1.72206e+69             0             0   1.72206e+69  -1.72206e+69             0             0             0             0             0
   -3.1391e+61  -6.92246e+59   5.76451e+62  -1.72206e+69             0             0   1.72206e+69  -1.72206e+69             0             0             0             0             0
   -3.1391e+61  -6.92246e+59   5.76451e+62  -1.72206e+69             0             0   1.72206e+69  -1.72206e+69             0             0             0             0             0
   -9.6264e+50   2.44936e+63   2.36624e+62  -1.72206e+69             0             0   1.72206e+69  -1.72206e+69             0             0             0             0             0
   -9.6264e+50   2.44936e+63   2.36624e+62  -1.72206e+69             0             0   1.72206e+69  -1.72206e+69             0             0             0             0             0
   -9.6264e+50   2.44936e+63   2.36624e+62  -1.72206e+69             0             0   1.72206e+69  -1.72206e+69             0             0             0             0             0
   -9.6264e+50   2.44936e+63   2.36624e+62  -1.72206e+69             0             0   1.72206e+69  -1.72206e+69             0             0             0             0             0
  -3.82987e+61  -6.97053e+59   4.85683e+62  -8.21968e+68             0             0   8.21968e+68  -8.21968e+68             0             0             0             0             0
  -3.82987e+61  -6.97053e+59   4.85683e+62  -8.21968e+68             0             0   8.21968e+68  -8.21968e+68             0             0             0             0             0
  -3.82987e+61  -6.97053e+59   4.85683e+62  -8.21968e+68             0             0   8.21968e+68  -8.21968e+68             0             0             0             0             0
  -3.82987e+61  -6.97053e+59   4.85683e+62  -8.21968e+68             0             0   8.21968e+68  -8.21968e+68             0             0             0             0             0
   -9.6264e+50   2.44936e+63   2.36624e+62  -8.21968e+68             0             0   8.21968e+68  -8.21968e+68             0             0             0             0             0
   -9.6264e+50   2.44936e+63   2.36624e+62  -8.21968e+68             0             0   8.21968e+68  -8.21968e+68             0             0             0             0             0
   -9.6264e+50   2.44936e+63   2.36624e+62  -8.21968e+68             0             0   8.21968e+68  -8.21968e+68             0             0             0             0             0
   -9.6264e+50   2.44936e+63   2.36624e+62  -8.21968e+68             0             0   8.21968e+68  -8.21968e+68             0             0             0             0             0
  -6.57526e+61   8.26542e+59   2.79276e+62    1.2641e+68             0             0    1.2641e+68    1.2641e+68             0             0             0             0             0
  -6.57526e+61   8.26542e+59   2.79276e+62    1.2641e+68             0             0    1.2641e+68    1.2641e+68             0             0             0             0             0
  -6.57526e+61   8.26542e+59   2.79276e+62    1.2641e+68             0             0    1.2641e+68    1.2641e+68             0             0             0             0             0
  -6.57526e+61   8.26542e+59   2.79276e+62    1.2641e+68             0             0    1.2641e+68    1.2641e+68             0             0             0             0             0
   -9.6264e+50   2.44936e+63   2.36624e+62    1.2641e+68             0             0    1.2641e+68    1.2641e+68             0             0             0             0             0
   -9.6264e+50   2.44936e+63   2.36624e+62    1.2641e+68             0             0    1.2641e+68    1.2641e+68             0             0             0             0             0
   -9.6264e+50   2.44936e+63   2.36624e+62    1.2641e+68             0             0    1.2641e+68    1.2641e+68             0             0             0             0             0
   -9.6264e+50   2.44936e+63   2.36624e+62    1.2641e+68             0             0    1.2641e+68    1.2641e+68             0             0             0             0             0
  -8.42671e+60  -6.61299e+59   1.02401e+61   4.96413e+68             0             0   4.96413e+68   4.96413e+68             0             0             0             0             0
  -8.42671e+60  -6.61299e+59   1.02401e+61   4.96413e+68             0             0   4.96413e+68   4.96413e+68             0             0             0             0             0
  -8.42671e+60  -6.61299e+59   1.02401e+61   4.96413e+68             0             0   4.96413e+68   4.96413e+68             0             0             0             0             0
  -8.42671e+60  -6.61299e+59   1.02401e+61   4.96413e+68             0             0   4.96413e+68   4.96413e+68             0             0             0             0             0
   -9.6264e+50   2.44936e+63   2.36624e+62   4.96413e+68             0             0   4.96413e+68   4.96413e+68             0             0             0             0             0
   -9.6264e+50   2.44936e+63   2.36624e+62   4.96413e+68             0             0   4.96413e+68   4.96413e+68             0             0             0             0             0
   -9.6264e+50   2.44936e+63   2.36624e+62   4.96413e+68             0             0   4.96413e+68   4.96413e+68             0             0             0             0             0
   -9.6264e+50   2.44936e+63   2.36624e+62   4.96413e+68             0             0   4.96413e+68   4.96413e+68             0             0             0             0             0
   1.62998e+61   9.07382e+59   6.29383e+62  -2.71903e+69             0             0   2.71903e+69  -2.71903e+69             0             0             0             0             0
   1.62998e+61   9.07382e+59   6.29383e+62  -2.71903e+69             0             0   2.71903e+69  -2.71903e+69             0             0             0             0             0
   1.62998e+61   9.07382e+59   6.29383e+62  -2.71903e+69             0             0   2.71903e+69  -2.71903e+69             0             0             0             0             0
   1.62998e+61   9.07382e+59   6.29383e+62  -2.71903e+69             0             0   2.71903e+69  -2.71903e+69             0             0             0             0             0
   6.01701e+50  -2.44936e+63   2.36624e+62  -2.71903e+69             0             0   2.71903e+69  -2.71903e+69             0             0             0             0             0
   6.01701e+50  -2.44936e+63   2.36624e+62  -2.71903e+69             0             0   2.71903e+69  -2.71903e+69             0             0             0             0             0
   6.01701e+50  -2.44936e+63   2.36624e+62  -2.71903e+69             0             0   2.71903e+69  -2.71903e+69             0             0             0             0             0
   6.01701e+50  -2.44936e+63   2.36624e+62  -2.71903e+69             0             0   2.71903e+69  -2.71903e+69             0             0             0             0             0
    3.1391e+61   6.92246e+59   5.76451e+62  -1.72206e+69             0             0   1.72206e+69  -1.72206e+69             0             0             0             0             0
    3.1391e+61   6.92246e+59   5.76451e+62  -1.72206e+69             0             0   1.72206e+69  -1.72206e+69             0             0             0             0             0
    3.1391e+61   6.92246e+59   5.76451e+62  -1.72206e+69             0             0   1.72206e+69  -1.72206e+69             0             0             0             0             0
    3.1391e+61   6.92246e+59   5.76451e+62  -1.72206e+69             0             0   1.72206e+69  -1.72206e+69             0             0             0             0             0
   6.01701e+50  -2.44936e+63   2.36624e+62  -1.72206e+69             0             0   1.72206e+69  -1.72206e+69             0             0             0             0             0
   6.01701e+50  -2.44936e+63   2.36624e+62  -1.72206e+69             0             0   1.72206e+69  -1.72206e+69             0             0             0             0             0
   6.01701e+50  -2.44936e+63   2.36624e+62  -1.72206e+69             0             0   1.72206e+69  -1.72206e+69             0             0             0             0             0
   6.01701e+50  -2.44936e+63   2.36624e+62  -1.72206e+69             0             0   1.72206e+69  -1.72206e+69             0             0             0             0             0
   3.82987e+61   6.97053e+59   4.85683e+62  -8.21968e+68             0             0   8.21968e+68  -8.21968e+68             0             0             0             0             0
   3.82987e+61   6.97053e+59   4.85683e+62  -8.21968e+68             0             0   8.21968e+68  -8.21968e+68             0             0             0             0             0
   3.82987e+61   6.97053e+59   4.85683e+62  -8.21968e+68             0             0   8.21968e+68  -8.21968e+68             0             0             0             0             0
   3.82987e+61   6.97053e+59   4.85683e+62  -8.21968e+68             0             0   8.21968e+68  -8.21968e+68             0             0             0             0             0
   6.01701e+50  -2.44936e+63   2.36624e+62  -8.21968e+68             0             0   8.21968e+68  -8.21968e+68             0             0             0             0             0
   6.01701e+50  -2.44936e+63   2.36624e+62  -8.21968e+68             0             0   8.21968e+68  -8.21968e+68             0             0             0             0             0
   6.01701e+50  -2.44936e+63   2.36624e+62  -8.21968e+68             0             0   8.21968e+68  -8.21968e+68             0             0             0             0             0
   6.01701e+50  -2.44936e+63   2.36624e+62  -8.21968e+68             0             0   8.21968e+68  -8.21968e+68             0             0             0             0             0
   6.57526e+61  -8.26542e+59   2.79276e+62    1.2641e+68             0             0    1.2641e+68    1.2641e+68             0             0             0             0             0
   6.57526e+61  -8.26542e+59   2.79276e+62    1.2641e+68             0             0    1.2641e+68    1.2641e+68             0             0             0             0             0
   6.57526e+61  -8.26542e+59   2.79276e+62    1.2641e+68             0             0    1.2641e+68    1.2641e+68             0             0             0             0             0
   6.57526e+61  -8.26542e+59   2.79276e+62    1.2641e+68             0             0    1.2641e+68    1.2641e+68             0             0             0             0             0
   6.01701e+50  -2.44936e+63   2.36624e+62    1.2641e+68             0             0    1.2641e+68    1.2641e+68             0             0             0             0             0
   6.01701e+50  -2.44936e+63   2.36624e+62    1.2641e+68             0             0    1.2641e+68    1.2641e+68             0             0             0             0             0
   6.01701e+50  -2.44936e+63   2.36624e+62    1.2641e+68             0             0    1.2641e+68    1.2641e+68             0             0             0             0             0
   6.01701e+50  -2.44936e+63   2.36624e+62    1.2641e+68             0             0    1.2641e+68    1.2641e+68             0             0             0             0             0
   8.42671e+60   6.61299e+59   1.02401e+61   4.96413e+68             0             0   4.96413e+68   4.96413e+68             0             0             0             0             0
   8.42671e+60   6.61299e+59   1.02401e+61   4.96413e+68             0             0   4.96413e+68   4.96413e+68             0             0             0             0             0
   8.42671e+60   6.61299e+59   1.02401e+61   4.96413e+68             0             0   4.96413e+68   4.96413e+68             0             0             0             0             0
   8.42671e+60   6.61299e+59   1.02401e+61   4.96413e+68             0             0   4.96413e+68   4.96413e+68             0             0             0             0             0
   6.01701e+50  -2.44936e+63   2.36624e+62   4.96413e+68             0             0   4.96413e+68   4.96413e+68             0             0             0             0             0
   6.01701e+50  -2.44936e+63   2.36624e+62   4.96413e+68             0             0   4.96413e+68   4.96413e+68             0             0             0             0             0
   6.01701e+50  -2.44936e+63   2.36624e+62   4.96413e+68             0             0   4.96413e+68   4.96413e+68             0             0             0             0             0
   6.01701e+50  -2.44936e+63   2.36624e+62   4.96413e+68             0             0   4.96413e+68   4.96413e+68             0             0             0             0             0
   1.62998e+61  -9.07382e+59   6.29383e+62  -2.71903e+69             0             0   2.71903e+69  -2.71903e+69             0             0             0             0             0
   1.62998e+61  -9.07382e+59   6.29383e+62  -2.71903e+69             0             0   2.71903e+69  -2.71903e+69             0             0             0             0             0
   1.62998e+61  -9.07382e+59   6.29383e+62  -2.71903e+69             0             0   2.71903e+69  -2.71903e+69             0             0             0             0             0
   1.62998e+61  -9.07382e+59   6.29383e+62  -2.71903e+69             0             0   2.71903e+69  -2.71903e+69             0             0             0             0             0
   -9.6264e+50   2.44936e+63   2.36624e+62  -2.71903e+69             0             0   2.71903e+69  -2.71903e+69             0             0             0             0             0
   -9.6264e+50   2.44936e+63   2.36624e+62  -2.71903e+69             0             0   2.71903e+69  -2.71903e+69             0             0             0             0             0
   -9.6264e+50   2.44936e+63   2.36624e+62  -2.71903e+69             0             0   2.71903e+69  -2.71903e+69             0             0             0             0             0
   -9.6264e+50   2.44936e+63   2.36624e+62  -2.71903e+69             0             0   2.71903e+69  -2.71903e+69             0             0             0             0             0
    3.1391e+61  -6.92246e+59   5.76451e+62  -1.72206e+69             0             0   1.72206e+69  -1.72206e+69             0             0             0             0             0
    3.1391e+61  -6.92246e+59   5.76451e+62  -1.72206e+69             0             0   1.72206e+69  -1.72206e+69             0             0             0             0             0
    3.1391e+61  -6.92246e+59   5.76451e+62  -1.72206e+69             0             0   1.72206e+69  -1.72206e+69             0             0             0             0             0
    3.1391e+61  -6.92246e+59   5.76451e+62  -1.72206e+69             0             0   1.72206e+69  -1.72206e+69             0             0             0             0             0
   -9.6264e+50   2.44936e+63   2.36624e+62  -1.72206e+69             0             0   1.72206e+69  -1.72206e+69             0             0             0             0             0
   -9.6264e+50   2.44936e+63   2.36624e+62  -1.72206e+69             0             0   1.72206e+69  -1.72206e+69             0             0             0             0             0
   -9.6264e+50   2.44936e+63   2.36624e+62  -1.72206e+69             0             0   1.72206e+69  -1.72206e+69             0             0             0             0             0
   -9.6264e+50   2.44936e+63   2.36624e+62  -1.72206e+69             0             0   1.72206e+69  -1.72206e+69             0             0             0             0             0
   3.82987e+61  -6.97053e+59   4.85683e+62  -8.21968e+68             0             0   8.21968e+68  -8.21968e+68             0             0             0             0             0
   3.82987e+61  -6.97053e+59   4.85683e+62  -8.21968e+68             0             0   8.21968e+68  -8.21968e+68             0             0             0             0             0
   3.82987e+61  -6.97053e+59   4.85683e+62  -8.21968e+68             0             0   8.21968e+68  -8.21968e+68             0             0             0             0             0
   3.82987e+61  -6.97053e+59   4.85683e+62  -8.21968e+68             0             0   8.21968e+68  -8.21968e+68             0             0             0             0             0
   -9.6264e+50   2.44936e+63   2.36624e+62  -8.21968e+68             0             0   8.21968e+68  -8.21968e+68             0             0             0             0             0
   -9.6264e+50   2.44936e+63   2.36624e+62  -8.21968e+68             0             0   8.21968e+68  -8.21968e+68             0             0             0             0             0
   -9.6264e+50   2.44936e+63   2.36624e+62  -8.21968e+68             0             0   8.21968e+68  -8.21968e+68             0             0             0             0             0
   -9.6264e+50   2.44936e+63   2.36624e+62  -8.21968e+68             0             0   8.21968e+68  -8.21968e+68             0             0             0             0             0
   6.57526e+61   8.26542e+59   2.79276e+62    1.2641e+68             0             0    1.2641e+68    1.2641e+68             0             0             0             0             0
   6.57526e+61   8.26542e+59   2.79276e+62    1.2641e+68             0             0    1.2641e+68    1.2641e+68             0             0             0             0             0
   6.57526e+61   8.26542e+59   2.79276e+62    1.2641e+68             0             0    1.2641e+68    1.2641e+68             0             0             0             0             0
   6.57526e+61   8.26542e+59   2.79276e+62    1.2641e+68             0             0    1.2641e+68    1.2641e+68             0             0             0             0             0
   -9.6264e+50   2.44936e+63   2.36624e+62    1.2641e+68             0             0    1.2641e+68    1.2641e+68             0             0             0             0             0
   -9.6264e+50   2.44936e+63   2.36624e+62    1.2641e+68             0             0    1.2641e+68    1.2641e+68             0             0             0             0             0
   -9.6264e+50   2.44936e+63   2.36624e+62    1.2641e+68             0             0    1.2641e+68    1.2641e+68             0             0             0             0             0
   -9.6264e+50   2.44936e+63   2.36624e+62    1.2641e+68             0             0    1.2641e+68    1.2641e+68             0             0             0             0             0
   8.42671e+60  -6.61299e+59   1.02401e+61   4.96413e+68             0             0   4.96413e+68   4.96413e+68             0             0             0             0             0
   8.42671e+60  -6.61299e+59   1.02401e+61   4.96413e+68             0             0   4.96413e+68   4.96413e+68             0             0             0             0             0
   8.42671e+60  -6.61299e+59   1.02401e+61   4.96413e+68             0             0   4.96413e+68   4.96413e+68             0             0             0             0             0
   8.42671e+60  -6.61299e+59   1.02401e+61   4.96413e+68             0             0   4.96413e+68   4.96413e+68             0             0             0             0             0
   -9.6264e+50   2.44936e+63   2.36624e+62   4.96413e+68             0             0   4.96413e+68   4.96413e+68             0             0             0             0             0
   -9.6264e+50   2.44936e+63   2.36624e+62   4.96413e+68             0             0   4.96413e+68   4.96413e+68             0             0             0             0             0
   -9.6264e+50   2.44936e+63   2.36624e+62   4.96413e+68             0             0   4.96413e+68   4.96413e+68             0             0             0             0             0
   -9.6264e+50   2.44936e+63   2.36624e+62   4.96413e+68             0             0   4.96413e+68   4.96413e+68             0             0             0             0             0
             1             2             3             4             5             6             7             8
             9            10            11            12            13            14            15            16
            17            18            19            20            21            22            23            24
            25            26            27            28            29            30            31            32
            33            34            35            36            37            38            39            40
            41            42            43            44            45            46            47            48
            49            50            51            52            53            54            55            56
            57            58            59            60            61            62            63            64
            65            66            67            68            69            70            71            72
            73            74            75            76            77            78            79            80
            81            82            83            84            85            86            87            88
            89            90            91            92            93            94            95            96
            97            98            99           100           101           102           103           104
           105           106           107           108           109           110           111           112
           113           114           115           116           117           118           119           120
           121           122           123           124           125           126           127           128
           129           130           131           132           133           134           135           136
           137           138           139           140           141           142           143           144
           145           146           147           148           149           150           151           152
           153           154           155           156           157           158           159           160
